 Entering Gaussian System, Link 0=/apl/gaussian/16c02/g16/._.g16
 Initial command:
 /apl/gaussian/16c02/g16/l1.exe "/lwork/users/eso/6527384.ccpbs1/gaussian/Gau-3632726.inp" -scrdir="/lwork/users/eso/6527384.ccpbs1/gaussian/"
 Default CPUs for threads: 17,19,20,21,22,23,24,25
 Default is to use a total of   8 processors:
                                8 via shared-memory
                                1 via Linda
 Entering Link 1 = /apl/gaussian/16c02/g16/l1.exe PID=   3632727.
  
 Copyright (c) 1988-2021, Gaussian, Inc.  All Rights Reserved.
  
 This is part of the Gaussian(R) 16 program.  It is based on
 the Gaussian(R) 09 system (copyright 2009, Gaussian, Inc.),
 the Gaussian(R) 03 system (copyright 2003, Gaussian, Inc.),
 the Gaussian(R) 98 system (copyright 1998, Gaussian, Inc.),
 the Gaussian(R) 94 system (copyright 1995, Gaussian, Inc.),
 the Gaussian 92(TM) system (copyright 1992, Gaussian, Inc.),
 the Gaussian 90(TM) system (copyright 1990, Gaussian, Inc.),
 the Gaussian 88(TM) system (copyright 1988, Gaussian, Inc.),
 the Gaussian 86(TM) system (copyright 1986, Carnegie Mellon
 University), and the Gaussian 82(TM) system (copyright 1983,
 Carnegie Mellon University). Gaussian is a federally registered
 trademark of Gaussian, Inc.
  
 This software contains proprietary and confidential information,
 including trade secrets, belonging to Gaussian, Inc.
  
 This software is provided under written license and may be
 used, copied, transmitted, or stored only in accord with that
 written license.
  
 The following legend is applicable only to US Government
 contracts under FAR:
  
                    RESTRICTED RIGHTS LEGEND
  
 Use, reproduction and disclosure by the US Government is
 subject to restrictions as set forth in subparagraphs (a)
 and (c) of the Commercial Computer Software - Restricted
 Rights clause in FAR 52.227-19.
  
 Gaussian, Inc.
 340 Quinnipiac St., Bldg. 40, Wallingford CT 06492
  
  
 ---------------------------------------------------------------
 Warning -- This program may not be used in any manner that
 competes with the business of Gaussian, Inc. or will provide
 assistance to any competitor of Gaussian, Inc.  The licensee
 of this program is prohibited from giving any competitor of
 Gaussian, Inc. access to this program.  By using this program,
 the user acknowledges that Gaussian, Inc. is engaged in the
 business of creating and licensing software in the field of
 computational chemistry and represents and warrants to the
 licensee that it is not a competitor of Gaussian, Inc. and that
 it will not use this program in any manner prohibited above.
 ---------------------------------------------------------------
  

 Cite this work as:
 Gaussian 16, Revision C.02,
 M. J. Frisch, G. W. Trucks, H. B. Schlegel, G. E. Scuseria, 
 M. A. Robb, J. R. Cheeseman, G. Scalmani, V. Barone, 
 G. A. Petersson, H. Nakatsuji, X. Li, M. Caricato, A. V. Marenich, 
 J. Bloino, B. G. Janesko, R. Gomperts, B. Mennucci, H. P. Hratchian, 
 J. V. Ortiz, A. F. Izmaylov, J. L. Sonnenberg, D. Williams-Young, 
 F. Ding, F. Lipparini, F. Egidi, J. Goings, B. Peng, A. Petrone, 
 T. Henderson, D. Ranasinghe, V. G. Zakrzewski, J. Gao, N. Rega, 
 G. Zheng, W. Liang, M. Hada, M. Ehara, K. Toyota, R. Fukuda, 
 J. Hasegawa, M. Ishida, T. Nakajima, Y. Honda, O. Kitao, H. Nakai, 
 T. Vreven, K. Throssell, J. A. Montgomery, Jr., J. E. Peralta, 
 F. Ogliaro, M. J. Bearpark, J. J. Heyd, E. N. Brothers, K. N. Kudin, 
 V. N. Staroverov, T. A. Keith, R. Kobayashi, J. Normand, 
 K. Raghavachari, A. P. Rendell, J. C. Burant, S. S. Iyengar, 
 J. Tomasi, M. Cossi, J. M. Millam, M. Klene, C. Adamo, R. Cammi, 
 J. W. Ochterski, R. L. Martin, K. Morokuma, O. Farkas, 
 J. B. Foresman, and D. J. Fox, Gaussian, Inc., Wallingford CT, 2019.
 
 ******************************************
 Gaussian 16:  ES64L-G16RevC.02  7-Dec-2021
                12-Jun-2024 
 ******************************************
 %chk=C(CCl)Cl.chk
 %mem=9600MB
 SetSPE:  set environment variable "OMP_PROC_BIND" = "true"
 SetSPE:  set environment variable "OMP_PLACES" = "{17},{19},{20},{21},{22},{23},{24},{25}"
 --------------------------------------------------------
 # opt freq b3lyp/6-311++g(d,p) pop=nbo geom=connectivity
 --------------------------------------------------------
 1/18=20,19=15,26=3,38=1,57=2/1,3;
 2/9=110,12=2,17=6,18=5,40=1/2;
 3/5=4,6=6,7=1111,11=2,25=1,30=1,71=1,74=-5/1,2,3;
 4//1;
 5/5=2,38=5/2;
 6/7=2,8=2,9=2,10=2,28=1,40=1/1,7;
 7//1,2,3,16;
 1/18=20,19=15,26=3/3(2);
 2/9=110/2;
 99//99;
 2/9=110/2;
 3/5=4,6=6,7=1111,11=2,25=1,30=1,71=1,74=-5/1,2,3;
 4/5=5,16=3,69=1/1;
 5/5=2,38=5/2;
 7//1,2,3,16;
 1/18=20,19=15,26=3/3(-5);
 2/9=110/2;
 6/7=2,8=2,9=2,10=2,19=2,28=1,40=1/1,7;
 99/9=1/99;
 --------
 C(CCl)Cl
 --------
 Symbolic Z-matrix:
 Charge =  0 Multiplicity = 1
 C                    -0.68466   0.32023   0.06352 
 C                     0.68466  -0.32023  -0.06352 
 Cl                    1.961     0.88278   0.24728 
 Cl                   -1.96101  -0.88278  -0.24728 
 H                    -0.8144    1.13183  -0.65899 
 H                    -0.84681   0.7197    1.06935 
 H                     0.84681  -0.71969  -1.06935 
 H                     0.8144   -1.13184   0.65899 
 

 GradGradGradGradGradGradGradGradGradGradGradGradGradGradGradGradGradGrad
 Berny optimization.
 Initialization pass.
                           ----------------------------
                           !    Initial Parameters    !
                           ! (Angstroms and Degrees)  !
 --------------------------                            --------------------------
 ! Name  Definition              Value          Derivative Info.                !
 --------------------------------------------------------------------------------
 ! R1    R(1,2)                  1.517          estimate D2E/DX2                !
 ! R2    R(1,4)                  1.7813         estimate D2E/DX2                !
 ! R3    R(1,5)                  1.0943         estimate D2E/DX2                !
 ! R4    R(1,6)                  1.0943         estimate D2E/DX2                !
 ! R5    R(2,3)                  1.7813         estimate D2E/DX2                !
 ! R6    R(2,7)                  1.0943         estimate D2E/DX2                !
 ! R7    R(2,8)                  1.0943         estimate D2E/DX2                !
 ! A1    A(2,1,4)              110.3062         estimate D2E/DX2                !
 ! A2    A(2,1,5)              111.3972         estimate D2E/DX2                !
 ! A3    A(2,1,6)              111.3975         estimate D2E/DX2                !
 ! A4    A(4,1,5)              107.5012         estimate D2E/DX2                !
 ! A5    A(4,1,6)              107.5014         estimate D2E/DX2                !
 ! A6    A(5,1,6)              108.5751         estimate D2E/DX2                !
 ! A7    A(1,2,3)              110.3061         estimate D2E/DX2                !
 ! A8    A(1,2,7)              111.3972         estimate D2E/DX2                !
 ! A9    A(1,2,8)              111.3976         estimate D2E/DX2                !
 ! A10   A(3,2,7)              107.5013         estimate D2E/DX2                !
 ! A11   A(3,2,8)              107.5014         estimate D2E/DX2                !
 ! A12   A(7,2,8)              108.575          estimate D2E/DX2                !
 ! D1    D(4,1,2,3)            179.9998         estimate D2E/DX2                !
 ! D2    D(4,1,2,7)             60.6996         estimate D2E/DX2                !
 ! D3    D(4,1,2,8)            -60.6996         estimate D2E/DX2                !
 ! D4    D(5,1,2,3)             60.6996         estimate D2E/DX2                !
 ! D5    D(5,1,2,7)            -58.6006         estimate D2E/DX2                !
 ! D6    D(5,1,2,8)           -179.9998         estimate D2E/DX2                !
 ! D7    D(6,1,2,3)            -60.6995         estimate D2E/DX2                !
 ! D8    D(6,1,2,7)           -179.9998         estimate D2E/DX2                !
 ! D9    D(6,1,2,8)             58.6011         estimate D2E/DX2                !
 --------------------------------------------------------------------------------
 Trust Radius=3.00D-01 FncErr=1.00D-07 GrdErr=1.00D-06 EigMax=2.50D+02 EigMin=1.00D-04
 Number of steps in this run=     38 maximum allowed number of steps=    100.
 GradGradGradGradGradGradGradGradGradGradGradGradGradGradGradGradGradGrad

                          Input orientation:                          
 ---------------------------------------------------------------------
 Center     Atomic      Atomic             Coordinates (Angstroms)
 Number     Number       Type             X           Y           Z
 ---------------------------------------------------------------------
      1          6           0       -0.684655    0.320228    0.063524
      2          6           0        0.684655   -0.320228   -0.063521
      3         17           0        1.961005    0.882777    0.247280
      4         17           0       -1.961005   -0.882777   -0.247282
      5          1           0       -0.814399    1.131831   -0.658993
      6          1           0       -0.846814    0.719696    1.069354
      7          1           0        0.846810   -0.719691   -1.069353
      8          1           0        0.814404   -1.131836    0.658990
 ---------------------------------------------------------------------
                    Distance matrix (angstroms):
                    1          2          3          4          5
     1  C    0.000000
     2  C    1.517015   0.000000
     3  Cl   2.711041   1.781260   0.000000
     4  Cl   1.781260   2.711042   4.329426   0.000000
     5  H    1.094333   2.170306   2.930226   2.354327   0.000000
     6  H    1.094333   2.170310   2.930230   2.354330   1.777102
     7  H    2.170306   1.094332   2.354328   2.930226   2.521140
     8  H    2.170310   1.094333   2.354329   2.930231   3.084521
                    6          7          8
     6  H    0.000000
     7  H    3.084520   0.000000
     8  H    2.521153   1.777100   0.000000
 Stoichiometry    C2H4Cl2
 Framework group  C1[X(C2H4Cl2)]
 Deg. of freedom    18
 Full point group                 C1      NOp   1
 Largest Abelian subgroup         C1      NOp   1
 Largest concise Abelian subgroup C1      NOp   1
                         Standard orientation:                         
 ---------------------------------------------------------------------
 Center     Atomic      Atomic             Coordinates (Angstroms)
 Number     Number       Type             X           Y           Z
 ---------------------------------------------------------------------
      1          6           0       -0.501602   -0.568972   -0.000002
      2          6           0        0.501602    0.568973   -0.000002
      3         17           0        2.163513   -0.072072    0.000001
      4         17           0       -2.163513    0.072072    0.000001
      5          1           0       -0.391585   -1.198206    0.888551
      6          1           0       -0.391586   -1.198212   -0.888551
      7          1           0        0.391585    1.198207    0.888550
      8          1           0        0.391587    1.198213   -0.888550
 ---------------------------------------------------------------------
 Rotational constants (GHZ):          29.5738286           1.4986728           1.4524855
 Standard basis: 6-311++G(d,p) (5D, 7F)
 There are   136 symmetry adapted cartesian basis functions of A   symmetry.
 There are   132 symmetry adapted basis functions of A   symmetry.
   132 basis functions,   214 primitive gaussians,   136 cartesian basis functions
    25 alpha electrons       25 beta electrons
       nuclear repulsion energy       194.6857671204 Hartrees.
 NAtoms=    8 NActive=    8 NUniq=    8 SFac= 1.00D+00 NAtFMM=   60 NAOKFM=F Big=F
 Integral buffers will be    131072 words long.
 Raffenetti 2 integral format.
 Two-electron integral symmetry is turned on.
 One-electron integrals computed using PRISM.
 NBasis=   132 RedAO= T EigKep=  5.99D-05  NBF=   132
 NBsUse=   132 1.00D-06 EigRej= -1.00D+00 NBFU=   132
 ExpMin= 3.60D-02 ExpMax= 1.06D+05 ExpMxC= 3.62D+03 IAcc=3 IRadAn=         5 AccDes= 0.00D+00
 Harris functional with IExCor=  402 and IRadAn=       5 diagonalized for initial guess.
 HarFok:  IExCor=  402 AccDes= 0.00D+00 IRadAn=         5 IDoV= 1 UseB2=F ITyADJ=14
 ICtDFT=  3500011 ScaDFX=  1.000000  1.000000  1.000000  1.000000
 FoFCou: FMM=F IPFlag=           0 FMFlag=      100000 FMFlg1=           0
         NFxFlg=           0 DoJE=T BraDBF=F KetDBF=T FulRan=T
         wScrn=  0.000000 ICntrl=       500 IOpCl=  0 I1Cent=   200000004 NGrid=           0
         NMat0=    1 NMatS0=      1 NMatT0=    0 NMatD0=    1 NMtDS0=    0 NMtDT0=    0
 Petite list used in FoFCou.
 Keep R1 ints in memory in canonical form, NReq=46243989.
 Requested convergence on RMS density matrix=1.00D-08 within 128 cycles.
 Requested convergence on MAX density matrix=1.00D-06.
 Requested convergence on             energy=1.00D-06.
 No special actions if energy rises.
 SCF Done:  E(RB3LYP) =  -999.100598611     A.U. after   11 cycles
            NFock= 11  Conv=0.15D-08     -V/T= 2.0025

 **********************************************************************

            Population analysis using the SCF Density.

 **********************************************************************

 Orbital symmetries:
       Occupied  (A) (A) (A) (A) (A) (A) (A) (A) (A) (A) (A) (A)
                 (A) (A) (A) (A) (A) (A) (A) (A) (A) (A) (A) (A)
                 (A)
       Virtual   (A) (A) (A) (A) (A) (A) (A) (A) (A) (A) (A) (A)
                 (A) (A) (A) (A) (A) (A) (A) (A) (A) (A) (A) (A)
                 (A) (A) (A) (A) (A) (A) (A) (A) (A) (A) (A) (A)
                 (A) (A) (A) (A) (A) (A) (A) (A) (A) (A) (A) (A)
                 (A) (A) (A) (A) (A) (A) (A) (A) (A) (A) (A) (A)
                 (A) (A) (A) (A) (A) (A) (A) (A) (A) (A) (A) (A)
                 (A) (A) (A) (A) (A) (A) (A) (A) (A) (A) (A) (A)
                 (A) (A) (A) (A) (A) (A) (A) (A) (A) (A) (A) (A)
                 (A) (A) (A) (A) (A) (A) (A) (A) (A) (A) (A)
 The electronic state is 1-A.
 Alpha  occ. eigenvalues -- -101.55681-101.55681 -10.25257 -10.25233  -9.47160
 Alpha  occ. eigenvalues --   -9.47158  -7.23619  -7.23619  -7.22637  -7.22637
 Alpha  occ. eigenvalues --   -7.22610  -7.22610  -0.89979  -0.86004  -0.73307
 Alpha  occ. eigenvalues --   -0.63864  -0.51410  -0.47034  -0.45807  -0.42386
 Alpha  occ. eigenvalues --   -0.40693  -0.32864  -0.31662  -0.31377  -0.31247
 Alpha virt. eigenvalues --   -0.01418  -0.01345   0.00999   0.01534   0.02606
 Alpha virt. eigenvalues --    0.04514   0.04572   0.05950   0.08116   0.08466
 Alpha virt. eigenvalues --    0.08760   0.09216   0.11170   0.11599   0.11980
 Alpha virt. eigenvalues --    0.13014   0.13043   0.13310   0.14997   0.15895
 Alpha virt. eigenvalues --    0.16020   0.18497   0.19056   0.20364   0.22787
 Alpha virt. eigenvalues --    0.25427   0.29636   0.39383   0.40997   0.41212
 Alpha virt. eigenvalues --    0.43206   0.44546   0.46353   0.48025   0.48467
 Alpha virt. eigenvalues --    0.48943   0.49034   0.51793   0.58403   0.60531
 Alpha virt. eigenvalues --    0.61228   0.67209   0.68370   0.77851   0.79944
 Alpha virt. eigenvalues --    0.81054   0.82713   0.86313   0.86575   0.86929
 Alpha virt. eigenvalues --    0.87970   0.91661   0.94982   1.00836   1.03660
 Alpha virt. eigenvalues --    1.12844   1.15309   1.15489   1.18214   1.21155
 Alpha virt. eigenvalues --    1.46898   1.51759   1.53557   1.60245   1.60593
 Alpha virt. eigenvalues --    1.63577   1.67051   1.76644   1.77683   1.85410
 Alpha virt. eigenvalues --    1.92041   2.05824   2.08660   2.11891   2.23050
 Alpha virt. eigenvalues --    2.29106   2.29990   2.30998   2.31984   2.39112
 Alpha virt. eigenvalues --    2.45972   2.47295   2.48497   2.50684   2.52012
 Alpha virt. eigenvalues --    2.62479   2.62773   2.76073   2.77385   3.13734
 Alpha virt. eigenvalues --    3.16060   3.31466   3.68619   3.73210   4.05964
 Alpha virt. eigenvalues --    9.69327   9.75554  23.75193  23.77238  25.83919
 Alpha virt. eigenvalues --   25.86055  25.92518  25.93113  26.35090  26.40530
 Alpha virt. eigenvalues --  215.67406 215.74620
          Condensed to atoms (all electrons):
               1          2          3          4          5          6
     1  C    6.167322  -0.270236  -0.038204  -0.008258   0.359952   0.359952
     2  C   -0.270236   6.167321  -0.008257  -0.038203  -0.025897  -0.025897
     3  Cl  -0.038204  -0.008257  16.895671  -0.004149   0.023211   0.023210
     4  Cl  -0.008258  -0.038203  -0.004149  16.895671  -0.026424  -0.026423
     5  H    0.359952  -0.025897   0.023211  -0.026424   0.555994  -0.053162
     6  H    0.359952  -0.025897   0.023210  -0.026423  -0.053162   0.555994
     7  H   -0.025897   0.359952  -0.026423   0.023211  -0.024055   0.011695
     8  H   -0.025897   0.359952  -0.026423   0.023210   0.011695  -0.024054
               7          8
     1  C   -0.025897  -0.025897
     2  C    0.359952   0.359952
     3  Cl  -0.026423  -0.026423
     4  Cl   0.023211   0.023210
     5  H   -0.024055   0.011695
     6  H    0.011695  -0.024054
     7  H    0.555994  -0.053162
     8  H   -0.053162   0.555994
 Mulliken charges:
               1
     1  C   -0.518735
     2  C   -0.518734
     3  Cl   0.161364
     4  Cl   0.161364
     5  H    0.178685
     6  H    0.178685
     7  H    0.178685
     8  H    0.178685
 Sum of Mulliken charges =  -0.00000
 Mulliken charges with hydrogens summed into heavy atoms:
               1
     1  C   -0.161364
     2  C   -0.161364
     3  Cl   0.161364
     4  Cl   0.161364
 Electronic spatial extent (au):  <R**2>=            718.1285
 Charge=             -0.0000 electrons
 Dipole moment (field-independent basis, Debye):
    X=              0.0000    Y=              0.0000    Z=             -0.0000  Tot=              0.0000
 Quadrupole moment (field-independent basis, Debye-Ang):
   XX=            -46.0856   YY=            -37.4517   ZZ=            -38.2469
   XY=              0.5519   XZ=             -0.0000   YZ=              0.0000
 Traceless Quadrupole moment (field-independent basis, Debye-Ang):
   XX=             -5.4909   YY=              3.1431   ZZ=              2.3478
   XY=              0.5519   XZ=             -0.0000   YZ=              0.0000
 Octapole moment (field-independent basis, Debye-Ang**2):
  XXX=             -0.0000  YYY=              0.0000  ZZZ=              0.0000  XYY=              0.0000
  XXY=             -0.0000  XXZ=              0.0000  XZZ=              0.0000  YZZ=             -0.0000
  YYZ=             -0.0000  XYZ=             -0.0000
 Hexadecapole moment (field-independent basis, Debye-Ang**3):
 XXXX=           -778.8068 YYYY=            -89.9884 ZZZZ=            -57.7574 XXXY=            -15.9468
 XXXZ=             -0.0000 YYYX=              1.1035 YYYZ=              0.0000 ZZZX=             -0.0000
 ZZZY=             -0.0000 XXYY=           -148.2590 XXZZ=           -146.8162 YYZZ=            -21.9529
 XXYZ=              0.0000 YYXZ=             -0.0000 ZZXY=              1.2877
 N-N= 1.946857671204D+02 E-N=-2.759421826259D+03  KE= 9.965928417281D+02
 ******************************Gaussian NBO Version 3.1******************************
             N A T U R A L   A T O M I C   O R B I T A L   A N D
          N A T U R A L   B O N D   O R B I T A L   A N A L Y S I S
 ******************************Gaussian NBO Version 3.1******************************
       /RESON  / : Allow strongly delocalized NBO set

 Analyzing the SCF density

 Job title: C(CCl)Cl                                                        

 Storage needed:     53010 in NPA,     70186 in NBO (1258290800 available)
 GSVD:  LWork=        3320 too small for GESVD, short by       24150 words or       24150 for optimal perf.


 NATURAL POPULATIONS:  Natural atomic orbital occupancies 
                                                          
   NAO  Atom  No  lang   Type(AO)    Occupancy      Energy
 ----------------------------------------------------------
     1    C    1  S      Cor( 1S)     1.99906     -10.12794
     2    C    1  S      Val( 2S)     1.10748      -0.35359
     3    C    1  S      Ryd( 3S)     0.00353       0.56796
     4    C    1  S      Ryd( 4S)     0.00027       0.67075
     5    C    1  S      Ryd( 5S)     0.00001      23.43879
     6    C    1  px     Val( 2p)     0.90003      -0.18575
     7    C    1  px     Ryd( 3p)     0.00526       0.46006
     8    C    1  px     Ryd( 4p)     0.00072       1.47504
     9    C    1  px     Ryd( 5p)     0.00009       1.74914
    10    C    1  py     Val( 2p)     1.11095      -0.15511
    11    C    1  py     Ryd( 3p)     0.00151       0.40055
    12    C    1  py     Ryd( 4p)     0.00034       1.47288
    13    C    1  py     Ryd( 5p)     0.00016       1.84867
    14    C    1  pz     Val( 2p)     1.23759      -0.14555
    15    C    1  pz     Ryd( 3p)     0.00298       0.45260
    16    C    1  pz     Ryd( 4p)     0.00037       1.57687
    17    C    1  pz     Ryd( 5p)     0.00019       1.80167
    18    C    1  dxy    Ryd( 3d)     0.00156       1.96238
    19    C    1  dxz    Ryd( 3d)     0.00082       1.65087
    20    C    1  dyz    Ryd( 3d)     0.00137       2.16981
    21    C    1  dx2y2  Ryd( 3d)     0.00142       1.74934
    22    C    1  dz2    Ryd( 3d)     0.00123       1.97146
 
    23    C    2  S      Cor( 1S)     1.99906     -10.12794
    24    C    2  S      Val( 2S)     1.10748      -0.35359
    25    C    2  S      Ryd( 3S)     0.00353       0.56796
    26    C    2  S      Ryd( 4S)     0.00027       0.67075
    27    C    2  S      Ryd( 5S)     0.00001      23.43879
    28    C    2  px     Val( 2p)     0.90003      -0.18575
    29    C    2  px     Ryd( 3p)     0.00526       0.46006
    30    C    2  px     Ryd( 4p)     0.00072       1.47504
    31    C    2  px     Ryd( 5p)     0.00009       1.74914
    32    C    2  py     Val( 2p)     1.11095      -0.15511
    33    C    2  py     Ryd( 3p)     0.00151       0.40055
    34    C    2  py     Ryd( 4p)     0.00034       1.47288
    35    C    2  py     Ryd( 5p)     0.00016       1.84867
    36    C    2  pz     Val( 2p)     1.23759      -0.14555
    37    C    2  pz     Ryd( 3p)     0.00298       0.45260
    38    C    2  pz     Ryd( 4p)     0.00037       1.57687
    39    C    2  pz     Ryd( 5p)     0.00019       1.80167
    40    C    2  dxy    Ryd( 3d)     0.00156       1.96238
    41    C    2  dxz    Ryd( 3d)     0.00082       1.65087
    42    C    2  dyz    Ryd( 3d)     0.00137       2.16982
    43    C    2  dx2y2  Ryd( 3d)     0.00142       1.74934
    44    C    2  dz2    Ryd( 3d)     0.00123       1.97146
 
    45   Cl    3  S      Cor( 1S)     2.00000    -100.27150
    46   Cl    3  S      Cor( 2S)     1.99978     -10.46610
    47   Cl    3  S      Val( 3S)     1.85752      -0.99620
    48   Cl    3  S      Ryd( 4S)     0.00247       0.53952
    49   Cl    3  S      Ryd( 5S)     0.00007       1.11592
    50   Cl    3  S      Ryd( 6S)     0.00000      17.42632
    51   Cl    3  S      Ryd( 7S)     0.00000     207.61371
    52   Cl    3  px     Cor( 2p)     1.99994      -7.22871
    53   Cl    3  px     Val( 3p)     1.32929      -0.28724
    54   Cl    3  px     Ryd( 5p)     0.00290       0.38105
    55   Cl    3  px     Ryd( 4p)     0.00028       0.31367
    56   Cl    3  px     Ryd( 6p)     0.00002       3.01815
    57   Cl    3  px     Ryd( 7p)     0.00000      25.44347
    58   Cl    3  py     Cor( 2p)     1.99999      -7.22265
    59   Cl    3  py     Val( 3p)     1.86842      -0.32148
    60   Cl    3  py     Ryd( 4p)     0.00173       0.35807
    61   Cl    3  py     Ryd( 5p)     0.00010       0.36448
    62   Cl    3  py     Ryd( 6p)     0.00001       2.70982
    63   Cl    3  py     Ryd( 7p)     0.00000      25.31127
    64   Cl    3  pz     Cor( 2p)     1.99999      -7.22139
    65   Cl    3  pz     Val( 3p)     1.97421      -0.32832
    66   Cl    3  pz     Ryd( 4p)     0.00150       0.34472
    67   Cl    3  pz     Ryd( 5p)     0.00017       0.36432
    68   Cl    3  pz     Ryd( 6p)     0.00001       2.66669
    69   Cl    3  pz     Ryd( 7p)     0.00000      25.28993
    70   Cl    3  dxy    Ryd( 3d)     0.00290       1.04533
    71   Cl    3  dxz    Ryd( 3d)     0.00129       0.97900
    72   Cl    3  dyz    Ryd( 3d)     0.00037       0.88411
    73   Cl    3  dx2y2  Ryd( 3d)     0.00337       1.05428
    74   Cl    3  dz2    Ryd( 3d)     0.00160       0.96095
 
    75   Cl    4  S      Cor( 1S)     2.00000    -100.27150
    76   Cl    4  S      Cor( 2S)     1.99978     -10.46610
    77   Cl    4  S      Val( 3S)     1.85752      -0.99620
    78   Cl    4  S      Ryd( 4S)     0.00247       0.53952
    79   Cl    4  S      Ryd( 5S)     0.00007       1.11592
    80   Cl    4  S      Ryd( 6S)     0.00000      17.42632
    81   Cl    4  S      Ryd( 7S)     0.00000     207.61371
    82   Cl    4  px     Cor( 2p)     1.99994      -7.22871
    83   Cl    4  px     Val( 3p)     1.32929      -0.28724
    84   Cl    4  px     Ryd( 5p)     0.00290       0.38105
    85   Cl    4  px     Ryd( 4p)     0.00028       0.31367
    86   Cl    4  px     Ryd( 6p)     0.00002       3.01815
    87   Cl    4  px     Ryd( 7p)     0.00000      25.44347
    88   Cl    4  py     Cor( 2p)     1.99999      -7.22265
    89   Cl    4  py     Val( 3p)     1.86842      -0.32148
    90   Cl    4  py     Ryd( 4p)     0.00173       0.35807
    91   Cl    4  py     Ryd( 5p)     0.00010       0.36448
    92   Cl    4  py     Ryd( 6p)     0.00001       2.70982
    93   Cl    4  py     Ryd( 7p)     0.00000      25.31127
    94   Cl    4  pz     Cor( 2p)     1.99999      -7.22139
    95   Cl    4  pz     Val( 3p)     1.97421      -0.32832
    96   Cl    4  pz     Ryd( 4p)     0.00150       0.34472
    97   Cl    4  pz     Ryd( 5p)     0.00017       0.36432
    98   Cl    4  pz     Ryd( 6p)     0.00001       2.66669
    99   Cl    4  pz     Ryd( 7p)     0.00000      25.28993
   100   Cl    4  dxy    Ryd( 3d)     0.00290       1.04533
   101   Cl    4  dxz    Ryd( 3d)     0.00129       0.97900
   102   Cl    4  dyz    Ryd( 3d)     0.00037       0.88411
   103   Cl    4  dx2y2  Ryd( 3d)     0.00337       1.05428
   104   Cl    4  dz2    Ryd( 3d)     0.00160       0.96095
 
   105    H    5  S      Val( 1S)     0.78465       0.00567
   106    H    5  S      Ryd( 3S)     0.00144       0.49837
   107    H    5  S      Ryd( 2S)     0.00063       0.21856
   108    H    5  S      Ryd( 4S)     0.00017       2.28291
   109    H    5  px     Ryd( 2p)     0.00014       1.68770
   110    H    5  py     Ryd( 2p)     0.00021       1.98976
   111    H    5  pz     Ryd( 2p)     0.00030       2.31419
 
   112    H    6  S      Val( 1S)     0.78465       0.00567
   113    H    6  S      Ryd( 3S)     0.00144       0.49837
   114    H    6  S      Ryd( 2S)     0.00063       0.21856
   115    H    6  S      Ryd( 4S)     0.00017       2.28291
   116    H    6  px     Ryd( 2p)     0.00014       1.68770
   117    H    6  py     Ryd( 2p)     0.00021       1.98977
   118    H    6  pz     Ryd( 2p)     0.00030       2.31418
 
   119    H    7  S      Val( 1S)     0.78465       0.00567
   120    H    7  S      Ryd( 3S)     0.00144       0.49837
   121    H    7  S      Ryd( 2S)     0.00063       0.21856
   122    H    7  S      Ryd( 4S)     0.00017       2.28291
   123    H    7  px     Ryd( 2p)     0.00014       1.68770
   124    H    7  py     Ryd( 2p)     0.00021       1.98976
   125    H    7  pz     Ryd( 2p)     0.00030       2.31419
 
   126    H    8  S      Val( 1S)     0.78465       0.00567
   127    H    8  S      Ryd( 3S)     0.00144       0.49837
   128    H    8  S      Ryd( 2S)     0.00063       0.21856
   129    H    8  S      Ryd( 4S)     0.00017       2.28291
   130    H    8  px     Ryd( 2p)     0.00014       1.68770
   131    H    8  py     Ryd( 2p)     0.00021       1.98977
   132    H    8  pz     Ryd( 2p)     0.00030       2.31418

 WARNING:  Population inversion found on atom Cl    3
           Population inversion found on atom Cl    4
           Population inversion found on atom  H    5
           Population inversion found on atom  H    6
           Population inversion found on atom  H    7
           Population inversion found on atom  H    8


 Summary of Natural Population Analysis:                  
                                                          
                                       Natural Population 
                Natural  -----------------------------------------------
    Atom  No    Charge         Core      Valence    Rydberg      Total
 -----------------------------------------------------------------------
      C    1   -0.37695      1.99906     4.35606    0.02183     6.37695
      C    2   -0.37695      1.99906     4.35606    0.02183     6.37695
     Cl    3   -0.04795      9.99971     7.02944    0.01880    17.04795
     Cl    4   -0.04795      9.99971     7.02944    0.01880    17.04795
      H    5    0.21245      0.00000     0.78465    0.00289     0.78755
      H    6    0.21245      0.00000     0.78465    0.00289     0.78755
      H    7    0.21245      0.00000     0.78465    0.00289     0.78755
      H    8    0.21245      0.00000     0.78465    0.00289     0.78755
 =======================================================================
   * Total *   -0.00000     23.99753    25.90962    0.09285    50.00000

                                 Natural Population      
 --------------------------------------------------------
   Core                      23.99753 ( 99.9897% of  24)
   Valence                   25.90962 ( 99.6524% of  26)
   Natural Minimal Basis     49.90715 ( 99.8143% of  50)
   Natural Rydberg Basis      0.09285 (  0.1857% of  50)
 --------------------------------------------------------

    Atom  No          Natural Electron Configuration
 ----------------------------------------------------------------------------
      C    1      [core]2S( 1.11)2p( 3.25)3p( 0.01)3d( 0.01)
      C    2      [core]2S( 1.11)2p( 3.25)3p( 0.01)3d( 0.01)
     Cl    3      [core]3S( 1.86)3p( 5.17)3d( 0.01)
     Cl    4      [core]3S( 1.86)3p( 5.17)3d( 0.01)
      H    5            1S( 0.78)
      H    6            1S( 0.78)
      H    7            1S( 0.78)
      H    8            1S( 0.78)


 NATURAL BOND ORBITAL ANALYSIS:

                       Occupancies       Lewis Structure    Low   High
           Occ.    -------------------  -----------------   occ   occ
  Cycle   Thresh.   Lewis   Non-Lewis     CR  BD  3C  LP    (L)   (NL)   Dev
 =============================================================================
   1(1)    1.90    49.79145   0.20855     12   7   0   6     0      0    0.04
 -----------------------------------------------------------------------------

 Structure accepted: No low occupancy Lewis orbitals

 --------------------------------------------------------
   Core                     23.99753 ( 99.990% of  24)
   Valence Lewis            25.79391 ( 99.207% of  26)
  ==================       ============================
   Total Lewis              49.79145 ( 99.583% of  50)
  -----------------------------------------------------
   Valence non-Lewis         0.16019 (  0.320% of  50)
   Rydberg non-Lewis         0.04836 (  0.097% of  50)
  ==================       ============================
   Total non-Lewis           0.20855 (  0.417% of  50)
 --------------------------------------------------------


       (Occupancy)   Bond orbital/ Coefficients/ Hybrids
 ---------------------------------------------------------------------------------
     1. (1.99531) BD ( 1) C   1 - C   2  
                ( 50.00%)   0.7071* C   1 s( 30.91%)p 2.23( 69.05%)d 0.00(  0.05%)
                                            0.0001  0.5554  0.0220  0.0098  0.0001
                                            0.5344 -0.0167 -0.0026 -0.0065  0.6359
                                           -0.0092  0.0018 -0.0026 -0.0000  0.0000
                                           -0.0000 -0.0000  0.0165  0.0000 -0.0000
                                           -0.0053 -0.0126
                ( 50.00%)   0.7071* C   2 s( 30.91%)p 2.23( 69.05%)d 0.00(  0.05%)
                                            0.0001  0.5554  0.0220  0.0098  0.0001
                                           -0.5344  0.0167  0.0026  0.0065 -0.6359
                                            0.0092 -0.0018  0.0026 -0.0000  0.0000
                                           -0.0000 -0.0000  0.0165 -0.0000  0.0000
                                           -0.0053 -0.0126
     2. (1.98565) BD ( 1) C   1 -Cl   4  
                ( 44.87%)   0.6698* C   1 s( 19.59%)p 4.09( 80.21%)d 0.01(  0.19%)
                                           -0.0001  0.4417  0.0267 -0.0122 -0.0006
                                           -0.8362  0.0304  0.0254 -0.0048  0.3178
                                            0.0115 -0.0125 -0.0026  0.0000  0.0000
                                           -0.0000 -0.0000 -0.0269 -0.0000  0.0000
                                            0.0259 -0.0235
                ( 55.13%)   0.7425*Cl   4 s( 15.75%)p 5.31( 83.70%)d 0.03(  0.54%)
                                            0.0000  0.0001  0.3944  0.0443 -0.0002
                                            0.0002 -0.0000  0.0001  0.8498 -0.0422
                                           -0.0084 -0.0006  0.0001 -0.0000 -0.3356
                                            0.0201  0.0029 -0.0003  0.0002 -0.0000
                                           -0.0000  0.0000  0.0000  0.0000  0.0000
                                           -0.0422 -0.0000  0.0000  0.0476 -0.0374
     3. (1.98829) BD ( 1) C   1 - H   5  
                ( 61.21%)   0.7824* C   1 s( 24.84%)p 3.02( 75.08%)d 0.00(  0.07%)
                                            0.0000 -0.4980  0.0196 -0.0002 -0.0001
                                           -0.0738 -0.0058 -0.0008 -0.0010  0.4958
                                           -0.0025  0.0040 -0.0015 -0.7065 -0.0186
                                           -0.0102 -0.0008  0.0011 -0.0014  0.0213
                                            0.0056 -0.0155
                ( 38.79%)   0.6228* H   5 s( 99.96%)p 0.00(  0.04%)
                                           -0.9998 -0.0038 -0.0015  0.0004  0.0020
                                           -0.0122  0.0157
     4. (1.98829) BD ( 1) C   1 - H   6  
                ( 61.21%)   0.7824* C   1 s( 24.84%)p 3.02( 75.08%)d 0.00(  0.07%)
                                            0.0000 -0.4980  0.0196 -0.0002 -0.0001
                                           -0.0738 -0.0058 -0.0008 -0.0010  0.4958
                                           -0.0025  0.0040 -0.0015  0.7065  0.0186
                                            0.0102  0.0008  0.0011  0.0014 -0.0213
                                            0.0056 -0.0155
                ( 38.79%)   0.6228* H   6 s( 99.96%)p 0.00(  0.04%)
                                           -0.9998 -0.0038 -0.0015  0.0004  0.0020
                                           -0.0122 -0.0157
     5. (1.98565) BD ( 1) C   2 -Cl   3  
                ( 44.87%)   0.6698* C   2 s( 19.59%)p 4.09( 80.21%)d 0.01(  0.19%)
                                           -0.0001  0.4417  0.0267 -0.0122 -0.0006
                                            0.8362 -0.0304 -0.0254  0.0048 -0.3178
                                           -0.0115  0.0125  0.0026  0.0000  0.0000
                                           -0.0000 -0.0000 -0.0269  0.0000 -0.0000
                                            0.0259 -0.0235
                ( 55.13%)   0.7425*Cl   3 s( 15.75%)p 5.31( 83.70%)d 0.03(  0.54%)
                                            0.0000  0.0001  0.3944  0.0443 -0.0002
                                            0.0002 -0.0000 -0.0001 -0.8498  0.0422
                                            0.0084  0.0006 -0.0001  0.0000  0.3356
                                           -0.0201 -0.0029  0.0003 -0.0002 -0.0000
                                           -0.0000  0.0000  0.0000  0.0000  0.0000
                                           -0.0422  0.0000 -0.0000  0.0476 -0.0374
     6. (1.98829) BD ( 1) C   2 - H   7  
                ( 61.21%)   0.7824* C   2 s( 24.84%)p 3.02( 75.08%)d 0.00(  0.07%)
                                           -0.0000  0.4980 -0.0196  0.0002  0.0001
                                           -0.0738 -0.0058 -0.0008 -0.0010  0.4958
                                           -0.0025  0.0040 -0.0015  0.7065  0.0186
                                            0.0102  0.0008 -0.0011 -0.0014  0.0213
                                           -0.0056  0.0155
                ( 38.79%)   0.6228* H   7 s( 99.96%)p 0.00(  0.04%)
                                            0.9998  0.0038  0.0015 -0.0004  0.0020
                                           -0.0122 -0.0157
     7. (1.98829) BD ( 1) C   2 - H   8  
                ( 61.21%)   0.7824* C   2 s( 24.84%)p 3.02( 75.08%)d 0.00(  0.07%)
                                           -0.0000  0.4980 -0.0196  0.0002  0.0001
                                           -0.0738 -0.0058 -0.0008 -0.0010  0.4958
                                           -0.0025  0.0040 -0.0015 -0.7065 -0.0186
                                           -0.0102 -0.0008 -0.0011  0.0014 -0.0213
                                           -0.0056  0.0155
                ( 38.79%)   0.6228* H   8 s( 99.96%)p 0.00(  0.04%)
                                            0.9998  0.0038  0.0015 -0.0004  0.0020
                                           -0.0122  0.0157
     8. (1.99906) CR ( 1) C   1           s(100.00%)p 0.00(  0.00%)
                                            1.0000 -0.0000 -0.0000 -0.0000 -0.0000
                                           -0.0001  0.0000  0.0000  0.0000 -0.0001
                                            0.0000 -0.0000  0.0000  0.0000  0.0000
                                            0.0000  0.0000 -0.0000 -0.0000 -0.0000
                                            0.0000  0.0000
     9. (1.99906) CR ( 1) C   2           s(100.00%)p 0.00(  0.00%)
                                            1.0000 -0.0000 -0.0000 -0.0000 -0.0000
                                            0.0001 -0.0000 -0.0000 -0.0000  0.0001
                                           -0.0000  0.0000 -0.0000  0.0000  0.0000
                                            0.0000  0.0000 -0.0000  0.0000  0.0000
                                            0.0000  0.0000
    10. (2.00000) CR ( 1)Cl   3           s(100.00%)
                                            1.0000 -0.0000 -0.0000 -0.0000  0.0000
                                           -0.0000  0.0000  0.0000  0.0000 -0.0000
                                           -0.0000 -0.0000  0.0000 -0.0000 -0.0000
                                            0.0000  0.0000 -0.0000  0.0000  0.0000
                                            0.0000 -0.0000 -0.0000 -0.0000 -0.0000
                                            0.0000 -0.0000  0.0000 -0.0000  0.0000
    11. (1.99978) CR ( 2)Cl   3           s(100.00%)p 0.00(  0.00%)
                                           -0.0000  1.0000  0.0001 -0.0000  0.0000
                                           -0.0000  0.0000  0.0000  0.0002 -0.0000
                                           -0.0000 -0.0000  0.0000 -0.0000  0.0001
                                            0.0000  0.0000 -0.0000  0.0000  0.0000
                                            0.0000  0.0000 -0.0000 -0.0000 -0.0000
                                            0.0000 -0.0000  0.0000 -0.0000  0.0000
    12. (1.99994) CR ( 3)Cl   3           s(  0.00%)p 1.00(100.00%)
                                            0.0000  0.0000 -0.0000  0.0000 -0.0000
                                            0.0000 -0.0000  1.0000 -0.0002  0.0000
                                            0.0000  0.0000 -0.0000  0.0000 -0.0000
                                           -0.0000 -0.0000  0.0000 -0.0000 -0.0000
                                           -0.0000 -0.0000  0.0000  0.0000  0.0000
                                           -0.0000  0.0000 -0.0000  0.0000 -0.0000
    13. (1.99999) CR ( 4)Cl   3           s(  0.00%)p 1.00(100.00%)
                                           -0.0000 -0.0000  0.0000 -0.0000  0.0000
                                           -0.0000  0.0000  0.0000  0.0000 -0.0000
                                            0.0000 -0.0000  0.0000  1.0000  0.0000
                                            0.0000  0.0000 -0.0000 -0.0000  0.0000
                                            0.0000  0.0000 -0.0000 -0.0000 -0.0000
                                            0.0000 -0.0000  0.0000 -0.0000  0.0000
    14. (1.99999) CR ( 5)Cl   3           s(  0.00%)p 1.00(100.00%)
                                            0.0000  0.0000 -0.0000  0.0000 -0.0000
                                           -0.0000  0.0000 -0.0000 -0.0000  0.0000
                                            0.0000 -0.0000 -0.0000  0.0000 -0.0000
                                           -0.0000 -0.0000  0.0000  0.0000  1.0000
                                            0.0001  0.0000  0.0000  0.0000 -0.0000
                                           -0.0000 -0.0000  0.0000  0.0000 -0.0000
    15. (2.00000) CR ( 1)Cl   4           s(100.00%)
                                            1.0000 -0.0000 -0.0000 -0.0000  0.0000
                                           -0.0000  0.0000 -0.0000 -0.0000  0.0000
                                            0.0000  0.0000 -0.0000  0.0000  0.0000
                                           -0.0000 -0.0000  0.0000 -0.0000 -0.0000
                                            0.0000  0.0000  0.0000 -0.0000 -0.0000
                                            0.0000  0.0000 -0.0000 -0.0000  0.0000
    16. (1.99978) CR ( 2)Cl   4           s(100.00%)p 0.00(  0.00%)
                                           -0.0000  1.0000  0.0001 -0.0000  0.0000
                                           -0.0000  0.0000 -0.0000 -0.0002  0.0000
                                            0.0000  0.0000 -0.0000  0.0000 -0.0001
                                           -0.0000 -0.0000  0.0000 -0.0000 -0.0000
                                            0.0000  0.0000  0.0000 -0.0000 -0.0000
                                            0.0000  0.0000 -0.0000 -0.0000  0.0000
    17. (1.99994) CR ( 3)Cl   4           s(  0.00%)p 1.00(100.00%)
                                           -0.0000 -0.0000  0.0000 -0.0000  0.0000
                                           -0.0000  0.0000  1.0000 -0.0002  0.0000
                                            0.0000  0.0000 -0.0000  0.0000 -0.0000
                                           -0.0000 -0.0000  0.0000 -0.0000 -0.0000
                                            0.0000  0.0000 -0.0000 -0.0000 -0.0000
                                            0.0000  0.0000 -0.0000 -0.0000  0.0000
    18. (1.99999) CR ( 4)Cl   4           s(  0.00%)p 1.00(100.00%)
                                            0.0000  0.0000 -0.0000  0.0000 -0.0000
                                            0.0000 -0.0000  0.0000  0.0000 -0.0000
                                            0.0000 -0.0000  0.0000  1.0000  0.0000
                                            0.0000  0.0000 -0.0000 -0.0000 -0.0000
                                           -0.0000 -0.0000  0.0000  0.0000  0.0000
                                           -0.0000 -0.0000  0.0000  0.0000 -0.0000
    19. (1.99999) CR ( 5)Cl   4           s(  0.00%)p 1.00(100.00%)
                                           -0.0000 -0.0000 -0.0000  0.0000  0.0000
                                           -0.0000  0.0000 -0.0000  0.0000 -0.0000
                                            0.0000  0.0000  0.0000 -0.0000  0.0000
                                            0.0000  0.0000 -0.0000 -0.0000  1.0000
                                            0.0001  0.0000  0.0000  0.0000 -0.0000
                                           -0.0000  0.0000 -0.0000  0.0000 -0.0000
    20. (1.99676) LP ( 1)Cl   3           s( 83.64%)p 0.20( 16.35%)d 0.00(  0.01%)
                                           -0.0000 -0.0001  0.9145 -0.0106  0.0002
                                           -0.0000  0.0000  0.0001  0.3306 -0.0137
                                            0.0021  0.0014  0.0005 -0.0000 -0.2324
                                            0.0040 -0.0001 -0.0004 -0.0001  0.0000
                                           -0.0000 -0.0000  0.0000 -0.0000  0.0000
                                            0.0067 -0.0000  0.0000 -0.0052  0.0045
    21. (1.97499) LP ( 2)Cl   3           s(  0.00%)p 1.00( 99.98%)d 0.00(  0.02%)
                                           -0.0000 -0.0000  0.0000  0.0000  0.0000
                                           -0.0000  0.0000  0.0000 -0.0000 -0.0000
                                           -0.0000 -0.0000 -0.0000 -0.0000  0.0000
                                            0.0000 -0.0000  0.0000  0.0000 -0.0001
                                            0.9998  0.0143  0.0021  0.0007 -0.0001
                                           -0.0000 -0.0134  0.0031 -0.0000 -0.0000
    22. (1.96532) LP ( 3)Cl   3           s(  0.76%)p99.99( 99.22%)d 0.03(  0.02%)
                                           -0.0000 -0.0002  0.0870  0.0024  0.0005
                                           -0.0004  0.0000  0.0001  0.4004  0.0039
                                            0.0021 -0.0015 -0.0000 -0.0000  0.9119
                                            0.0142  0.0012 -0.0004 -0.0000  0.0000
                                           -0.0000  0.0000 -0.0000 -0.0000 -0.0000
                                           -0.0111 -0.0000 -0.0000 -0.0112  0.0004
    23. (1.99676) LP ( 1)Cl   4           s( 83.64%)p 0.20( 16.35%)d 0.00(  0.01%)
                                           -0.0000 -0.0001  0.9145 -0.0106  0.0002
                                           -0.0000  0.0000 -0.0001 -0.3306  0.0137
                                           -0.0021 -0.0014 -0.0005  0.0000  0.2324
                                           -0.0040  0.0001  0.0004  0.0001  0.0000
                                           -0.0000 -0.0000  0.0000 -0.0000  0.0000
                                            0.0067  0.0000 -0.0000 -0.0052  0.0045
    24. (1.97499) LP ( 2)Cl   4           s(  0.00%)p 1.00( 99.98%)d 0.00(  0.02%)
                                           -0.0000 -0.0000  0.0000  0.0000  0.0000
                                           -0.0000  0.0000 -0.0000  0.0000  0.0000
                                            0.0000  0.0000  0.0000  0.0000 -0.0000
                                           -0.0000  0.0000 -0.0000 -0.0000 -0.0001
                                            0.9998  0.0143  0.0021  0.0007 -0.0001
                                           -0.0000  0.0134 -0.0031 -0.0000 -0.0000
    25. (1.96532) LP ( 3)Cl   4           s(  0.76%)p99.99( 99.22%)d 0.03(  0.02%)
                                           -0.0000 -0.0002  0.0870  0.0024  0.0005
                                           -0.0004  0.0000 -0.0001 -0.4004 -0.0039
                                           -0.0021  0.0015  0.0000  0.0000 -0.9119
                                           -0.0142 -0.0012  0.0004  0.0000  0.0000
                                           -0.0000 -0.0000 -0.0000 -0.0000 -0.0000
                                           -0.0111 -0.0000  0.0000 -0.0112  0.0004
    26. (0.00505) RY*( 1) C   1           s( 11.61%)p 6.47( 75.12%)d 1.14( 13.27%)
                                            0.0000  0.0067  0.3406  0.0011 -0.0044
                                           -0.0234 -0.8575  0.0271 -0.0336 -0.0264
                                           -0.0306  0.0214 -0.1070  0.0000 -0.0000
                                           -0.0000 -0.0000  0.2294  0.0000 -0.0000
                                            0.2772 -0.0566
    27. (0.00277) RY*( 2) C   1           s(  0.00%)p 1.00( 78.14%)d 0.28( 21.86%)
                                            0.0000 -0.0000 -0.0000 -0.0000  0.0000
                                            0.0000 -0.0000  0.0000  0.0000 -0.0000
                                            0.0000 -0.0000  0.0000 -0.0189  0.8585
                                           -0.1968 -0.0729  0.0000 -0.4676 -0.0056
                                            0.0000  0.0000
    28. (0.00214) RY*( 3) C   1           s( 21.04%)p 2.86( 60.08%)d 0.90( 18.89%)
                                            0.0000 -0.0029  0.4421  0.1221  0.0049
                                            0.0063  0.4019 -0.0862 -0.0539 -0.0256
                                           -0.6284  0.1297 -0.1282  0.0000  0.0000
                                           -0.0000 -0.0000  0.2712 -0.0000 -0.0000
                                            0.3355 -0.0519
    29. (0.00145) RY*( 4) C   1           s( 47.50%)p 0.94( 44.82%)d 0.16(  7.69%)
                                           -0.0000 -0.0085  0.6874 -0.0490 -0.0003
                                            0.0366  0.2270 -0.1313  0.0224 -0.0269
                                            0.5687 -0.2083 -0.0999  0.0000 -0.0000
                                            0.0000  0.0000 -0.2445 -0.0000  0.0000
                                            0.0993 -0.0851
    30. (0.00073) RY*( 5) C   1           s(  0.00%)p 1.00( 27.49%)d 2.64( 72.51%)
                                            0.0000 -0.0000 -0.0000 -0.0000 -0.0000
                                            0.0000 -0.0000  0.0000 -0.0000 -0.0000
                                           -0.0000 -0.0000 -0.0000 -0.0275  0.2437
                                            0.0149 -0.4631 -0.0000  0.5224 -0.6724
                                            0.0000 -0.0000
    31. (0.00055) RY*( 6) C   1           s(  6.60%)p 4.28( 28.21%)d 9.88( 65.20%)
                                            0.0000  0.0093  0.2524  0.0281  0.0369
                                           -0.0403 -0.0014 -0.3274  0.1402  0.0049
                                            0.1218  0.2528  0.2736 -0.0000  0.0000
                                            0.0000 -0.0000  0.5322  0.0000 -0.0000
                                           -0.5619  0.2302
    32. (0.00020) RY*( 7) C   1           s( 13.92%)p 2.72( 37.84%)d 3.46( 48.23%)
                                           -0.0000 -0.0008  0.3459 -0.0745  0.1185
                                            0.0071 -0.1259  0.3590 -0.0018 -0.0115
                                           -0.3015  0.3723  0.0635 -0.0000  0.0000
                                            0.0000  0.0000 -0.5499 -0.0000 -0.0000
                                           -0.4224  0.0390
    33. (0.00010) RY*( 8) C   1           s(  0.00%)p 1.00( 35.71%)d 1.80( 64.29%)
    34. (0.00005) RY*( 9) C   1           s( 43.53%)p 0.92( 40.17%)d 0.37( 16.30%)
    35. (0.00001) RY*(10) C   1           s(  1.92%)p41.87( 80.52%)d 9.13( 17.56%)
    36. (0.00000) RY*(11) C   1           s(  0.00%)p 1.00( 88.10%)d 0.14( 11.90%)
    37. (0.00000) RY*(12) C   1           s(  0.00%)p 1.00( 70.65%)d 0.42( 29.35%)
    38. (0.00001) RY*(13) C   1           s(  1.42%)p68.06( 96.47%)d 1.49(  2.11%)
    39. (0.00000) RY*(14) C   1           s( 96.22%)p 0.03(  2.78%)d 0.01(  1.00%)
    40. (0.00000) RY*(15) C   1           s( 37.60%)p 1.45( 54.58%)d 0.21(  7.82%)
    41. (0.00000) RY*(16) C   1           s( 11.69%)p 6.15( 71.91%)d 1.40( 16.40%)
    42. (0.00000) RY*(17) C   1           s(  6.78%)p 1.18(  7.98%)d12.57( 85.24%)
    43. (0.00505) RY*( 1) C   2           s( 11.61%)p 6.47( 75.12%)d 1.14( 13.27%)
                                            0.0000  0.0067  0.3406  0.0011 -0.0044
                                            0.0234  0.8575 -0.0271  0.0336  0.0264
                                            0.0306 -0.0214  0.1070  0.0000 -0.0000
                                           -0.0000  0.0000  0.2294 -0.0000  0.0000
                                            0.2773 -0.0566
    44. (0.00277) RY*( 2) C   2           s(  0.00%)p 1.00( 78.14%)d 0.28( 21.86%)
                                           -0.0000 -0.0000  0.0000 -0.0000  0.0000
                                            0.0000  0.0000  0.0000 -0.0000  0.0000
                                           -0.0000 -0.0000  0.0000 -0.0189  0.8585
                                           -0.1968 -0.0729  0.0000  0.4676  0.0056
                                            0.0000  0.0000
    45. (0.00214) RY*( 3) C   2           s( 21.04%)p 2.86( 60.08%)d 0.90( 18.89%)
                                            0.0000 -0.0029  0.4421  0.1221  0.0049
                                           -0.0063 -0.4019  0.0862  0.0539  0.0256
                                            0.6284 -0.1297  0.1282  0.0000  0.0000
                                           -0.0000 -0.0000  0.2712  0.0000  0.0000
                                            0.3355 -0.0519
    46. (0.00145) RY*( 4) C   2           s( 47.50%)p 0.94( 44.82%)d 0.16(  7.69%)
                                           -0.0000 -0.0085  0.6874 -0.0490 -0.0003
                                           -0.0366 -0.2270  0.1313 -0.0224  0.0269
                                           -0.5687  0.2083  0.0999  0.0000 -0.0000
                                            0.0000  0.0000 -0.2445  0.0000 -0.0000
                                            0.0993 -0.0851
    47. (0.00073) RY*( 5) C   2           s(  0.00%)p 1.00( 27.49%)d 2.64( 72.51%)
                                            0.0000  0.0000  0.0000  0.0000  0.0000
                                            0.0000 -0.0000  0.0000 -0.0000 -0.0000
                                           -0.0000 -0.0000 -0.0000  0.0275 -0.2437
                                           -0.0149  0.4631  0.0000  0.5224 -0.6724
                                           -0.0000  0.0000
    48. (0.00055) RY*( 6) C   2           s(  6.60%)p 4.28( 28.21%)d 9.88( 65.20%)
                                            0.0000  0.0093  0.2524  0.0281  0.0369
                                            0.0403  0.0014  0.3274 -0.1402 -0.0049
                                           -0.1218 -0.2528 -0.2736 -0.0000  0.0000
                                            0.0000 -0.0000  0.5322 -0.0000  0.0000
                                           -0.5619  0.2302
    49. (0.00020) RY*( 7) C   2           s( 13.92%)p 2.72( 37.84%)d 3.46( 48.23%)
                                           -0.0000 -0.0008  0.3459 -0.0745  0.1185
                                           -0.0071  0.1259 -0.3590  0.0018  0.0115
                                            0.3015 -0.3723 -0.0635 -0.0000  0.0000
                                            0.0000  0.0000 -0.5499  0.0000  0.0000
                                           -0.4224  0.0390
    50. (0.00010) RY*( 8) C   2           s(  0.00%)p 1.00( 35.71%)d 1.80( 64.29%)
    51. (0.00005) RY*( 9) C   2           s( 43.53%)p 0.92( 40.17%)d 0.37( 16.30%)
    52. (0.00001) RY*(10) C   2           s(  1.92%)p41.87( 80.52%)d 9.13( 17.56%)
    53. (0.00000) RY*(11) C   2           s(  0.00%)p 1.00( 88.10%)d 0.14( 11.90%)
    54. (0.00000) RY*(12) C   2           s(  0.00%)p 1.00( 70.65%)d 0.42( 29.35%)
    55. (0.00001) RY*(13) C   2           s(  1.42%)p68.06( 96.47%)d 1.49(  2.11%)
    56. (0.00000) RY*(14) C   2           s( 96.22%)p 0.03(  2.78%)d 0.01(  1.00%)
    57. (0.00000) RY*(15) C   2           s( 37.60%)p 1.45( 54.58%)d 0.21(  7.82%)
    58. (0.00000) RY*(16) C   2           s( 11.68%)p 6.15( 71.91%)d 1.40( 16.40%)
    59. (0.00000) RY*(17) C   2           s(  6.78%)p 1.18(  7.98%)d12.57( 85.24%)
    60. (0.00257) RY*( 1)Cl   3           s(  0.26%)p99.99( 56.63%)d99.99( 43.11%)
                                            0.0000  0.0000 -0.0038  0.0504 -0.0005
                                           -0.0082 -0.0001 -0.0000  0.0184  0.4549
                                            0.0955 -0.0083  0.0024  0.0000 -0.0072
                                            0.5642 -0.1771  0.0044  0.0075  0.0000
                                            0.0000  0.0000 -0.0000  0.0000  0.0000
                                            0.4344  0.0000 -0.0000  0.4839 -0.0910
    61. (0.00242) RY*( 2)Cl   3           s(  0.00%)p 1.00( 49.08%)d 1.04( 50.92%)
                                            0.0000 -0.0000  0.0000 -0.0000 -0.0000
                                            0.0000 -0.0000 -0.0000 -0.0000 -0.0000
                                           -0.0000  0.0000 -0.0000  0.0000  0.0000
                                           -0.0000  0.0000 -0.0000 -0.0000  0.0000
                                            0.0003  0.6655 -0.2181  0.0147  0.0049
                                           -0.0000  0.6121 -0.3668 -0.0000  0.0000
    62. (0.00052) RY*( 3)Cl   3           s( 26.23%)p 1.29( 33.91%)d 1.52( 39.86%)
                                            0.0000  0.0000 -0.0180  0.4437  0.2551
                                           -0.0029  0.0001 -0.0000  0.0815  0.4675
                                           -0.1535 -0.0437 -0.0236  0.0000 -0.0352
                                           -0.2860  0.0526  0.0454 -0.0065  0.0000
                                            0.0000  0.0000 -0.0000 -0.0000 -0.0000
                                           -0.4871  0.0000 -0.0000  0.2751 -0.2926
    63. (0.00023) RY*( 4)Cl   3           s( 24.24%)p 2.74( 66.35%)d 0.39(  9.42%)
                                            0.0000  0.0000 -0.0079  0.3921 -0.2943
                                           -0.0440  0.0015 -0.0000  0.0169 -0.0890
                                            0.7669 -0.1004  0.0184  0.0000 -0.0159
                                            0.1909  0.1363  0.0368 -0.0105  0.0000
                                            0.0000 -0.0000 -0.0000 -0.0000  0.0000
                                           -0.2823  0.0000  0.0000 -0.0093  0.1199
    64. (0.00012) RY*( 5)Cl   3           s(  0.00%)p 1.00( 56.38%)d 0.77( 43.62%)
                                           -0.0000  0.0000  0.0000  0.0000  0.0000
                                           -0.0000  0.0000  0.0000 -0.0000 -0.0000
                                            0.0000 -0.0000 -0.0000 -0.0000 -0.0000
                                            0.0000 -0.0000  0.0000 -0.0000 -0.0000
                                           -0.0132  0.4391  0.5872  0.1611 -0.0070
                                            0.0000 -0.5177 -0.4101 -0.0000  0.0000
    65. (0.00008) RY*( 6)Cl   3           s( 44.40%)p 0.36( 16.10%)d 0.89( 39.51%)
    66. (0.00001) RY*( 7)Cl   3           s( 28.55%)p 2.00( 56.99%)d 0.51( 14.46%)
    67. (0.00000) RY*( 8)Cl   3           s(  0.10%)p99.99( 99.87%)d 0.25(  0.03%)
    68. (0.00000) RY*( 9)Cl   3           s( 35.01%)p 0.08(  2.82%)d 1.78( 62.16%)
    69. (0.00000) RY*(10)Cl   3           s(  0.61%)p99.99( 97.89%)d 2.45(  1.50%)
    70. (0.00000) RY*(11)Cl   3           s(  4.59%)p20.14( 92.56%)d 0.62(  2.85%)
    71. (0.00000) RY*(12)Cl   3           s(  0.08%)p99.99( 99.83%)d 1.10(  0.09%)
    72. (0.00000) RY*(13)Cl   3           s(100.00%)p 0.00(  0.00%)d 0.00(  0.00%)
    73. (0.00000) RY*(14)Cl   3           s( 99.50%)p 0.00(  0.34%)d 0.00(  0.16%)
    74. (0.00000) RY*(15)Cl   3           s(  0.00%)p 1.00( 99.89%)d 0.00(  0.11%)
    75. (0.00000) RY*(16)Cl   3           s(  0.00%)p 1.00(100.00%)d 0.00(  0.00%)
    76. (0.00001) RY*(17)Cl   3           s( 28.51%)p 1.61( 45.83%)d 0.90( 25.66%)
    77. (0.00001) RY*(18)Cl   3           s(  0.00%)p 1.00( 64.43%)d 0.55( 35.57%)
    78. (0.00000) RY*(19)Cl   3           s(  0.00%)p 1.00( 30.26%)d 2.31( 69.74%)
    79. (0.00000) RY*(20)Cl   3           s(  0.94%)p42.77( 40.01%)d63.11( 59.05%)
    80. (0.00000) RY*(21)Cl   3           s(  6.83%)p13.41( 91.59%)d 0.23(  1.58%)
    81. (0.00257) RY*( 1)Cl   4           s(  0.26%)p99.99( 56.63%)d99.99( 43.11%)
                                            0.0000  0.0000 -0.0038  0.0504 -0.0005
                                           -0.0082 -0.0001  0.0000 -0.0184 -0.4549
                                           -0.0955  0.0083 -0.0024 -0.0000  0.0072
                                           -0.5642  0.1771 -0.0044 -0.0075 -0.0000
                                            0.0000  0.0000 -0.0000  0.0000  0.0000
                                            0.4344 -0.0000  0.0000  0.4839 -0.0910
    82. (0.00242) RY*( 2)Cl   4           s(  0.00%)p 1.00( 49.08%)d 1.04( 50.92%)
                                           -0.0000  0.0000  0.0000 -0.0000 -0.0000
                                            0.0000 -0.0000 -0.0000  0.0000  0.0000
                                            0.0000 -0.0000  0.0000  0.0000 -0.0000
                                            0.0000 -0.0000  0.0000  0.0000 -0.0000
                                            0.0003  0.6655 -0.2181  0.0147  0.0049
                                           -0.0000 -0.6121  0.3668 -0.0000  0.0000
    83. (0.00052) RY*( 3)Cl   4           s( 26.23%)p 1.29( 33.91%)d 1.52( 39.86%)
                                            0.0000  0.0000 -0.0180  0.4437  0.2551
                                           -0.0029  0.0001  0.0000 -0.0815 -0.4675
                                            0.1535  0.0437  0.0236 -0.0000  0.0352
                                            0.2860 -0.0526 -0.0454  0.0065 -0.0000
                                            0.0000  0.0000 -0.0000 -0.0000  0.0000
                                           -0.4871 -0.0000  0.0000  0.2751 -0.2926
    84. (0.00023) RY*( 4)Cl   4           s( 24.24%)p 2.74( 66.35%)d 0.39(  9.42%)
                                            0.0000  0.0000 -0.0079  0.3921 -0.2943
                                           -0.0440  0.0015  0.0000 -0.0169  0.0890
                                           -0.7669  0.1004 -0.0184 -0.0000  0.0159
                                           -0.1909 -0.1363 -0.0368  0.0105 -0.0000
                                            0.0000 -0.0000 -0.0000 -0.0000  0.0000
                                           -0.2823 -0.0000 -0.0000 -0.0093  0.1199
    85. (0.00012) RY*( 5)Cl   4           s(  0.00%)p 1.00( 56.38%)d 0.77( 43.62%)
                                            0.0000 -0.0000  0.0000  0.0000  0.0000
                                           -0.0000  0.0000  0.0000 -0.0000  0.0000
                                           -0.0000  0.0000  0.0000 -0.0000  0.0000
                                           -0.0000  0.0000 -0.0000  0.0000  0.0000
                                           -0.0132  0.4391  0.5872  0.1611 -0.0070
                                            0.0000  0.5177  0.4101 -0.0000  0.0000
    86. (0.00008) RY*( 6)Cl   4           s( 44.40%)p 0.36( 16.10%)d 0.89( 39.51%)
    87. (0.00001) RY*( 7)Cl   4           s( 28.55%)p 2.00( 56.99%)d 0.51( 14.46%)
    88. (0.00000) RY*( 8)Cl   4           s(  0.10%)p99.99( 99.87%)d 0.25(  0.03%)
    89. (0.00000) RY*( 9)Cl   4           s( 35.01%)p 0.08(  2.82%)d 1.78( 62.16%)
    90. (0.00000) RY*(10)Cl   4           s(  0.61%)p99.99( 97.89%)d 2.45(  1.50%)
    91. (0.00000) RY*(11)Cl   4           s(  4.59%)p20.14( 92.56%)d 0.62(  2.85%)
    92. (0.00000) RY*(12)Cl   4           s(  0.08%)p99.99( 99.83%)d 1.10(  0.09%)
    93. (0.00000) RY*(13)Cl   4           s(100.00%)p 0.00(  0.00%)d 0.00(  0.00%)
    94. (0.00000) RY*(14)Cl   4           s( 99.50%)p 0.00(  0.34%)d 0.00(  0.16%)
    95. (0.00000) RY*(15)Cl   4           s(  0.00%)p 1.00( 99.89%)d 0.00(  0.11%)
    96. (0.00000) RY*(16)Cl   4           s(  0.00%)p 1.00(100.00%)d 0.00(  0.00%)
    97. (0.00001) RY*(17)Cl   4           s( 28.51%)p 1.61( 45.83%)d 0.90( 25.66%)
    98. (0.00001) RY*(18)Cl   4           s(  0.00%)p 1.00( 64.43%)d 0.55( 35.57%)
    99. (0.00000) RY*(19)Cl   4           s(  0.00%)p 1.00( 30.25%)d 2.31( 69.75%)
   100. (0.00000) RY*(20)Cl   4           s(  0.94%)p42.77( 40.01%)d63.11( 59.05%)
   101. (0.00000) RY*(21)Cl   4           s(  6.83%)p13.41( 91.59%)d 0.23(  1.58%)
   102. (0.00147) RY*( 1) H   5           s( 98.96%)p 0.01(  1.04%)
                                           -0.0043  0.9947  0.0102  0.0001 -0.1000
                                            0.0191 -0.0058
   103. (0.00067) RY*( 2) H   5           s( 92.56%)p 0.08(  7.44%)
                                            0.0032 -0.0185  0.9619 -0.0018 -0.1239
                                           -0.1347  0.2023
   104. (0.00020) RY*( 3) H   5           s( 76.86%)p 0.30( 23.14%)
                                            0.0004 -0.0252 -0.0371  0.8755 -0.3003
                                           -0.3118 -0.2099
   105. (0.00013) RY*( 4) H   5           s( 16.52%)p 5.05( 83.48%)
                                           -0.0053  0.0768  0.1926  0.3495  0.8476
                                            0.2735 -0.2040
   106. (0.00006) RY*( 5) H   5           s(  8.80%)p10.36( 91.20%)
   107. (0.00004) RY*( 6) H   5           s(  6.35%)p14.76( 93.65%)
   108. (0.00147) RY*( 1) H   6           s( 98.96%)p 0.01(  1.04%)
                                           -0.0043  0.9947  0.0102  0.0001 -0.1000
                                            0.0191  0.0058
   109. (0.00067) RY*( 2) H   6           s( 92.56%)p 0.08(  7.44%)
                                            0.0032 -0.0185  0.9619 -0.0018 -0.1239
                                           -0.1347 -0.2023
   110. (0.00020) RY*( 3) H   6           s( 76.86%)p 0.30( 23.14%)
                                            0.0004 -0.0252 -0.0371  0.8755 -0.3002
                                           -0.3118  0.2099
   111. (0.00013) RY*( 4) H   6           s( 16.52%)p 5.06( 83.48%)
                                           -0.0053  0.0768  0.1926  0.3495  0.8476
                                            0.2735  0.2040
   112. (0.00006) RY*( 5) H   6           s(  8.80%)p10.36( 91.20%)
   113. (0.00004) RY*( 6) H   6           s(  6.35%)p14.76( 93.65%)
   114. (0.00147) RY*( 1) H   7           s( 98.96%)p 0.01(  1.04%)
                                           -0.0043  0.9947  0.0102  0.0001  0.1000
                                           -0.0191 -0.0058
   115. (0.00067) RY*( 2) H   7           s( 92.56%)p 0.08(  7.44%)
                                            0.0032 -0.0185  0.9619 -0.0018  0.1239
                                            0.1347  0.2023
   116. (0.00020) RY*( 3) H   7           s( 76.86%)p 0.30( 23.14%)
                                            0.0004 -0.0252 -0.0371  0.8755  0.3003
                                            0.3118 -0.2099
   117. (0.00013) RY*( 4) H   7           s( 16.52%)p 5.05( 83.48%)
                                           -0.0053  0.0768  0.1926  0.3495 -0.8476
                                           -0.2735 -0.2040
   118. (0.00006) RY*( 5) H   7           s(  8.80%)p10.36( 91.20%)
   119. (0.00004) RY*( 6) H   7           s(  6.35%)p14.76( 93.65%)
   120. (0.00147) RY*( 1) H   8           s( 98.96%)p 0.01(  1.04%)
                                           -0.0043  0.9947  0.0102  0.0001  0.1000
                                           -0.0191  0.0058
   121. (0.00067) RY*( 2) H   8           s( 92.56%)p 0.08(  7.44%)
                                            0.0032 -0.0185  0.9619 -0.0018  0.1239
                                            0.1347 -0.2023
   122. (0.00020) RY*( 3) H   8           s( 76.86%)p 0.30( 23.14%)
                                            0.0004 -0.0252 -0.0371  0.8755  0.3002
                                            0.3118  0.2099
   123. (0.00013) RY*( 4) H   8           s( 16.52%)p 5.06( 83.48%)
                                           -0.0053  0.0768  0.1926  0.3495 -0.8476
                                           -0.2735  0.2040
   124. (0.00006) RY*( 5) H   8           s(  8.80%)p10.36( 91.20%)
   125. (0.00004) RY*( 6) H   8           s(  6.35%)p14.76( 93.65%)
   126. (0.02393) BD*( 1) C   1 - C   2  
                ( 50.00%)   0.7071* C   1 s( 30.91%)p 2.23( 69.05%)d 0.00(  0.05%)
                                            0.0001  0.5554  0.0220  0.0098  0.0001
                                            0.5344 -0.0167 -0.0026 -0.0065  0.6359
                                           -0.0092  0.0018 -0.0026 -0.0000  0.0000
                                           -0.0000 -0.0000  0.0165  0.0000 -0.0000
                                           -0.0053 -0.0126
                ( 50.00%)  -0.7071* C   2 s( 30.91%)p 2.23( 69.05%)d 0.00(  0.05%)
                                            0.0001  0.5554  0.0220  0.0098  0.0001
                                           -0.5344  0.0167  0.0026  0.0065 -0.6359
                                            0.0092 -0.0018  0.0026 -0.0000  0.0000
                                           -0.0000 -0.0000  0.0165 -0.0000  0.0000
                                           -0.0053 -0.0126
   127. (0.02341) BD*( 1) C   1 -Cl   4  
                ( 55.13%)   0.7425* C   1 s( 19.59%)p 4.09( 80.21%)d 0.01(  0.19%)
                                           -0.0001  0.4417  0.0267 -0.0122 -0.0006
                                           -0.8362  0.0304  0.0254 -0.0048  0.3178
                                            0.0115 -0.0125 -0.0026  0.0000  0.0000
                                           -0.0000 -0.0000 -0.0269 -0.0000  0.0000
                                            0.0259 -0.0235
                ( 44.87%)  -0.6698*Cl   4 s( 15.75%)p 5.31( 83.70%)d 0.03(  0.54%)
                                            0.0000  0.0001  0.3944  0.0443 -0.0002
                                            0.0002 -0.0000  0.0001  0.8498 -0.0422
                                           -0.0084 -0.0006  0.0001 -0.0000 -0.3356
                                            0.0201  0.0029 -0.0003  0.0002 -0.0000
                                           -0.0000  0.0000  0.0000  0.0000  0.0000
                                           -0.0422 -0.0000  0.0000  0.0476 -0.0374
   128. (0.02236) BD*( 1) C   1 - H   5  
                ( 38.79%)   0.6228* C   1 s( 24.84%)p 3.02( 75.08%)d 0.00(  0.07%)
                                           -0.0000  0.4980 -0.0196  0.0002  0.0001
                                            0.0738  0.0058  0.0008  0.0010 -0.4958
                                            0.0025 -0.0040  0.0015  0.7065  0.0186
                                            0.0102  0.0008 -0.0011  0.0014 -0.0213
                                           -0.0056  0.0155
                ( 61.21%)  -0.7824* H   5 s( 99.96%)p 0.00(  0.04%)
                                            0.9998  0.0038  0.0015 -0.0004 -0.0020
                                            0.0122 -0.0157
   129. (0.02236) BD*( 1) C   1 - H   6  
                ( 38.79%)   0.6228* C   1 s( 24.84%)p 3.02( 75.08%)d 0.00(  0.07%)
                                           -0.0000  0.4980 -0.0196  0.0002  0.0001
                                            0.0738  0.0058  0.0008  0.0010 -0.4958
                                            0.0025 -0.0040  0.0015 -0.7065 -0.0186
                                           -0.0102 -0.0008 -0.0011 -0.0014  0.0213
                                           -0.0056  0.0155
                ( 61.21%)  -0.7824* H   6 s( 99.96%)p 0.00(  0.04%)
                                            0.9998  0.0038  0.0015 -0.0004 -0.0020
                                            0.0122  0.0157
   130. (0.02341) BD*( 1) C   2 -Cl   3  
                ( 55.13%)   0.7425* C   2 s( 19.59%)p 4.09( 80.21%)d 0.01(  0.19%)
                                           -0.0001  0.4417  0.0267 -0.0122 -0.0006
                                            0.8362 -0.0304 -0.0254  0.0048 -0.3178
                                           -0.0115  0.0125  0.0026  0.0000  0.0000
                                           -0.0000 -0.0000 -0.0269  0.0000 -0.0000
                                            0.0259 -0.0235
                ( 44.87%)  -0.6698*Cl   3 s( 15.75%)p 5.31( 83.70%)d 0.03(  0.54%)
                                            0.0000  0.0001  0.3944  0.0443 -0.0002
                                            0.0002 -0.0000 -0.0001 -0.8498  0.0422
                                            0.0084  0.0006 -0.0001  0.0000  0.3356
                                           -0.0201 -0.0029  0.0003 -0.0002 -0.0000
                                           -0.0000  0.0000  0.0000  0.0000  0.0000
                                           -0.0422  0.0000 -0.0000  0.0476 -0.0374
   131. (0.02236) BD*( 1) C   2 - H   7  
                ( 38.79%)   0.6228* C   2 s( 24.84%)p 3.02( 75.08%)d 0.00(  0.07%)
                                            0.0000 -0.4980  0.0196 -0.0002 -0.0001
                                            0.0738  0.0058  0.0008  0.0010 -0.4958
                                            0.0025 -0.0040  0.0015 -0.7065 -0.0186
                                           -0.0102 -0.0008  0.0011  0.0014 -0.0213
                                            0.0056 -0.0155
                ( 61.21%)  -0.7824* H   7 s( 99.96%)p 0.00(  0.04%)
                                           -0.9998 -0.0038 -0.0015  0.0004 -0.0020
                                            0.0122  0.0157
   132. (0.02236) BD*( 1) C   2 - H   8  
                ( 38.79%)   0.6228* C   2 s( 24.84%)p 3.02( 75.08%)d 0.00(  0.07%)
                                            0.0000 -0.4980  0.0196 -0.0002 -0.0001
                                            0.0738  0.0058  0.0008  0.0010 -0.4958
                                            0.0025 -0.0040  0.0015  0.7065  0.0186
                                            0.0102  0.0008  0.0011 -0.0014  0.0213
                                            0.0056 -0.0155
                ( 61.21%)  -0.7824* H   8 s( 99.96%)p 0.00(  0.04%)
                                           -0.9998 -0.0038 -0.0015  0.0004 -0.0020
                                            0.0122 -0.0157


 NHO Directionality and "Bond Bending" (deviations from line of nuclear centers)

         [Thresholds for printing:  angular deviation  >  1.0 degree]
                                    hybrid p-character > 25.0%
                                    orbital occupancy  >  0.10e

                                Line of Centers        Hybrid 1              Hybrid 2
                                ---------------  -------------------   ------------------
                NBO               Theta   Phi    Theta   Phi    Dev    Theta   Phi    Dev
 ========================================================================================
     1. BD (   1) C   1 - C   2    90.0   48.6    90.0   50.9   2.3     90.0  230.9   2.3
     3. BD (   1) C   1 - H   5    35.7  279.9    34.3  279.3   1.4      --     --    --
     4. BD (   1) C   1 - H   6   144.3  279.9   145.7  279.3   1.4      --     --    --
     6. BD (   1) C   2 - H   7    35.7   99.9    34.3   99.3   1.4      --     --    --
     7. BD (   1) C   2 - H   8   144.3   99.9   145.7   99.3   1.4      --     --    --
    21. LP (   2)Cl   3             --     --      0.0    0.0   --       --     --    --
    22. LP (   3)Cl   3             --     --     90.0   66.4   --       --     --    --
    24. LP (   2)Cl   4             --     --      0.0    0.0   --       --     --    --
    25. LP (   3)Cl   4             --     --     90.0  246.4   --       --     --    --


 Second Order Perturbation Theory Analysis of Fock Matrix in NBO Basis

     Threshold for printing:   0.50 kcal/mol
                                                                              E(2)  E(j)-E(i) F(i,j)
         Donor NBO (i)                     Acceptor NBO (j)                 kcal/mol   a.u.    a.u. 
 ===================================================================================================

 within unit  1
   1. BD (   1) C   1 - C   2        / 60. RY*(   1)Cl   3                    0.80    1.29    0.029
   1. BD (   1) C   1 - C   2        / 81. RY*(   1)Cl   4                    0.80    1.29    0.029
   2. BD (   1) C   1 -Cl   4        / 46. RY*(   4) C   2                    0.60    1.30    0.025
   2. BD (   1) C   1 -Cl   4        /130. BD*(   1) C   2 -Cl   3            3.22    0.80    0.045
   3. BD (   1) C   1 - H   5        / 82. RY*(   2)Cl   4                    0.72    1.20    0.026
   3. BD (   1) C   1 - H   5        /127. BD*(   1) C   1 -Cl   4            0.81    0.65    0.021
   3. BD (   1) C   1 - H   5        /132. BD*(   1) C   2 - H   8            2.56    0.91    0.043
   4. BD (   1) C   1 - H   6        / 82. RY*(   2)Cl   4                    0.72    1.20    0.026
   4. BD (   1) C   1 - H   6        /127. BD*(   1) C   1 -Cl   4            0.81    0.65    0.021
   4. BD (   1) C   1 - H   6        /131. BD*(   1) C   2 - H   7            2.56    0.91    0.043
   5. BD (   1) C   2 -Cl   3        / 29. RY*(   4) C   1                    0.60    1.30    0.025
   5. BD (   1) C   2 -Cl   3        /127. BD*(   1) C   1 -Cl   4            3.22    0.80    0.045
   6. BD (   1) C   2 - H   7        / 61. RY*(   2)Cl   3                    0.72    1.20    0.026
   6. BD (   1) C   2 - H   7        /129. BD*(   1) C   1 - H   6            2.56    0.91    0.043
   6. BD (   1) C   2 - H   7        /130. BD*(   1) C   2 -Cl   3            0.81    0.65    0.021
   7. BD (   1) C   2 - H   8        / 61. RY*(   2)Cl   3                    0.72    1.20    0.026
   7. BD (   1) C   2 - H   8        /128. BD*(   1) C   1 - H   5            2.56    0.91    0.043
   7. BD (   1) C   2 - H   8        /130. BD*(   1) C   2 -Cl   3            0.81    0.65    0.021
   8. CR (   1) C   1                / 43. RY*(   1) C   2                    0.91   10.79    0.088
   8. CR (   1) C   1                /127. BD*(   1) C   1 -Cl   4            2.17   10.23    0.134
   9. CR (   1) C   2                / 26. RY*(   1) C   1                    0.91   10.79    0.088
   9. CR (   1) C   2                /130. BD*(   1) C   2 -Cl   3            2.17   10.23    0.134
  11. CR (   2)Cl   3                / 43. RY*(   1) C   2                    0.83   11.13    0.086
  11. CR (   2)Cl   3                / 45. RY*(   3) C   2                    1.02   11.40    0.096
  16. CR (   2)Cl   4                / 26. RY*(   1) C   1                    0.83   11.13    0.086
  16. CR (   2)Cl   4                / 28. RY*(   3) C   1                    1.02   11.40    0.096
  20. LP (   1)Cl   3                / 43. RY*(   1) C   2                    0.74    1.59    0.031
  20. LP (   1)Cl   3                / 45. RY*(   3) C   2                    1.28    1.86    0.044
  21. LP (   2)Cl   3                / 44. RY*(   2) C   2                    0.74    1.12    0.026
  21. LP (   2)Cl   3                /131. BD*(   1) C   2 - H   7            3.70    0.69    0.045
  21. LP (   2)Cl   3                /132. BD*(   1) C   2 - H   8            3.70    0.69    0.045
  22. LP (   3)Cl   3                / 43. RY*(   1) C   2                    0.77    0.99    0.025
  22. LP (   3)Cl   3                /126. BD*(   1) C   1 - C   2            3.84    0.68    0.046
  22. LP (   3)Cl   3                /127. BD*(   1) C   1 -Cl   4            1.75    0.44    0.025
  22. LP (   3)Cl   3                /131. BD*(   1) C   2 - H   7            1.10    0.70    0.025
  22. LP (   3)Cl   3                /132. BD*(   1) C   2 - H   8            1.10    0.70    0.025
  23. LP (   1)Cl   4                / 26. RY*(   1) C   1                    0.74    1.59    0.031
  23. LP (   1)Cl   4                / 28. RY*(   3) C   1                    1.28    1.86    0.044
  24. LP (   2)Cl   4                / 27. RY*(   2) C   1                    0.74    1.12    0.026
  24. LP (   2)Cl   4                /128. BD*(   1) C   1 - H   5            3.70    0.69    0.045
  24. LP (   2)Cl   4                /129. BD*(   1) C   1 - H   6            3.70    0.69    0.045
  25. LP (   3)Cl   4                / 26. RY*(   1) C   1                    0.77    0.99    0.025
  25. LP (   3)Cl   4                /126. BD*(   1) C   1 - C   2            3.84    0.68    0.046
  25. LP (   3)Cl   4                /128. BD*(   1) C   1 - H   5            1.10    0.70    0.025
  25. LP (   3)Cl   4                /129. BD*(   1) C   1 - H   6            1.10    0.70    0.025
  25. LP (   3)Cl   4                /130. BD*(   1) C   2 -Cl   3            1.75    0.44    0.025


 Natural Bond Orbitals (Summary):

                                                            Principal Delocalizations
           NBO                        Occupancy    Energy   (geminal,vicinal,remote)
 ====================================================================================
 Molecular unit  1  (C2H4Cl2)
     1. BD (   1) C   1 - C   2          1.99531    -0.69228  60(v),81(v)
     2. BD (   1) C   1 -Cl   4          1.98565    -0.69138  130(v),46(v)
     3. BD (   1) C   1 - H   5          1.98829    -0.54997  132(v),127(g),82(v)
     4. BD (   1) C   1 - H   6          1.98829    -0.54997  131(v),127(g),82(v)
     5. BD (   1) C   2 -Cl   3          1.98565    -0.69138  127(v),29(v)
     6. BD (   1) C   2 - H   7          1.98829    -0.54997  129(v),130(g),61(v)
     7. BD (   1) C   2 - H   8          1.98829    -0.54997  128(v),130(g),61(v)
     8. CR (   1) C   1                  1.99906   -10.12788  127(g),43(v)
     9. CR (   1) C   2                  1.99906   -10.12788  130(g),26(v)
    10. CR (   1)Cl   3                  2.00000  -100.27150   
    11. CR (   2)Cl   3                  1.99978   -10.46638  45(v),43(v)
    12. CR (   3)Cl   3                  1.99994    -7.22866   
    13. CR (   4)Cl   3                  1.99999    -7.22266   
    14. CR (   5)Cl   3                  1.99999    -7.22141   
    15. CR (   1)Cl   4                  2.00000  -100.27150   
    16. CR (   2)Cl   4                  1.99978   -10.46638  28(v),26(v)
    17. CR (   3)Cl   4                  1.99994    -7.22866   
    18. CR (   4)Cl   4                  1.99999    -7.22266   
    19. CR (   5)Cl   4                  1.99999    -7.22141   
    20. LP (   1)Cl   3                  1.99676    -0.92623  45(v),43(v)
    21. LP (   2)Cl   3                  1.97499    -0.32842  131(v),132(v),44(v)
    22. LP (   3)Cl   3                  1.96532    -0.33381  126(v),127(r),131(v),132(v)
                                                    43(v)
    23. LP (   1)Cl   4                  1.99676    -0.92623  28(v),26(v)
    24. LP (   2)Cl   4                  1.97499    -0.32842  128(v),129(v),27(v)
    25. LP (   3)Cl   4                  1.96532    -0.33381  126(v),130(r),128(v),129(v)
                                                    26(v)
    26. RY*(   1) C   1                  0.00505     0.66105   
    27. RY*(   2) C   1                  0.00277     0.79118   
    28. RY*(   3) C   1                  0.00214     0.93640   
    29. RY*(   4) C   1                  0.00145     0.60648   
    30. RY*(   5) C   1                  0.00073     1.63424   
    31. RY*(   6) C   1                  0.00055     1.78760   
    32. RY*(   7) C   1                  0.00020     1.88107   
    33. RY*(   8) C   1                  0.00010     1.40379   
    34. RY*(   9) C   1                  0.00005     2.40070   
    35. RY*(  10) C   1                  0.00001     1.32044   
    36. RY*(  11) C   1                  0.00000     1.94015   
    37. RY*(  12) C   1                  0.00000     1.88117   
    38. RY*(  13) C   1                  0.00001     1.57648   
    39. RY*(  14) C   1                  0.00000    22.57226   
    40. RY*(  15) C   1                  0.00000     0.85310   
    41. RY*(  16) C   1                  0.00000     1.38970   
    42. RY*(  17) C   1                  0.00000     1.76560   
    43. RY*(   1) C   2                  0.00505     0.66105   
    44. RY*(   2) C   2                  0.00277     0.79118   
    45. RY*(   3) C   2                  0.00214     0.93640   
    46. RY*(   4) C   2                  0.00145     0.60648   
    47. RY*(   5) C   2                  0.00073     1.63424   
    48. RY*(   6) C   2                  0.00055     1.78760   
    49. RY*(   7) C   2                  0.00020     1.88107   
    50. RY*(   8) C   2                  0.00010     1.40379   
    51. RY*(   9) C   2                  0.00005     2.40070   
    52. RY*(  10) C   2                  0.00001     1.32044   
    53. RY*(  11) C   2                  0.00000     1.94016   
    54. RY*(  12) C   2                  0.00000     1.88116   
    55. RY*(  13) C   2                  0.00001     1.57648   
    56. RY*(  14) C   2                  0.00000    22.57226   
    57. RY*(  15) C   2                  0.00000     0.85310   
    58. RY*(  16) C   2                  0.00000     1.38970   
    59. RY*(  17) C   2                  0.00000     1.76560   
    60. RY*(   1)Cl   3                  0.00257     0.59369   
    61. RY*(   2)Cl   3                  0.00242     0.64956   
    62. RY*(   3)Cl   3                  0.00052     0.64553   
    63. RY*(   4)Cl   3                  0.00023     0.59952   
    64. RY*(   5)Cl   3                  0.00012     0.46416   
    65. RY*(   6)Cl   3                  0.00008     1.78122   
    66. RY*(   7)Cl   3                  0.00001     0.40989   
    67. RY*(   8)Cl   3                  0.00000    25.49759   
    68. RY*(   9)Cl   3                  0.00000     0.87041   
    69. RY*(  10)Cl   3                  0.00000     0.32132   
    70. RY*(  11)Cl   3                  0.00000     2.51337   
    71. RY*(  12)Cl   3                  0.00000    25.10794   
    72. RY*(  13)Cl   3                  0.00000   207.62518   
    73. RY*(  14)Cl   3                  0.00000    17.35277   
    74. RY*(  15)Cl   3                  0.00000     2.73201   
    75. RY*(  16)Cl   3                  0.00000    25.29647   
    76. RY*(  17)Cl   3                  0.00001     0.83742   
    77. RY*(  18)Cl   3                  0.00001     0.70543   
    78. RY*(  19)Cl   3                  0.00000     0.68127   
    79. RY*(  20)Cl   3                  0.00000     0.80104   
    80. RY*(  21)Cl   3                  0.00000     2.68226   
    81. RY*(   1)Cl   4                  0.00257     0.59369   
    82. RY*(   2)Cl   4                  0.00242     0.64956   
    83. RY*(   3)Cl   4                  0.00052     0.64553   
    84. RY*(   4)Cl   4                  0.00023     0.59952   
    85. RY*(   5)Cl   4                  0.00012     0.46416   
    86. RY*(   6)Cl   4                  0.00008     1.78122   
    87. RY*(   7)Cl   4                  0.00001     0.40989   
    88. RY*(   8)Cl   4                  0.00000    25.49759   
    89. RY*(   9)Cl   4                  0.00000     0.87041   
    90. RY*(  10)Cl   4                  0.00000     0.32132   
    91. RY*(  11)Cl   4                  0.00000     2.51337   
    92. RY*(  12)Cl   4                  0.00000    25.10794   
    93. RY*(  13)Cl   4                  0.00000   207.62518   
    94. RY*(  14)Cl   4                  0.00000    17.35277   
    95. RY*(  15)Cl   4                  0.00000     2.73201   
    96. RY*(  16)Cl   4                  0.00000    25.29647   
    97. RY*(  17)Cl   4                  0.00001     0.83742   
    98. RY*(  18)Cl   4                  0.00001     0.70543   
    99. RY*(  19)Cl   4                  0.00000     0.68127   
   100. RY*(  20)Cl   4                  0.00000     0.80104   
   101. RY*(  21)Cl   4                  0.00000     2.68226   
   102. RY*(   1) H   5                  0.00147     0.51787   
   103. RY*(   2) H   5                  0.00067     0.39051   
   104. RY*(   3) H   5                  0.00020     2.15837   
   105. RY*(   4) H   5                  0.00013     1.76024   
   106. RY*(   5) H   5                  0.00006     1.79308   
   107. RY*(   6) H   5                  0.00004     2.36879   
   108. RY*(   1) H   6                  0.00147     0.51787   
   109. RY*(   2) H   6                  0.00067     0.39051   
   110. RY*(   3) H   6                  0.00020     2.15838   
   111. RY*(   4) H   6                  0.00013     1.76023   
   112. RY*(   5) H   6                  0.00006     1.79308   
   113. RY*(   6) H   6                  0.00004     2.36878   
   114. RY*(   1) H   7                  0.00147     0.51787   
   115. RY*(   2) H   7                  0.00067     0.39051   
   116. RY*(   3) H   7                  0.00020     2.15837   
   117. RY*(   4) H   7                  0.00013     1.76024   
   118. RY*(   5) H   7                  0.00006     1.79308   
   119. RY*(   6) H   7                  0.00004     2.36879   
   120. RY*(   1) H   8                  0.00147     0.51787   
   121. RY*(   2) H   8                  0.00067     0.39051   
   122. RY*(   3) H   8                  0.00020     2.15838   
   123. RY*(   4) H   8                  0.00013     1.76023   
   124. RY*(   5) H   8                  0.00006     1.79308   
   125. RY*(   6) H   8                  0.00004     2.36878   
   126. BD*(   1) C   1 - C   2          0.02393     0.34216   
   127. BD*(   1) C   1 -Cl   4          0.02341     0.10409   
   128. BD*(   1) C   1 - H   5          0.02236     0.36427   
   129. BD*(   1) C   1 - H   6          0.02236     0.36427   
   130. BD*(   1) C   2 -Cl   3          0.02341     0.10409   
   131. BD*(   1) C   2 - H   7          0.02236     0.36427   
   132. BD*(   1) C   2 - H   8          0.02236     0.36427   
       -------------------------------
              Total Lewis   49.79145  ( 99.5829%)
        Valence non-Lewis    0.16019  (  0.3204%)
        Rydberg non-Lewis    0.04836  (  0.0967%)
       -------------------------------
            Total unit  1   50.00000  (100.0000%)
           Charge unit  1    0.00000
 Calling FoFJK, ICntrl=      2127 FMM=F ISym2X=0 I1Cent= 0 IOpClX= 0 NMat=1 NMatS=1 NMatT=0.
 ***** Axes restored to original set *****
 -------------------------------------------------------------------
 Center     Atomic                   Forces (Hartrees/Bohr)
 Number     Number              X              Y              Z
 -------------------------------------------------------------------
      1        6           0.005779836    0.013950349    0.003434664
      2        6          -0.005779873   -0.013950034   -0.003434956
      3       17           0.007974587    0.008385183    0.002149165
      4       17          -0.007974551   -0.008385227   -0.002148926
      5        1           0.001083680   -0.003037198    0.001843215
      6        1           0.001174155   -0.001888531   -0.002975288
      7        1          -0.001173960    0.001888103    0.002974916
      8        1          -0.001083876    0.003037356   -0.001842789
 -------------------------------------------------------------------
 Cartesian Forces:  Max     0.013950349 RMS     0.005816127

 GradGradGradGradGradGradGradGradGradGradGradGradGradGradGradGradGradGrad
 Berny optimization.
 FormGI is forming the generalized inverse of G from B-inverse, IUseBI=4.
 Internal  Forces:  Max     0.011751976 RMS     0.003479361
 Search for a local minimum.
 Step number   1 out of a maximum of   38
 All quantities printed in internal units (Hartrees-Bohrs-Radians)
 Mixed Optimization -- RFO/linear search
 Second derivative matrix not updated -- first step.
 ITU=  0
     Eigenvalues ---    0.00541   0.05722   0.05722   0.05816   0.05816
     Eigenvalues ---    0.16000   0.16000   0.16000   0.16000   0.22278
     Eigenvalues ---    0.22278   0.27650   0.27650   0.30656   0.34317
     Eigenvalues ---    0.34317   0.34317   0.34317
 RFO step:  Lambda=-1.20948949D-03 EMin= 5.40866029D-03
 Linear search not attempted -- first point.
 Iteration  1 RMS(Cart)=  0.01174029 RMS(Int)=  0.00003013
 Iteration  2 RMS(Cart)=  0.00002534 RMS(Int)=  0.00001056
 Iteration  3 RMS(Cart)=  0.00000000 RMS(Int)=  0.00001056
 Variable       Old X    -DE/DX   Delta X   Delta X   Delta X     New X
                                 (Linear)    (Quad)   (Total)
    R1        2.86674   0.00023   0.00000   0.00073   0.00073   2.86748
    R2        3.36609   0.01175   0.00000   0.04232   0.04232   3.40841
    R3        2.06799  -0.00360   0.00000  -0.01045  -0.01045   2.05754
    R4        2.06799  -0.00360   0.00000  -0.01045  -0.01045   2.05754
    R5        3.36609   0.01175   0.00000   0.04232   0.04232   3.40841
    R6        2.06799  -0.00360   0.00000  -0.01045  -0.01045   2.05754
    R7        2.06799  -0.00360   0.00000  -0.01045  -0.01045   2.05754
    A1        1.92521  -0.00123   0.00000  -0.00618  -0.00620   1.91900
    A2        1.94425  -0.00073   0.00000  -0.00440  -0.00441   1.93984
    A3        1.94425  -0.00073   0.00000  -0.00441  -0.00442   1.93984
    A4        1.87625   0.00088   0.00000   0.00354   0.00353   1.87978
    A5        1.87625   0.00088   0.00000   0.00354   0.00352   1.87977
    A6        1.89499   0.00107   0.00000   0.00864   0.00864   1.90363
    A7        1.92521  -0.00123   0.00000  -0.00618  -0.00620   1.91900
    A8        1.94425  -0.00073   0.00000  -0.00440  -0.00441   1.93984
    A9        1.94425  -0.00073   0.00000  -0.00441  -0.00442   1.93984
   A10        1.87625   0.00088   0.00000   0.00354   0.00352   1.87978
   A11        1.87625   0.00088   0.00000   0.00354   0.00352   1.87977
   A12        1.89499   0.00107   0.00000   0.00864   0.00864   1.90363
    D1        3.14159   0.00000   0.00000   0.00000   0.00000  -3.14159
    D2        1.05941   0.00018   0.00000   0.00246   0.00246   1.06186
    D3       -1.05941  -0.00018   0.00000  -0.00246  -0.00246  -1.06186
    D4        1.05941   0.00018   0.00000   0.00246   0.00246   1.06186
    D5       -1.02277   0.00036   0.00000   0.00492   0.00491  -1.01786
    D6       -3.14159  -0.00000   0.00000  -0.00000  -0.00000  -3.14159
    D7       -1.05941  -0.00018   0.00000  -0.00246  -0.00246  -1.06186
    D8       -3.14159  -0.00000   0.00000  -0.00000  -0.00000  -3.14159
    D9        1.02278  -0.00036   0.00000  -0.00493  -0.00492   1.01787
         Item               Value     Threshold  Converged?
 Maximum Force            0.011752     0.000450     NO 
 RMS     Force            0.003479     0.000300     NO 
 Maximum Displacement     0.025548     0.001800     NO 
 RMS     Displacement     0.011734     0.001200     NO 
 Predicted change in Energy=-6.073857D-04
 GradGradGradGradGradGradGradGradGradGradGradGradGradGradGradGradGradGrad

                          Input orientation:                          
 ---------------------------------------------------------------------
 Center     Atomic      Atomic             Coordinates (Angstroms)
 Number     Number       Type             X           Y           Z
 ---------------------------------------------------------------------
      1          6           0       -0.683239    0.323534    0.064337
      2          6           0        0.683239   -0.323534   -0.064337
      3         17           0        1.973937    0.896296    0.250748
      4         17           0       -1.973937   -0.896296   -0.250746
      5          1           0       -0.805816    1.129274   -0.657641
      6          1           0       -0.838164    0.717947    1.067299
      7          1           0        0.838163   -0.717946   -1.067300
      8          1           0        0.805817   -1.129275    0.657640
 ---------------------------------------------------------------------
                    Distance matrix (angstroms):
                    1          2          3          4          5
     1  C    0.000000
     2  C    1.517404   0.000000
     3  Cl   2.724589   1.803653   0.000000
     4  Cl   1.803653   2.724589   4.364697   0.000000
     5  H    1.088804   2.163318   2.933679   2.373395   0.000000
     6  H    1.088804   2.163319   2.933679   2.373395   1.773599
     7  H    2.163319   1.088804   2.373395   2.933680   2.506534
     8  H    2.163319   1.088804   2.373395   2.933679   3.070565
                    6          7          8
     6  H    0.000000
     7  H    3.070565   0.000000
     8  H    2.506536   1.773599   0.000000
 Stoichiometry    C2H4Cl2
 Framework group  C1[X(C2H4Cl2)]
 Deg. of freedom    18
 Full point group                 C1      NOp   1
 Largest Abelian subgroup         C1      NOp   1
 Largest concise Abelian subgroup C1      NOp   1
                         Standard orientation:                         
 ---------------------------------------------------------------------
 Center     Atomic      Atomic             Coordinates (Angstroms)
 Number     Number       Type             X           Y           Z
 ---------------------------------------------------------------------
      1          6           0       -0.496522   -0.573668    0.000001
      2          6           0        0.496522    0.573668    0.000001
      3         17           0        2.181209   -0.070534   -0.000000
      4         17           0       -2.181209    0.070534   -0.000000
      5          1           0       -0.379431   -1.194450    0.886801
      6          1           0       -0.379431   -1.194451   -0.886799
      7          1           0        0.379431    1.194450    0.886801
      8          1           0        0.379431    1.194451   -0.886799
 ---------------------------------------------------------------------
 Rotational constants (GHZ):          29.4604760           1.4758971           1.4307141
 Standard basis: 6-311++G(d,p) (5D, 7F)
 There are   136 symmetry adapted cartesian basis functions of A   symmetry.
 There are   132 symmetry adapted basis functions of A   symmetry.
   132 basis functions,   214 primitive gaussians,   136 cartesian basis functions
    25 alpha electrons       25 beta electrons
       nuclear repulsion energy       193.3924577557 Hartrees.
 NAtoms=    8 NActive=    8 NUniq=    8 SFac= 1.00D+00 NAtFMM=   60 NAOKFM=F Big=F
 Integral buffers will be    131072 words long.
 Raffenetti 2 integral format.
 Two-electron integral symmetry is turned on.
 One-electron integrals computed using PRISM.
 NBasis=   132 RedAO= T EigKep=  6.19D-05  NBF=   132
 NBsUse=   132 1.00D-06 EigRej= -1.00D+00 NBFU=   132
 Initial guess from the checkpoint file:  "C(CCl)Cl.chk"
 B after Tr=     0.000000    0.000000    0.000000
         Rot=    1.000000   -0.000000   -0.000000   -0.000782 Ang=  -0.09 deg.
 ExpMin= 3.60D-02 ExpMax= 1.06D+05 ExpMxC= 3.62D+03 IAcc=3 IRadAn=         5 AccDes= 0.00D+00
 Harris functional with IExCor=  402 and IRadAn=       5 diagonalized for initial guess.
 HarFok:  IExCor=  402 AccDes= 0.00D+00 IRadAn=         5 IDoV= 1 UseB2=F ITyADJ=14
 ICtDFT=  3500011 ScaDFX=  1.000000  1.000000  1.000000  1.000000
 FoFCou: FMM=F IPFlag=           0 FMFlag=      100000 FMFlg1=           0
         NFxFlg=           0 DoJE=T BraDBF=F KetDBF=T FulRan=T
         wScrn=  0.000000 ICntrl=       500 IOpCl=  0 I1Cent=   200000004 NGrid=           0
         NMat0=    1 NMatS0=      1 NMatT0=    0 NMatD0=    1 NMtDS0=    0 NMtDT0=    0
 Petite list used in FoFCou.
 Keep R1 ints in memory in canonical form, NReq=46243989.
 Requested convergence on RMS density matrix=1.00D-08 within 128 cycles.
 Requested convergence on MAX density matrix=1.00D-06.
 Requested convergence on             energy=1.00D-06.
 No special actions if energy rises.
 SCF Done:  E(RB3LYP) =  -999.101323801     A.U. after    9 cycles
            NFock=  9  Conv=0.67D-08     -V/T= 2.0026
 Calling FoFJK, ICntrl=      2127 FMM=F ISym2X=0 I1Cent= 0 IOpClX= 0 NMat=1 NMatS=1 NMatT=0.
 ***** Axes restored to original set *****
 -------------------------------------------------------------------
 Center     Atomic                   Forces (Hartrees/Bohr)
 Number     Number              X              Y              Z
 -------------------------------------------------------------------
      1        6           0.004478837    0.006070919    0.001531633
      2        6          -0.004478827   -0.006070925   -0.001531674
      3       17           0.001669340    0.001973916    0.000501976
      4       17          -0.001669334   -0.001973909   -0.000502030
      5        1          -0.000844107   -0.000969271   -0.000366174
      6        1          -0.000848255   -0.001023040   -0.000140597
      7        1           0.000848328    0.001023058    0.000140652
      8        1           0.000844017    0.000969253    0.000366213
 -------------------------------------------------------------------
 Cartesian Forces:  Max     0.006070925 RMS     0.002411242

 GradGradGradGradGradGradGradGradGradGradGradGradGradGradGradGradGradGrad
 Berny optimization.
 Using GEDIIS/GDIIS optimizer.
 FormGI is forming the generalized inverse of G from B-inverse, IUseBI=4.
 Internal  Forces:  Max     0.002616914 RMS     0.000970619
 Search for a local minimum.
 Step number   2 out of a maximum of   38
 All quantities printed in internal units (Hartrees-Bohrs-Radians)
 Mixed Optimization -- En-DIIS/RFO-DIIS
 Update second derivatives using D2CorX and points    1    2
 DE= -7.25D-04 DEPred=-6.07D-04 R= 1.19D+00
 TightC=F SS=  1.41D+00  RLast= 6.67D-02 DXNew= 5.0454D-01 2.0001D-01
 Trust test= 1.19D+00 RLast= 6.67D-02 DXMaxT set to 3.00D-01
 ITU=  1  0
 Use linear search instead of GDIIS.
     Eigenvalues ---    0.00541   0.05349   0.05786   0.05786   0.05853
     Eigenvalues ---    0.16000   0.16000   0.16000   0.16351   0.20412
     Eigenvalues ---    0.22316   0.25396   0.27650   0.30662   0.34317
     Eigenvalues ---    0.34317   0.34317   0.34697
 RFO step:  Lambda=-2.34130941D-04 EMin= 5.40866029D-03
 Quartic linear search produced a step of  0.28113.
 Iteration  1 RMS(Cart)=  0.00536894 RMS(Int)=  0.00010230
 Iteration  2 RMS(Cart)=  0.00007255 RMS(Int)=  0.00007480
 Iteration  3 RMS(Cart)=  0.00000001 RMS(Int)=  0.00007480
 Variable       Old X    -DE/DX   Delta X   Delta X   Delta X     New X
                                 (Linear)    (Quad)   (Total)
    R1        2.86748  -0.00006   0.00021  -0.00033  -0.00012   2.86736
    R2        3.40841   0.00262   0.01190   0.00871   0.02061   3.42902
    R3        2.05754  -0.00038  -0.00294  -0.00055  -0.00349   2.05405
    R4        2.05754  -0.00038  -0.00294  -0.00055  -0.00349   2.05405
    R5        3.40841   0.00262   0.01190   0.00871   0.02061   3.42902
    R6        2.05754  -0.00038  -0.00294  -0.00055  -0.00349   2.05405
    R7        2.05754  -0.00038  -0.00294  -0.00055  -0.00349   2.05405
    A1        1.91900  -0.00130  -0.00174  -0.01108  -0.01282   1.90619
    A2        1.93984   0.00088  -0.00124   0.00958   0.00823   1.94807
    A3        1.93984   0.00088  -0.00124   0.00958   0.00823   1.94807
    A4        1.87978  -0.00030   0.00099  -0.01003  -0.00904   1.87074
    A5        1.87977  -0.00030   0.00099  -0.01003  -0.00904   1.87074
    A6        1.90363   0.00007   0.00243   0.01088   0.01311   1.91674
    A7        1.91900  -0.00130  -0.00174  -0.01108  -0.01282   1.90619
    A8        1.93984   0.00088  -0.00124   0.00958   0.00823   1.94807
    A9        1.93984   0.00088  -0.00124   0.00958   0.00823   1.94807
   A10        1.87978  -0.00030   0.00099  -0.01003  -0.00904   1.87074
   A11        1.87977  -0.00030   0.00099  -0.01003  -0.00904   1.87074
   A12        1.90363   0.00007   0.00243   0.01088   0.01311   1.91674
    D1       -3.14159  -0.00000   0.00000  -0.00000  -0.00000  -3.14159
    D2        1.06186   0.00066   0.00069   0.01358   0.01432   1.07619
    D3       -1.06186  -0.00066  -0.00069  -0.01358  -0.01433  -1.07619
    D4        1.06186   0.00066   0.00069   0.01358   0.01432   1.07619
    D5       -1.01786   0.00132   0.00138   0.02716   0.02865  -0.98922
    D6       -3.14159   0.00000  -0.00000  -0.00000  -0.00000   3.14159
    D7       -1.06186  -0.00066  -0.00069  -0.01358  -0.01433  -1.07619
    D8       -3.14159  -0.00000  -0.00000  -0.00000  -0.00000   3.14159
    D9        1.01787  -0.00132  -0.00138  -0.02717  -0.02865   0.98922
         Item               Value     Threshold  Converged?
 Maximum Force            0.002617     0.000450     NO 
 RMS     Force            0.000971     0.000300     NO 
 Maximum Displacement     0.014414     0.001800     NO 
 RMS     Displacement     0.005347     0.001200     NO 
 Predicted change in Energy=-1.487214D-04
 GradGradGradGradGradGradGradGradGradGradGradGradGradGradGradGradGradGrad

                          Input orientation:                          
 ---------------------------------------------------------------------
 Center     Atomic      Atomic             Coordinates (Angstroms)
 Number     Number       Type             X           Y           Z
 ---------------------------------------------------------------------
      1          6           0       -0.679357    0.331162    0.066229
      2          6           0        0.679357   -0.331162   -0.066229
      3         17           0        1.976258    0.897646    0.251113
      4         17           0       -1.976258   -0.897646   -0.251112
      5          1           0       -0.808347    1.129199   -0.660390
      6          1           0       -0.840788    0.716659    1.069626
      7          1           0        0.840789   -0.716660   -1.069627
      8          1           0        0.808346   -1.129198    0.660390
 ---------------------------------------------------------------------
                    Distance matrix (angstroms):
                    1          2          3          4          5
     1  C    0.000000
     2  C    1.517341   0.000000
     3  Cl   2.721650   1.814559   0.000000
     4  Cl   1.814559   2.721650   4.370090   0.000000
     5  H    1.086957   2.167704   2.939129   2.374790   0.000000
     6  H    1.086957   2.167704   2.939128   2.374789   1.778819
     7  H    2.167704   1.086957   2.374790   2.939129   2.508848
     8  H    2.167704   1.086957   2.374789   2.939128   3.075469
                    6          7          8
     6  H    0.000000
     7  H    3.075469   0.000000
     8  H    2.508846   1.778819   0.000000
 Stoichiometry    C2H4Cl2
 Framework group  C1[X(C2H4Cl2)]
 Deg. of freedom    18
 Full point group                 C1      NOp   1
 Largest Abelian subgroup         C1      NOp   1
 Largest concise Abelian subgroup C1      NOp   1
                         Standard orientation:                         
 ---------------------------------------------------------------------
 Center     Atomic      Atomic             Coordinates (Angstroms)
 Number     Number       Type             X           Y           Z
 ---------------------------------------------------------------------
      1          6           0       -0.489719   -0.579444    0.000000
      2          6           0        0.489719    0.579444    0.000000
      3         17           0        2.183909   -0.070437   -0.000000
      4         17           0       -2.183909    0.070437   -0.000000
      5          1           0       -0.381828   -1.194900    0.889409
      6          1           0       -0.381828   -1.194899   -0.889409
      7          1           0        0.381828    1.194900    0.889410
      8          1           0        0.381828    1.194899   -0.889409
 ---------------------------------------------------------------------
 Rotational constants (GHZ):          29.1515580           1.4729304           1.4273436
 Standard basis: 6-311++G(d,p) (5D, 7F)
 There are   136 symmetry adapted cartesian basis functions of A   symmetry.
 There are   132 symmetry adapted basis functions of A   symmetry.
   132 basis functions,   214 primitive gaussians,   136 cartesian basis functions
    25 alpha electrons       25 beta electrons
       nuclear repulsion energy       193.0064158104 Hartrees.
 NAtoms=    8 NActive=    8 NUniq=    8 SFac= 1.00D+00 NAtFMM=   60 NAOKFM=F Big=F
 Integral buffers will be    131072 words long.
 Raffenetti 2 integral format.
 Two-electron integral symmetry is turned on.
 One-electron integrals computed using PRISM.
 NBasis=   132 RedAO= T EigKep=  6.22D-05  NBF=   132
 NBsUse=   132 1.00D-06 EigRej= -1.00D+00 NBFU=   132
 Initial guess from the checkpoint file:  "C(CCl)Cl.chk"
 B after Tr=    -0.000000    0.000000    0.000000
         Rot=    1.000000   -0.000000   -0.000000   -0.000240 Ang=  -0.03 deg.
 Keep R1 ints in memory in canonical form, NReq=46243989.
 Requested convergence on RMS density matrix=1.00D-08 within 128 cycles.
 Requested convergence on MAX density matrix=1.00D-06.
 Requested convergence on             energy=1.00D-06.
 No special actions if energy rises.
 SCF Done:  E(RB3LYP) =  -999.101493415     A.U. after    8 cycles
            NFock=  8  Conv=0.85D-08     -V/T= 2.0026
 Calling FoFJK, ICntrl=      2127 FMM=F ISym2X=0 I1Cent= 0 IOpClX= 0 NMat=1 NMatS=1 NMatT=0.
 ***** Axes restored to original set *****
 -------------------------------------------------------------------
 Center     Atomic                   Forces (Hartrees/Bohr)
 Number     Number              X              Y              Z
 -------------------------------------------------------------------
      1        6           0.001937132   -0.000211042   -0.000013935
      2        6          -0.001937120    0.000210978    0.000013984
      3       17           0.000338610    0.000173053    0.000047590
      4       17          -0.000338617   -0.000173043   -0.000047654
      5        1          -0.000251138    0.000110985   -0.000429629
      6        1          -0.000267159   -0.000092559    0.000424279
      7        1           0.000267132    0.000092650   -0.000424188
      8        1           0.000251159   -0.000111024    0.000429551
 -------------------------------------------------------------------
 Cartesian Forces:  Max     0.001937132 RMS     0.000609912

 GradGradGradGradGradGradGradGradGradGradGradGradGradGradGradGradGradGrad
 Berny optimization.
 Using GEDIIS/GDIIS optimizer.
 FormGI is forming the generalized inverse of G from B-inverse, IUseBI=4.
 Internal  Forces:  Max     0.001132465 RMS     0.000308131
 Search for a local minimum.
 Step number   3 out of a maximum of   38
 All quantities printed in internal units (Hartrees-Bohrs-Radians)
 Mixed Optimization -- En-DIIS/RFO-DIIS
 Swapping is turned off.
 Update second derivatives using D2CorX and points    1    2    3
 DE= -1.70D-04 DEPred=-1.49D-04 R= 1.14D+00
 TightC=F SS=  1.41D+00  RLast= 6.80D-02 DXNew= 5.0454D-01 2.0414D-01
 Trust test= 1.14D+00 RLast= 6.80D-02 DXMaxT set to 3.00D-01
 ITU=  1  1  0
     Eigenvalues ---    0.00541   0.04463   0.05738   0.05871   0.05871
     Eigenvalues ---    0.16000   0.16000   0.16000   0.16130   0.20939
     Eigenvalues ---    0.22313   0.24605   0.27650   0.31318   0.34317
     Eigenvalues ---    0.34317   0.34317   0.36220
 En-DIIS/RFO-DIIS/Sim-DIIS IScMMF=       -3 using points:     3    2
 RFO step:  Lambda=-1.67704167D-05.
 DidBck=F Rises=F RFO-DIIS coefs:    1.20592   -0.20592
 Iteration  1 RMS(Cart)=  0.00154807 RMS(Int)=  0.00001878
 Iteration  2 RMS(Cart)=  0.00000352 RMS(Int)=  0.00001857
 Iteration  3 RMS(Cart)=  0.00000000 RMS(Int)=  0.00001857
 Variable       Old X    -DE/DX   Delta X   Delta X   Delta X     New X
                                 (Linear)    (Quad)   (Total)
    R1        2.86736  -0.00113  -0.00002  -0.00415  -0.00418   2.86318
    R2        3.42902   0.00037   0.00424  -0.00017   0.00407   3.43309
    R3        2.05405   0.00040  -0.00072   0.00148   0.00076   2.05481
    R4        2.05405   0.00040  -0.00072   0.00148   0.00076   2.05481
    R5        3.42902   0.00037   0.00424  -0.00017   0.00407   3.43309
    R6        2.05405   0.00040  -0.00072   0.00148   0.00076   2.05481
    R7        2.05405   0.00040  -0.00072   0.00148   0.00076   2.05481
    A1        1.90619   0.00014  -0.00264   0.00182  -0.00082   1.90537
    A2        1.94807   0.00011   0.00169  -0.00018   0.00149   1.94956
    A3        1.94807   0.00011   0.00169  -0.00018   0.00149   1.94956
    A4        1.87074  -0.00023  -0.00186  -0.00100  -0.00285   1.86789
    A5        1.87074  -0.00023  -0.00186  -0.00100  -0.00285   1.86789
    A6        1.91674   0.00005   0.00270   0.00047   0.00313   1.91987
    A7        1.90619   0.00014  -0.00264   0.00182  -0.00082   1.90537
    A8        1.94807   0.00011   0.00169  -0.00018   0.00149   1.94956
    A9        1.94807   0.00011   0.00169  -0.00018   0.00149   1.94956
   A10        1.87074  -0.00023  -0.00186  -0.00100  -0.00285   1.86789
   A11        1.87074  -0.00023  -0.00186  -0.00100  -0.00285   1.86789
   A12        1.91674   0.00005   0.00270   0.00047   0.00312   1.91987
    D1       -3.14159  -0.00000  -0.00000  -0.00000  -0.00000   3.14159
    D2        1.07619   0.00012   0.00295   0.00018   0.00314   1.07933
    D3       -1.07619  -0.00012  -0.00295  -0.00018  -0.00314  -1.07933
    D4        1.07619   0.00012   0.00295   0.00018   0.00314   1.07933
    D5       -0.98922   0.00024   0.00590   0.00036   0.00628  -0.98293
    D6        3.14159   0.00000  -0.00000   0.00000   0.00000   3.14159
    D7       -1.07619  -0.00012  -0.00295  -0.00018  -0.00314  -1.07933
    D8        3.14159   0.00000  -0.00000   0.00000   0.00000   3.14159
    D9        0.98922  -0.00024  -0.00590  -0.00036  -0.00628   0.98293
         Item               Value     Threshold  Converged?
 Maximum Force            0.001132     0.000450     NO 
 RMS     Force            0.000308     0.000300     NO 
 Maximum Displacement     0.002903     0.001800     NO 
 RMS     Displacement     0.001548     0.001200     NO 
 Predicted change in Energy=-8.389373D-06
 GradGradGradGradGradGradGradGradGradGradGradGradGradGradGradGradGradGrad

                          Input orientation:                          
 ---------------------------------------------------------------------
 Center     Atomic      Atomic             Coordinates (Angstroms)
 Number     Number       Type             X           Y           Z
 ---------------------------------------------------------------------
      1          6           0       -0.677821    0.331746    0.066397
      2          6           0        0.677821   -0.331746   -0.066397
      3         17           0        1.977280    0.897505    0.251098
      4         17           0       -1.977280   -0.897505   -0.251098
      5          1           0       -0.808578    1.128513   -0.661899
      6          1           0       -0.841068    0.715368    1.070655
      7          1           0        0.841068   -0.715369   -1.070655
      8          1           0        0.808578   -1.128512    0.661899
 ---------------------------------------------------------------------
                    Distance matrix (angstroms):
                    1          2          3          4          5
     1  C    0.000000
     2  C    1.515131   0.000000
     3  Cl   2.720985   1.816715   0.000000
     4  Cl   1.816715   2.720985   4.371819   0.000000
     5  H    1.087359   2.167109   2.940737   2.374735   0.000000
     6  H    1.087359   2.167109   2.940737   2.374735   1.781428
     7  H    2.167109   1.087359   2.374735   2.940737   2.507651
     8  H    2.167109   1.087359   2.374735   2.940737   3.076003
                    6          7          8
     6  H    0.000000
     7  H    3.076003   0.000000
     8  H    2.507650   1.781428   0.000000
 Stoichiometry    C2H4Cl2
 Framework group  C1[X(C2H4Cl2)]
 Deg. of freedom    18
 Full point group                 C1      NOp   1
 Largest Abelian subgroup         C1      NOp   1
 Largest concise Abelian subgroup C1      NOp   1
                         Standard orientation:                         
 ---------------------------------------------------------------------
 Center     Atomic      Atomic             Coordinates (Angstroms)
 Number     Number       Type             X           Y           Z
 ---------------------------------------------------------------------
      1          6           0       -0.488171   -0.579305   -0.000000
      2          6           0        0.488171    0.579305   -0.000000
      3         17           0        2.184779   -0.070289    0.000000
      4         17           0       -2.184779    0.070289    0.000000
      5          1           0       -0.382678   -1.194000    0.890714
      6          1           0       -0.382678   -1.194000   -0.890714
      7          1           0        0.382678    1.194000    0.890714
      8          1           0        0.382678    1.193999   -0.890714
 ---------------------------------------------------------------------
 Rotational constants (GHZ):          29.1593651           1.4718949           1.4264653
 Standard basis: 6-311++G(d,p) (5D, 7F)
 There are   136 symmetry adapted cartesian basis functions of A   symmetry.
 There are   132 symmetry adapted basis functions of A   symmetry.
   132 basis functions,   214 primitive gaussians,   136 cartesian basis functions
    25 alpha electrons       25 beta electrons
       nuclear repulsion energy       192.9402040405 Hartrees.
 NAtoms=    8 NActive=    8 NUniq=    8 SFac= 1.00D+00 NAtFMM=   60 NAOKFM=F Big=F
 Integral buffers will be    131072 words long.
 Raffenetti 2 integral format.
 Two-electron integral symmetry is turned on.
 One-electron integrals computed using PRISM.
 NBasis=   132 RedAO= T EigKep=  6.19D-05  NBF=   132
 NBsUse=   132 1.00D-06 EigRej= -1.00D+00 NBFU=   132
 Initial guess from the checkpoint file:  "C(CCl)Cl.chk"
 B after Tr=     0.000000   -0.000000   -0.000000
         Rot=    1.000000    0.000000    0.000000   -0.000050 Ang=  -0.01 deg.
 Keep R1 ints in memory in canonical form, NReq=46243989.
 Requested convergence on RMS density matrix=1.00D-08 within 128 cycles.
 Requested convergence on MAX density matrix=1.00D-06.
 Requested convergence on             energy=1.00D-06.
 No special actions if energy rises.
 SCF Done:  E(RB3LYP) =  -999.101502818     A.U. after    7 cycles
            NFock=  7  Conv=0.84D-08     -V/T= 2.0026
 Calling FoFJK, ICntrl=      2127 FMM=F ISym2X=0 I1Cent= 0 IOpClX= 0 NMat=1 NMatS=1 NMatT=0.
 ***** Axes restored to original set *****
 -------------------------------------------------------------------
 Center     Atomic                   Forces (Hartrees/Bohr)
 Number     Number              X              Y              Z
 -------------------------------------------------------------------
      1        6           0.000412486   -0.000213939   -0.000043266
      2        6          -0.000412486    0.000213938    0.000043288
      3       17           0.000004740   -0.000047898   -0.000011330
      4       17          -0.000004743    0.000047896    0.000011334
      5        1          -0.000092997    0.000055129   -0.000020677
      6        1          -0.000094152    0.000040666    0.000039995
      7        1           0.000094134   -0.000040660   -0.000040003
      8        1           0.000093018   -0.000055132    0.000020660
 -------------------------------------------------------------------
 Cartesian Forces:  Max     0.000412486 RMS     0.000142731

 GradGradGradGradGradGradGradGradGradGradGradGradGradGradGradGradGradGrad
 Berny optimization.
 Using GEDIIS/GDIIS optimizer.
 FormGI is forming the generalized inverse of G from B-inverse, IUseBI=4.
 Internal  Forces:  Max     0.000228989 RMS     0.000073565
 Search for a local minimum.
 Step number   4 out of a maximum of   38
 All quantities printed in internal units (Hartrees-Bohrs-Radians)
 Mixed Optimization -- En-DIIS/RFO-DIIS
 Swapping is turned off.
 Update second derivatives using D2CorX and points    1    2    3    4
 DE= -9.40D-06 DEPred=-8.39D-06 R= 1.12D+00
 TightC=F SS=  1.41D+00  RLast= 1.53D-02 DXNew= 5.0454D-01 4.5866D-02
 Trust test= 1.12D+00 RLast= 1.53D-02 DXMaxT set to 3.00D-01
 ITU=  1  1  1  0
     Eigenvalues ---    0.00541   0.04479   0.05713   0.05879   0.05879
     Eigenvalues ---    0.15099   0.16000   0.16000   0.16000   0.20958
     Eigenvalues ---    0.22312   0.25162   0.27650   0.29874   0.34317
     Eigenvalues ---    0.34317   0.34317   0.34696
 En-DIIS/RFO-DIIS/Sim-DIIS IScMMF=       -3 using points:     4    3    2
 RFO step:  Lambda=-8.15257670D-07.
 DidBck=F Rises=F RFO-DIIS coefs:    1.17632   -0.19188    0.01556
 Iteration  1 RMS(Cart)=  0.00040178 RMS(Int)=  0.00000094
 Iteration  2 RMS(Cart)=  0.00000020 RMS(Int)=  0.00000093
 Variable       Old X    -DE/DX   Delta X   Delta X   Delta X     New X
                                 (Linear)    (Quad)   (Total)
    R1        2.86318  -0.00023  -0.00073  -0.00026  -0.00099   2.86219
    R2        3.43309  -0.00003   0.00040  -0.00016   0.00024   3.43333
    R3        2.05481   0.00007   0.00019  -0.00001   0.00018   2.05499
    R4        2.05481   0.00007   0.00019  -0.00001   0.00018   2.05499
    R5        3.43309  -0.00003   0.00040  -0.00016   0.00024   3.43333
    R6        2.05481   0.00007   0.00019  -0.00001   0.00018   2.05499
    R7        2.05481   0.00007   0.00019  -0.00001   0.00018   2.05499
    A1        1.90537   0.00005   0.00006   0.00013   0.00018   1.90555
    A2        1.94956   0.00009   0.00013   0.00057   0.00070   1.95026
    A3        1.94956   0.00009   0.00014   0.00057   0.00070   1.95026
    A4        1.86789  -0.00008  -0.00036  -0.00030  -0.00067   1.86722
    A5        1.86789  -0.00008  -0.00036  -0.00030  -0.00067   1.86722
    A6        1.91987  -0.00009   0.00035  -0.00072  -0.00037   1.91950
    A7        1.90537   0.00005   0.00006   0.00013   0.00018   1.90555
    A8        1.94956   0.00009   0.00013   0.00057   0.00070   1.95026
    A9        1.94956   0.00009   0.00014   0.00057   0.00070   1.95026
   A10        1.86789  -0.00008  -0.00036  -0.00030  -0.00067   1.86722
   A11        1.86789  -0.00008  -0.00036  -0.00030  -0.00067   1.86722
   A12        1.91987  -0.00009   0.00035  -0.00072  -0.00037   1.91950
    D1        3.14159  -0.00000  -0.00000   0.00000   0.00000   3.14159
    D2        1.07933   0.00001   0.00033  -0.00005   0.00028   1.07961
    D3       -1.07933  -0.00001  -0.00033   0.00005  -0.00028  -1.07961
    D4        1.07933   0.00001   0.00033  -0.00005   0.00028   1.07961
    D5       -0.98293   0.00002   0.00066  -0.00010   0.00056  -0.98237
    D6        3.14159   0.00000   0.00000   0.00000   0.00000   3.14159
    D7       -1.07933  -0.00001  -0.00033   0.00005  -0.00028  -1.07961
    D8        3.14159   0.00000   0.00000   0.00000   0.00000   3.14159
    D9        0.98293  -0.00002  -0.00066   0.00010  -0.00056   0.98237
         Item               Value     Threshold  Converged?
 Maximum Force            0.000229     0.000450     YES
 RMS     Force            0.000074     0.000300     YES
 Maximum Displacement     0.000872     0.001800     YES
 RMS     Displacement     0.000402     0.001200     YES
 Predicted change in Energy=-4.071713D-07
 Optimization completed.
    -- Stationary point found.
                           ----------------------------
                           !   Optimized Parameters   !
                           ! (Angstroms and Degrees)  !
 --------------------------                            --------------------------
 ! Name  Definition              Value          Derivative Info.                !
 --------------------------------------------------------------------------------
 ! R1    R(1,2)                  1.5151         -DE/DX =   -0.0002              !
 ! R2    R(1,4)                  1.8167         -DE/DX =    0.0                 !
 ! R3    R(1,5)                  1.0874         -DE/DX =    0.0001              !
 ! R4    R(1,6)                  1.0874         -DE/DX =    0.0001              !
 ! R5    R(2,3)                  1.8167         -DE/DX =    0.0                 !
 ! R6    R(2,7)                  1.0874         -DE/DX =    0.0001              !
 ! R7    R(2,8)                  1.0874         -DE/DX =    0.0001              !
 ! A1    A(2,1,4)              109.1695         -DE/DX =    0.0001              !
 ! A2    A(2,1,5)              111.7015         -DE/DX =    0.0001              !
 ! A3    A(2,1,6)              111.7015         -DE/DX =    0.0001              !
 ! A4    A(4,1,5)              107.022          -DE/DX =   -0.0001              !
 ! A5    A(4,1,6)              107.022          -DE/DX =   -0.0001              !
 ! A6    A(5,1,6)              110.0003         -DE/DX =   -0.0001              !
 ! A7    A(1,2,3)              109.1695         -DE/DX =    0.0001              !
 ! A8    A(1,2,7)              111.7015         -DE/DX =    0.0001              !
 ! A9    A(1,2,8)              111.7015         -DE/DX =    0.0001              !
 ! A10   A(3,2,7)              107.022          -DE/DX =   -0.0001              !
 ! A11   A(3,2,8)              107.022          -DE/DX =   -0.0001              !
 ! A12   A(7,2,8)              110.0003         -DE/DX =   -0.0001              !
 ! D1    D(4,1,2,3)            180.0            -DE/DX =    0.0                 !
 ! D2    D(4,1,2,7)             61.841          -DE/DX =    0.0                 !
 ! D3    D(4,1,2,8)            -61.8411         -DE/DX =    0.0                 !
 ! D4    D(5,1,2,3)             61.841          -DE/DX =    0.0                 !
 ! D5    D(5,1,2,7)            -56.3179         -DE/DX =    0.0                 !
 ! D6    D(5,1,2,8)            180.0            -DE/DX =    0.0                 !
 ! D7    D(6,1,2,3)            -61.8411         -DE/DX =    0.0                 !
 ! D8    D(6,1,2,7)            180.0            -DE/DX =    0.0                 !
 ! D9    D(6,1,2,8)             56.3179         -DE/DX =    0.0                 !
 --------------------------------------------------------------------------------
 GradGradGradGradGradGradGradGradGradGradGradGradGradGradGradGradGradGrad

                          Input orientation:                          
 ---------------------------------------------------------------------
 Center     Atomic      Atomic             Coordinates (Angstroms)
 Number     Number       Type             X           Y           Z
 ---------------------------------------------------------------------
      1          6           0       -0.677821    0.331746    0.066397
      2          6           0        0.677821   -0.331746   -0.066397
      3         17           0        1.977280    0.897505    0.251098
      4         17           0       -1.977280   -0.897505   -0.251098
      5          1           0       -0.808578    1.128513   -0.661899
      6          1           0       -0.841068    0.715368    1.070655
      7          1           0        0.841068   -0.715369   -1.070655
      8          1           0        0.808578   -1.128512    0.661899
 ---------------------------------------------------------------------
                    Distance matrix (angstroms):
                    1          2          3          4          5
     1  C    0.000000
     2  C    1.515131   0.000000
     3  Cl   2.720985   1.816715   0.000000
     4  Cl   1.816715   2.720985   4.371819   0.000000
     5  H    1.087359   2.167109   2.940737   2.374735   0.000000
     6  H    1.087359   2.167109   2.940737   2.374735   1.781428
     7  H    2.167109   1.087359   2.374735   2.940737   2.507651
     8  H    2.167109   1.087359   2.374735   2.940737   3.076003
                    6          7          8
     6  H    0.000000
     7  H    3.076003   0.000000
     8  H    2.507650   1.781428   0.000000
 Stoichiometry    C2H4Cl2
 Framework group  C1[X(C2H4Cl2)]
 Deg. of freedom    18
 Full point group                 C1      NOp   1
 Largest Abelian subgroup         C1      NOp   1
 Largest concise Abelian subgroup C1      NOp   1
                         Standard orientation:                         
 ---------------------------------------------------------------------
 Center     Atomic      Atomic             Coordinates (Angstroms)
 Number     Number       Type             X           Y           Z
 ---------------------------------------------------------------------
      1          6           0       -0.488171   -0.579305   -0.000000
      2          6           0        0.488171    0.579305   -0.000000
      3         17           0        2.184779   -0.070289    0.000000
      4         17           0       -2.184779    0.070289    0.000000
      5          1           0       -0.382678   -1.194000    0.890714
      6          1           0       -0.382678   -1.194000   -0.890714
      7          1           0        0.382678    1.194000    0.890714
      8          1           0        0.382678    1.193999   -0.890714
 ---------------------------------------------------------------------
 Rotational constants (GHZ):          29.1593651           1.4718949           1.4264653

 **********************************************************************

            Population analysis using the SCF Density.

 **********************************************************************

 Orbital symmetries:
       Occupied  (A) (A) (A) (A) (A) (A) (A) (A) (A) (A) (A) (A)
                 (A) (A) (A) (A) (A) (A) (A) (A) (A) (A) (A) (A)
                 (A)
       Virtual   (A) (A) (A) (A) (A) (A) (A) (A) (A) (A) (A) (A)
                 (A) (A) (A) (A) (A) (A) (A) (A) (A) (A) (A) (A)
                 (A) (A) (A) (A) (A) (A) (A) (A) (A) (A) (A) (A)
                 (A) (A) (A) (A) (A) (A) (A) (A) (A) (A) (A) (A)
                 (A) (A) (A) (A) (A) (A) (A) (A) (A) (A) (A) (A)
                 (A) (A) (A) (A) (A) (A) (A) (A) (A) (A) (A) (A)
                 (A) (A) (A) (A) (A) (A) (A) (A) (A) (A) (A) (A)
                 (A) (A) (A) (A) (A) (A) (A) (A) (A) (A) (A) (A)
                 (A) (A) (A) (A) (A) (A) (A) (A) (A) (A) (A)
 The electronic state is 1-A.
 Alpha  occ. eigenvalues -- -101.55677-101.55677 -10.25515 -10.25491  -9.47099
 Alpha  occ. eigenvalues --   -9.47098  -7.23564  -7.23564  -7.22580  -7.22580
 Alpha  occ. eigenvalues --   -7.22554  -7.22554  -0.89396  -0.85290  -0.73696
 Alpha  occ. eigenvalues --   -0.64182  -0.51739  -0.46619  -0.45731  -0.42591
 Alpha  occ. eigenvalues --   -0.40198  -0.32767  -0.31850  -0.31484  -0.31384
 Alpha virt. eigenvalues --   -0.02410  -0.01521   0.01019   0.01550   0.02076
 Alpha virt. eigenvalues --    0.04264   0.04578   0.05871   0.08084   0.08451
 Alpha virt. eigenvalues --    0.08486   0.09120   0.11144   0.11540   0.11929
 Alpha virt. eigenvalues --    0.12876   0.13121   0.13311   0.15206   0.15892
 Alpha virt. eigenvalues --    0.15963   0.18732   0.18764   0.20402   0.22775
 Alpha virt. eigenvalues --    0.25498   0.29536   0.39516   0.40998   0.41270
 Alpha virt. eigenvalues --    0.43005   0.44771   0.46088   0.47837   0.48736
 Alpha virt. eigenvalues --    0.49001   0.49083   0.51257   0.58329   0.61015
 Alpha virt. eigenvalues --    0.61256   0.67359   0.68334   0.78636   0.80212
 Alpha virt. eigenvalues --    0.81065   0.82895   0.86318   0.86758   0.87030
 Alpha virt. eigenvalues --    0.87477   0.91091   0.94793   1.00913   1.03301
 Alpha virt. eigenvalues --    1.11892   1.14247   1.14684   1.17000   1.20822
 Alpha virt. eigenvalues --    1.46750   1.51425   1.52897   1.59896   1.60719
 Alpha virt. eigenvalues --    1.63932   1.66164   1.75106   1.76883   1.86317
 Alpha virt. eigenvalues --    1.90405   2.06165   2.08866   2.11080   2.23000
 Alpha virt. eigenvalues --    2.28807   2.29501   2.30680   2.31740   2.39058
 Alpha virt. eigenvalues --    2.44994   2.47498   2.48206   2.49889   2.53719
 Alpha virt. eigenvalues --    2.62033   2.64949   2.75650   2.76971   3.12527
 Alpha virt. eigenvalues --    3.13387   3.28314   3.69661   3.75127   4.05691
 Alpha virt. eigenvalues --    9.68466   9.74618  23.76406  23.78296  25.83555
 Alpha virt. eigenvalues --   25.85629  25.92085  25.92508  26.34385  26.40058
 Alpha virt. eigenvalues --  215.66500 215.73648
          Condensed to atoms (all electrons):
               1          2          3          4          5          6
     1  C    6.100074  -0.252196  -0.043188   0.022224   0.360239   0.360239
     2  C   -0.252196   6.100074   0.022224  -0.043188  -0.022622  -0.022622
     3  Cl  -0.043188   0.022224  16.887475  -0.002611   0.022525   0.022525
     4  Cl   0.022224  -0.043188  -0.002611  16.887475  -0.025413  -0.025413
     5  H    0.360239  -0.022622   0.022525  -0.025413   0.549924  -0.051315
     6  H    0.360239  -0.022622   0.022525  -0.025413  -0.051315   0.549924
     7  H   -0.022622   0.360239  -0.025413   0.022525  -0.024559   0.011084
     8  H   -0.022622   0.360239  -0.025413   0.022525   0.011084  -0.024559
               7          8
     1  C   -0.022622  -0.022622
     2  C    0.360239   0.360239
     3  Cl  -0.025413  -0.025413
     4  Cl   0.022525   0.022525
     5  H   -0.024559   0.011084
     6  H    0.011084  -0.024559
     7  H    0.549924  -0.051315
     8  H   -0.051315   0.549924
 Mulliken charges:
               1
     1  C   -0.502149
     2  C   -0.502149
     3  Cl   0.141875
     4  Cl   0.141875
     5  H    0.180137
     6  H    0.180137
     7  H    0.180137
     8  H    0.180137
 Sum of Mulliken charges =  -0.00000
 Mulliken charges with hydrogens summed into heavy atoms:
               1
     1  C   -0.141875
     2  C   -0.141875
     3  Cl   0.141875
     4  Cl   0.141875
 Electronic spatial extent (au):  <R**2>=            729.3951
 Charge=             -0.0000 electrons
 Dipole moment (field-independent basis, Debye):
    X=             -0.0000    Y=             -0.0000    Z=             -0.0000  Tot=              0.0000
 Quadrupole moment (field-independent basis, Debye-Ang):
   XX=            -46.5707   YY=            -37.4244   ZZ=            -38.2174
   XY=              0.5058   XZ=              0.0000   YZ=             -0.0000
 Traceless Quadrupole moment (field-independent basis, Debye-Ang):
   XX=             -5.8332   YY=              3.3131   ZZ=              2.5201
   XY=              0.5058   XZ=              0.0000   YZ=             -0.0000
 Octapole moment (field-independent basis, Debye-Ang**2):
  XXX=             -0.0000  YYY=             -0.0000  ZZZ=             -0.0000  XYY=             -0.0000
  XXY=              0.0000  XXZ=              0.0000  XZZ=             -0.0000  YZZ=              0.0000
  YYZ=              0.0000  XYZ=             -0.0000
 Hexadecapole moment (field-independent basis, Debye-Ang**3):
 XXXX=           -795.2495 YYYY=            -90.1946 ZZZZ=            -57.6181 XXXY=            -16.3614
 XXXZ=              0.0000 YYYX=              1.0381 YYYZ=             -0.0000 ZZZX=              0.0000
 ZZZY=              0.0000 XXYY=           -151.0454 XXZZ=           -149.5405 YYZZ=            -21.8744
 XXYZ=             -0.0000 YYXZ=              0.0000 ZZXY=              1.2474
 N-N= 1.929402040405D+02 E-N=-2.755899852982D+03  KE= 9.965402624497D+02
 ******************************Gaussian NBO Version 3.1******************************
             N A T U R A L   A T O M I C   O R B I T A L   A N D
          N A T U R A L   B O N D   O R B I T A L   A N A L Y S I S
 ******************************Gaussian NBO Version 3.1******************************
       /RESON  / : Allow strongly delocalized NBO set

 Analyzing the SCF density

 Job title: C(CCl)Cl                                                        

 Storage needed:     53010 in NPA,     70186 in NBO (1258290800 available)
 GSVD:  LWork=        3320 too small for GESVD, short by       24150 words or       24150 for optimal perf.


 NATURAL POPULATIONS:  Natural atomic orbital occupancies 
                                                          
   NAO  Atom  No  lang   Type(AO)    Occupancy      Energy
 ----------------------------------------------------------
     1    C    1  S      Cor( 1S)     1.99904     -10.12948
     2    C    1  S      Val( 2S)     1.11002      -0.35388
     3    C    1  S      Ryd( 3S)     0.00310       0.55978
     4    C    1  S      Ryd( 4S)     0.00034       0.67285
     5    C    1  S      Ryd( 5S)     0.00001      23.44355
     6    C    1  px     Val( 2p)     0.88830      -0.18536
     7    C    1  px     Ryd( 3p)     0.00462       0.47554
     8    C    1  px     Ryd( 4p)     0.00077       1.32815
     9    C    1  px     Ryd( 5p)     0.00008       1.86528
    10    C    1  py     Val( 2p)     1.10608      -0.15458
    11    C    1  py     Ryd( 3p)     0.00157       0.40969
    12    C    1  py     Ryd( 4p)     0.00033       1.32392
    13    C    1  py     Ryd( 5p)     0.00016       1.98425
    14    C    1  pz     Val( 2p)     1.23587      -0.14234
    15    C    1  pz     Ryd( 3p)     0.00290       0.45886
    16    C    1  pz     Ryd( 4p)     0.00038       1.44610
    17    C    1  pz     Ryd( 5p)     0.00019       1.93518
    18    C    1  dxy    Ryd( 3d)     0.00152       1.94656
    19    C    1  dxz    Ryd( 3d)     0.00076       1.64949
    20    C    1  dyz    Ryd( 3d)     0.00137       2.17749
    21    C    1  dx2y2  Ryd( 3d)     0.00136       1.73220
    22    C    1  dz2    Ryd( 3d)     0.00123       1.98595
 
    23    C    2  S      Cor( 1S)     1.99904     -10.12948
    24    C    2  S      Val( 2S)     1.11002      -0.35388
    25    C    2  S      Ryd( 3S)     0.00310       0.55978
    26    C    2  S      Ryd( 4S)     0.00034       0.67285
    27    C    2  S      Ryd( 5S)     0.00001      23.44355
    28    C    2  px     Val( 2p)     0.88830      -0.18536
    29    C    2  px     Ryd( 3p)     0.00462       0.47554
    30    C    2  px     Ryd( 4p)     0.00077       1.32815
    31    C    2  px     Ryd( 5p)     0.00008       1.86528
    32    C    2  py     Val( 2p)     1.10608      -0.15458
    33    C    2  py     Ryd( 3p)     0.00157       0.40969
    34    C    2  py     Ryd( 4p)     0.00033       1.32392
    35    C    2  py     Ryd( 5p)     0.00016       1.98425
    36    C    2  pz     Val( 2p)     1.23587      -0.14234
    37    C    2  pz     Ryd( 3p)     0.00290       0.45886
    38    C    2  pz     Ryd( 4p)     0.00038       1.44610
    39    C    2  pz     Ryd( 5p)     0.00019       1.93518
    40    C    2  dxy    Ryd( 3d)     0.00152       1.94656
    41    C    2  dxz    Ryd( 3d)     0.00076       1.64949
    42    C    2  dyz    Ryd( 3d)     0.00137       2.17749
    43    C    2  dx2y2  Ryd( 3d)     0.00136       1.73220
    44    C    2  dz2    Ryd( 3d)     0.00123       1.98595
 
    45   Cl    3  S      Cor( 1S)     2.00000    -100.27568
    46   Cl    3  S      Cor( 2S)     1.99981     -10.47300
    47   Cl    3  S      Val( 3S)     1.87014      -0.99362
    48   Cl    3  S      Ryd( 4S)     0.00234       0.53215
    49   Cl    3  S      Ryd( 5S)     0.00007       1.10777
    50   Cl    3  S      Ryd( 6S)     0.00000      17.36942
    51   Cl    3  S      Ryd( 7S)     0.00000     207.66147
    52   Cl    3  px     Cor( 2p)     1.99995      -7.22874
    53   Cl    3  px     Val( 3p)     1.32902      -0.28751
    54   Cl    3  px     Ryd( 5p)     0.00274       0.37510
    55   Cl    3  px     Ryd( 4p)     0.00027       0.30111
    56   Cl    3  px     Ryd( 6p)     0.00002       3.02127
    57   Cl    3  px     Ryd( 7p)     0.00000      25.45958
    58   Cl    3  py     Cor( 2p)     1.99999      -7.22255
    59   Cl    3  py     Val( 3p)     1.87181      -0.32098
    60   Cl    3  py     Ryd( 5p)     0.00155       0.34971
    61   Cl    3  py     Ryd( 4p)     0.00010       0.34528
    62   Cl    3  py     Ryd( 6p)     0.00001       2.72272
    63   Cl    3  py     Ryd( 7p)     0.00000      25.32157
    64   Cl    3  pz     Cor( 2p)     1.99999      -7.22128
    65   Cl    3  pz     Val( 3p)     1.97745      -0.32764
    66   Cl    3  pz     Ryd( 4p)     0.00127       0.33632
    67   Cl    3  pz     Ryd( 5p)     0.00016       0.34541
    68   Cl    3  pz     Ryd( 6p)     0.00001       2.68162
    69   Cl    3  pz     Ryd( 7p)     0.00000      25.29985
    70   Cl    3  dxy    Ryd( 3d)     0.00266       1.03181
    71   Cl    3  dxz    Ryd( 3d)     0.00113       0.97435
    72   Cl    3  dyz    Ryd( 3d)     0.00031       0.88431
    73   Cl    3  dx2y2  Ryd( 3d)     0.00313       1.04143
    74   Cl    3  dz2    Ryd( 3d)     0.00151       0.95412
 
    75   Cl    4  S      Cor( 1S)     2.00000    -100.27568
    76   Cl    4  S      Cor( 2S)     1.99981     -10.47300
    77   Cl    4  S      Val( 3S)     1.87014      -0.99362
    78   Cl    4  S      Ryd( 4S)     0.00234       0.53215
    79   Cl    4  S      Ryd( 5S)     0.00007       1.10777
    80   Cl    4  S      Ryd( 6S)     0.00000      17.36942
    81   Cl    4  S      Ryd( 7S)     0.00000     207.66147
    82   Cl    4  px     Cor( 2p)     1.99995      -7.22874
    83   Cl    4  px     Val( 3p)     1.32902      -0.28751
    84   Cl    4  px     Ryd( 5p)     0.00274       0.37510
    85   Cl    4  px     Ryd( 4p)     0.00027       0.30111
    86   Cl    4  px     Ryd( 6p)     0.00002       3.02127
    87   Cl    4  px     Ryd( 7p)     0.00000      25.45958
    88   Cl    4  py     Cor( 2p)     1.99999      -7.22255
    89   Cl    4  py     Val( 3p)     1.87181      -0.32098
    90   Cl    4  py     Ryd( 5p)     0.00155       0.34971
    91   Cl    4  py     Ryd( 4p)     0.00010       0.34528
    92   Cl    4  py     Ryd( 6p)     0.00001       2.72272
    93   Cl    4  py     Ryd( 7p)     0.00000      25.32157
    94   Cl    4  pz     Cor( 2p)     1.99999      -7.22128
    95   Cl    4  pz     Val( 3p)     1.97745      -0.32764
    96   Cl    4  pz     Ryd( 4p)     0.00127       0.33632
    97   Cl    4  pz     Ryd( 5p)     0.00016       0.34541
    98   Cl    4  pz     Ryd( 6p)     0.00001       2.68162
    99   Cl    4  pz     Ryd( 7p)     0.00000      25.29985
   100   Cl    4  dxy    Ryd( 3d)     0.00266       1.03181
   101   Cl    4  dxz    Ryd( 3d)     0.00113       0.97435
   102   Cl    4  dyz    Ryd( 3d)     0.00031       0.88431
   103   Cl    4  dx2y2  Ryd( 3d)     0.00313       1.04143
   104   Cl    4  dz2    Ryd( 3d)     0.00151       0.95412
 
   105    H    5  S      Val( 1S)     0.78449       0.00883
   106    H    5  S      Ryd( 3S)     0.00138       0.49062
   107    H    5  S      Ryd( 2S)     0.00061       0.22139
   108    H    5  S      Ryd( 4S)     0.00018       2.27754
   109    H    5  px     Ryd( 2p)     0.00013       1.68255
   110    H    5  py     Ryd( 2p)     0.00020       1.98497
   111    H    5  pz     Ryd( 2p)     0.00031       2.32812
 
   112    H    6  S      Val( 1S)     0.78449       0.00883
   113    H    6  S      Ryd( 3S)     0.00138       0.49062
   114    H    6  S      Ryd( 2S)     0.00061       0.22139
   115    H    6  S      Ryd( 4S)     0.00018       2.27754
   116    H    6  px     Ryd( 2p)     0.00013       1.68255
   117    H    6  py     Ryd( 2p)     0.00020       1.98497
   118    H    6  pz     Ryd( 2p)     0.00031       2.32812
 
   119    H    7  S      Val( 1S)     0.78449       0.00883
   120    H    7  S      Ryd( 3S)     0.00138       0.49062
   121    H    7  S      Ryd( 2S)     0.00061       0.22139
   122    H    7  S      Ryd( 4S)     0.00018       2.27754
   123    H    7  px     Ryd( 2p)     0.00013       1.68255
   124    H    7  py     Ryd( 2p)     0.00020       1.98497
   125    H    7  pz     Ryd( 2p)     0.00031       2.32812
 
   126    H    8  S      Val( 1S)     0.78449       0.00883
   127    H    8  S      Ryd( 3S)     0.00138       0.49062
   128    H    8  S      Ryd( 2S)     0.00061       0.22139
   129    H    8  S      Ryd( 4S)     0.00018       2.27754
   130    H    8  px     Ryd( 2p)     0.00013       1.68255
   131    H    8  py     Ryd( 2p)     0.00020       1.98497
   132    H    8  pz     Ryd( 2p)     0.00031       2.32812

 WARNING:  Population inversion found on atom Cl    3
           Population inversion found on atom Cl    4
           Population inversion found on atom  H    5
           Population inversion found on atom  H    6
           Population inversion found on atom  H    7
           Population inversion found on atom  H    8


 Summary of Natural Population Analysis:                  
                                                          
                                       Natural Population 
                Natural  -----------------------------------------------
    Atom  No    Charge         Core      Valence    Rydberg      Total
 -----------------------------------------------------------------------
      C    1   -0.35996      1.99904     4.34026    0.02066     6.35996
      C    2   -0.35996      1.99904     4.34026    0.02066     6.35996
     Cl    3   -0.06543      9.99975     7.04842    0.01727    17.06543
     Cl    4   -0.06543      9.99975     7.04842    0.01727    17.06543
      H    5    0.21270      0.00000     0.78449    0.00281     0.78730
      H    6    0.21270      0.00000     0.78449    0.00281     0.78730
      H    7    0.21270      0.00000     0.78449    0.00281     0.78730
      H    8    0.21270      0.00000     0.78449    0.00281     0.78730
 =======================================================================
   * Total *    0.00000     23.99758    25.91531    0.08711    50.00000

                                 Natural Population      
 --------------------------------------------------------
   Core                      23.99758 ( 99.9899% of  24)
   Valence                   25.91531 ( 99.6743% of  26)
   Natural Minimal Basis     49.91289 ( 99.8258% of  50)
   Natural Rydberg Basis      0.08711 (  0.1742% of  50)
 --------------------------------------------------------

    Atom  No          Natural Electron Configuration
 ----------------------------------------------------------------------------
      C    1      [core]2S( 1.11)2p( 3.23)3p( 0.01)3d( 0.01)
      C    2      [core]2S( 1.11)2p( 3.23)3p( 0.01)3d( 0.01)
     Cl    3      [core]3S( 1.87)3p( 5.18)3d( 0.01)
     Cl    4      [core]3S( 1.87)3p( 5.18)3d( 0.01)
      H    5            1S( 0.78)
      H    6            1S( 0.78)
      H    7            1S( 0.78)
      H    8            1S( 0.78)


 NATURAL BOND ORBITAL ANALYSIS:

                       Occupancies       Lewis Structure    Low   High
           Occ.    -------------------  -----------------   occ   occ
  Cycle   Thresh.   Lewis   Non-Lewis     CR  BD  3C  LP    (L)   (NL)   Dev
 =============================================================================
   1(1)    1.90    49.80160   0.19840     12   7   0   6     0      0    0.05
 -----------------------------------------------------------------------------

 Structure accepted: No low occupancy Lewis orbitals

 --------------------------------------------------------
   Core                     23.99758 ( 99.990% of  24)
   Valence Lewis            25.80402 ( 99.246% of  26)
  ==================       ============================
   Total Lewis              49.80160 ( 99.603% of  50)
  -----------------------------------------------------
   Valence non-Lewis         0.15332 (  0.307% of  50)
   Rydberg non-Lewis         0.04508 (  0.090% of  50)
  ==================       ============================
   Total non-Lewis           0.19840 (  0.397% of  50)
 --------------------------------------------------------


       (Occupancy)   Bond orbital/ Coefficients/ Hybrids
 ---------------------------------------------------------------------------------
     1. (1.99549) BD ( 1) C   1 - C   2  
                ( 50.00%)   0.7071* C   1 s( 30.92%)p 2.23( 69.03%)d 0.00(  0.05%)
                                            0.0001  0.5555  0.0232  0.0102  0.0000
                                            0.5215 -0.0172 -0.0031  0.0056  0.6464
                                           -0.0100  0.0012  0.0027  0.0000 -0.0000
                                            0.0000 -0.0000  0.0172 -0.0000  0.0000
                                           -0.0056 -0.0125
                ( 50.00%)   0.7071* C   2 s( 30.92%)p 2.23( 69.03%)d 0.00(  0.05%)
                                            0.0001  0.5555  0.0232  0.0102  0.0000
                                           -0.5215  0.0172  0.0031 -0.0056 -0.6464
                                            0.0100 -0.0012 -0.0027  0.0000 -0.0000
                                            0.0000 -0.0000  0.0172  0.0000 -0.0000
                                           -0.0056 -0.0125
     2. (1.98379) BD ( 1) C   1 -Cl   4  
                ( 44.26%)   0.6653* C   1 s( 18.36%)p 4.44( 81.45%)d 0.01(  0.19%)
                                            0.0001 -0.4277 -0.0221  0.0151  0.0005
                                            0.8448 -0.0236 -0.0269 -0.0050 -0.3149
                                           -0.0146  0.0126 -0.0026 -0.0000  0.0000
                                            0.0000  0.0000  0.0265  0.0000 -0.0000
                                           -0.0253  0.0232
                ( 55.74%)   0.7466*Cl   4 s( 14.57%)p 5.83( 84.92%)d 0.03(  0.51%)
                                           -0.0000 -0.0001 -0.3793 -0.0430  0.0003
                                           -0.0002  0.0000 -0.0001 -0.8567  0.0411
                                            0.0079  0.0007 -0.0001  0.0000  0.3364
                                           -0.0200 -0.0024  0.0002 -0.0002  0.0000
                                            0.0000 -0.0000  0.0000  0.0000  0.0000
                                            0.0405  0.0000 -0.0000 -0.0462  0.0362
     3. (1.98872) BD ( 1) C   1 - H   5  
                ( 61.15%)   0.7820* C   1 s( 25.44%)p 2.93( 74.48%)d 0.00(  0.07%)
                                           -0.0000  0.5041 -0.0180  0.0009  0.0001
                                            0.0718  0.0058  0.0009 -0.0010 -0.4900
                                            0.0042 -0.0042 -0.0015  0.7065  0.0172
                                            0.0107 -0.0004 -0.0013  0.0023 -0.0214
                                           -0.0056  0.0159
                ( 38.85%)   0.6233* H   5 s( 99.96%)p 0.00(  0.04%)
                                            0.9998  0.0034  0.0016  0.0004 -0.0019
                                            0.0122 -0.0164
     4. (1.98872) BD ( 1) C   1 - H   6  
                ( 61.15%)   0.7820* C   1 s( 25.44%)p 2.93( 74.48%)d 0.00(  0.07%)
                                           -0.0000  0.5041 -0.0180  0.0009  0.0001
                                            0.0718  0.0058  0.0009 -0.0010 -0.4900
                                            0.0042 -0.0042 -0.0015 -0.7065 -0.0172
                                           -0.0107  0.0004 -0.0013 -0.0023  0.0214
                                           -0.0056  0.0159
                ( 38.85%)   0.6233* H   6 s( 99.96%)p 0.00(  0.04%)
                                            0.9998  0.0034  0.0016  0.0004 -0.0019
                                            0.0122  0.0164
     5. (1.98379) BD ( 1) C   2 -Cl   3  
                ( 44.26%)   0.6653* C   2 s( 18.36%)p 4.44( 81.45%)d 0.01(  0.19%)
                                           -0.0001  0.4277  0.0221 -0.0151 -0.0005
                                            0.8448 -0.0236 -0.0269 -0.0050 -0.3149
                                           -0.0146  0.0126 -0.0026  0.0000 -0.0000
                                           -0.0000 -0.0000 -0.0265  0.0000 -0.0000
                                            0.0253 -0.0232
                ( 55.74%)   0.7466*Cl   3 s( 14.57%)p 5.83( 84.92%)d 0.03(  0.51%)
                                            0.0000  0.0001  0.3793  0.0430 -0.0003
                                            0.0002 -0.0000 -0.0001 -0.8567  0.0411
                                            0.0079  0.0007 -0.0001  0.0000  0.3364
                                           -0.0200 -0.0024  0.0002 -0.0002 -0.0000
                                           -0.0000  0.0000 -0.0000 -0.0000 -0.0000
                                           -0.0405  0.0000 -0.0000  0.0462 -0.0362
     6. (1.98872) BD ( 1) C   2 - H   7  
                ( 61.15%)   0.7820* C   2 s( 25.44%)p 2.93( 74.48%)d 0.00(  0.07%)
                                           -0.0000  0.5041 -0.0180  0.0009  0.0001
                                           -0.0718 -0.0058 -0.0009  0.0010  0.4900
                                           -0.0042  0.0042  0.0015  0.7065  0.0172
                                            0.0107 -0.0004 -0.0013 -0.0023  0.0214
                                           -0.0056  0.0159
                ( 38.85%)   0.6233* H   7 s( 99.96%)p 0.00(  0.04%)
                                            0.9998  0.0034  0.0016  0.0004  0.0019
                                           -0.0122 -0.0164
     7. (1.98872) BD ( 1) C   2 - H   8  
                ( 61.15%)   0.7820* C   2 s( 25.44%)p 2.93( 74.48%)d 0.00(  0.07%)
                                           -0.0000  0.5041 -0.0180  0.0009  0.0001
                                           -0.0718 -0.0058 -0.0009  0.0010  0.4900
                                           -0.0042  0.0042  0.0015 -0.7065 -0.0172
                                           -0.0107  0.0004 -0.0013  0.0023 -0.0214
                                           -0.0056  0.0159
                ( 38.85%)   0.6233* H   8 s( 99.96%)p 0.00(  0.04%)
                                            0.9998  0.0034  0.0016  0.0004  0.0019
                                           -0.0122  0.0164
     8. (1.99905) CR ( 1) C   1           s(100.00%)p 0.00(  0.00%)
                                            1.0000 -0.0000 -0.0000 -0.0000 -0.0000
                                           -0.0001  0.0000  0.0000 -0.0000 -0.0001
                                            0.0000 -0.0000 -0.0000 -0.0000 -0.0000
                                           -0.0000  0.0000 -0.0000 -0.0000  0.0000
                                            0.0000  0.0000
     9. (1.99905) CR ( 1) C   2           s(100.00%)p 0.00(  0.00%)
                                            1.0000 -0.0000 -0.0000 -0.0000 -0.0000
                                            0.0001 -0.0000 -0.0000  0.0000  0.0001
                                           -0.0000  0.0000  0.0000 -0.0000 -0.0000
                                           -0.0000  0.0000 -0.0000  0.0000 -0.0000
                                            0.0000  0.0000
    10. (2.00000) CR ( 1)Cl   3           s(100.00%)
                                            1.0000 -0.0000 -0.0000 -0.0000  0.0000
                                           -0.0000  0.0000  0.0000  0.0000 -0.0000
                                           -0.0000 -0.0000  0.0000 -0.0000 -0.0000
                                            0.0000  0.0000 -0.0000  0.0000  0.0000
                                            0.0000 -0.0000  0.0000  0.0000  0.0000
                                            0.0000 -0.0000  0.0000 -0.0000  0.0000
    11. (1.99981) CR ( 2)Cl   3           s(100.00%)p 0.00(  0.00%)
                                           -0.0000  1.0000  0.0001 -0.0000  0.0000
                                           -0.0000  0.0000  0.0000  0.0002 -0.0000
                                           -0.0000 -0.0000  0.0000 -0.0000  0.0001
                                            0.0000  0.0000 -0.0000  0.0000  0.0000
                                            0.0000 -0.0000  0.0000  0.0000  0.0000
                                            0.0000 -0.0000  0.0000 -0.0000  0.0000
    12. (1.99995) CR ( 3)Cl   3           s(  0.00%)p 1.00(100.00%)
                                            0.0000  0.0000 -0.0000  0.0000 -0.0000
                                            0.0000 -0.0000  1.0000 -0.0002  0.0000
                                            0.0000  0.0000 -0.0000  0.0000 -0.0000
                                           -0.0000 -0.0000  0.0000 -0.0000 -0.0000
                                           -0.0000  0.0000 -0.0000 -0.0000 -0.0000
                                           -0.0000  0.0000 -0.0000  0.0000 -0.0000
    13. (1.99999) CR ( 4)Cl   3           s(  0.00%)p 1.00(100.00%)
                                           -0.0000 -0.0000  0.0000 -0.0000  0.0000
                                           -0.0000  0.0000  0.0000  0.0000 -0.0000
                                            0.0000 -0.0000  0.0000  1.0000  0.0000
                                            0.0000  0.0000 -0.0000 -0.0000  0.0000
                                            0.0000  0.0000  0.0000  0.0000  0.0000
                                            0.0000 -0.0000  0.0000 -0.0000  0.0000
    14. (1.99999) CR ( 5)Cl   3           s(  0.00%)p 1.00(100.00%)
                                            0.0000  0.0000 -0.0000  0.0000 -0.0000
                                            0.0000 -0.0000 -0.0000 -0.0000  0.0000
                                            0.0000  0.0000 -0.0000  0.0000 -0.0000
                                           -0.0000  0.0000  0.0000 -0.0000  1.0000
                                            0.0001  0.0000  0.0000  0.0000 -0.0000
                                           -0.0000 -0.0000  0.0000  0.0000 -0.0000
    15. (2.00000) CR ( 1)Cl   4           s(100.00%)
                                            1.0000 -0.0000 -0.0000 -0.0000  0.0000
                                           -0.0000  0.0000 -0.0000 -0.0000  0.0000
                                            0.0000  0.0000 -0.0000  0.0000  0.0000
                                           -0.0000 -0.0000  0.0000 -0.0000  0.0000
                                            0.0000 -0.0000  0.0000  0.0000  0.0000
                                            0.0000  0.0000 -0.0000 -0.0000  0.0000
    16. (1.99981) CR ( 2)Cl   4           s(100.00%)p 0.00(  0.00%)
                                           -0.0000  1.0000  0.0001 -0.0000  0.0000
                                           -0.0000  0.0000 -0.0000 -0.0002  0.0000
                                            0.0000  0.0000 -0.0000  0.0000 -0.0001
                                           -0.0000 -0.0000  0.0000 -0.0000  0.0000
                                            0.0000 -0.0000  0.0000  0.0000  0.0000
                                            0.0000  0.0000 -0.0000 -0.0000  0.0000
    17. (1.99995) CR ( 3)Cl   4           s(  0.00%)p 1.00(100.00%)
                                           -0.0000 -0.0000  0.0000 -0.0000  0.0000
                                           -0.0000  0.0000  1.0000 -0.0002  0.0000
                                            0.0000  0.0000 -0.0000  0.0000 -0.0000
                                           -0.0000 -0.0000  0.0000 -0.0000  0.0000
                                            0.0000 -0.0000  0.0000  0.0000  0.0000
                                            0.0000  0.0000 -0.0000 -0.0000  0.0000
    18. (1.99999) CR ( 4)Cl   4           s(  0.00%)p 1.00(100.00%)
                                            0.0000  0.0000 -0.0000  0.0000 -0.0000
                                            0.0000 -0.0000  0.0000  0.0000 -0.0000
                                            0.0000 -0.0000  0.0000  1.0000  0.0000
                                            0.0000  0.0000 -0.0000 -0.0000 -0.0000
                                           -0.0000 -0.0000 -0.0000 -0.0000 -0.0000
                                           -0.0000 -0.0000  0.0000  0.0000 -0.0000
    19. (1.99999) CR ( 5)Cl   4           s(  0.00%)p 1.00(100.00%)
                                            0.0000  0.0000 -0.0000  0.0000 -0.0000
                                            0.0000 -0.0000  0.0000  0.0000 -0.0000
                                           -0.0000 -0.0000  0.0000 -0.0000  0.0000
                                            0.0000 -0.0000 -0.0000  0.0000  1.0000
                                            0.0001  0.0000  0.0000  0.0000 -0.0000
                                           -0.0000  0.0000 -0.0000  0.0000 -0.0000
    20. (1.99722) LP ( 1)Cl   3           s( 84.65%)p 0.18( 15.35%)d 0.00(  0.01%)
                                           -0.0000 -0.0001  0.9200 -0.0099  0.0002
                                           -0.0000  0.0000  0.0001  0.3134 -0.0127
                                            0.0025  0.0016  0.0004 -0.0000 -0.2347
                                            0.0036 -0.0002 -0.0005 -0.0001  0.0000
                                            0.0000 -0.0000  0.0000  0.0000  0.0000
                                            0.0059 -0.0000  0.0000 -0.0042  0.0037
    21. (1.97818) LP ( 2)Cl   3           s(  0.00%)p 1.00( 99.98%)d 0.00(  0.02%)
                                           -0.0000 -0.0000  0.0000 -0.0000 -0.0000
                                            0.0000  0.0000  0.0000 -0.0000 -0.0000
                                            0.0000  0.0000 -0.0000 -0.0000  0.0000
                                            0.0000  0.0000  0.0000 -0.0000 -0.0001
                                            0.9998  0.0139  0.0020  0.0007 -0.0001
                                           -0.0000 -0.0127  0.0030  0.0000 -0.0000
    22. (1.96765) LP ( 3)Cl   3           s(  0.93%)p99.99( 99.05%)d 0.02(  0.02%)
                                           -0.0000 -0.0002  0.0962  0.0024  0.0006
                                           -0.0003  0.0000  0.0001  0.4002  0.0038
                                            0.0018 -0.0015 -0.0000 -0.0000  0.9111
                                            0.0137  0.0010 -0.0003 -0.0000  0.0000
                                           -0.0000 -0.0000  0.0000 -0.0000  0.0000
                                           -0.0107  0.0000 -0.0000 -0.0105  0.0004
    23. (1.99722) LP ( 1)Cl   4           s( 84.65%)p 0.18( 15.35%)d 0.00(  0.01%)
                                           -0.0000 -0.0001  0.9200 -0.0099  0.0002
                                           -0.0000  0.0000 -0.0001 -0.3134  0.0127
                                           -0.0025 -0.0016 -0.0004  0.0000  0.2347
                                           -0.0036  0.0002  0.0005  0.0001  0.0000
                                            0.0000 -0.0000  0.0000  0.0000  0.0000
                                            0.0059  0.0000 -0.0000 -0.0042  0.0037
    24. (1.97818) LP ( 2)Cl   4           s(  0.00%)p 1.00( 99.98%)d 0.00(  0.02%)
                                           -0.0000 -0.0000  0.0000 -0.0000 -0.0000
                                            0.0000 -0.0000 -0.0000  0.0000  0.0000
                                           -0.0000 -0.0000 -0.0000  0.0000 -0.0000
                                           -0.0000 -0.0000 -0.0000  0.0000 -0.0001
                                            0.9998  0.0139  0.0020  0.0007 -0.0001
                                           -0.0000  0.0127 -0.0030  0.0000 -0.0000
    25. (1.96765) LP ( 3)Cl   4           s(  0.93%)p99.99( 99.05%)d 0.02(  0.02%)
                                           -0.0000 -0.0002  0.0962  0.0024  0.0006
                                           -0.0003  0.0000 -0.0001 -0.4002 -0.0038
                                           -0.0018  0.0015  0.0000  0.0000 -0.9111
                                           -0.0137 -0.0010  0.0003  0.0000  0.0000
                                           -0.0000 -0.0000  0.0000 -0.0000  0.0000
                                           -0.0107  0.0000  0.0000 -0.0105  0.0004
    26. (0.00471) RY*( 1) C   1           s( 12.73%)p 5.81( 73.90%)d 1.05( 13.37%)
                                            0.0000  0.0040  0.3567  0.0066 -0.0040
                                           -0.0204 -0.8496  0.0113  0.0274 -0.0287
                                           -0.0510  0.0128  0.1109 -0.0000  0.0000
                                            0.0000  0.0000  0.2254 -0.0000 -0.0000
                                            0.2816 -0.0603
    27. (0.00276) RY*( 2) C   1           s(  0.00%)p 1.00( 79.90%)d 0.25( 20.10%)
                                           -0.0000  0.0000 -0.0000  0.0000 -0.0000
                                           -0.0000 -0.0000  0.0000 -0.0000  0.0000
                                           -0.0000  0.0000 -0.0000 -0.0179  0.8744
                                           -0.1723  0.0667 -0.0000 -0.4475 -0.0266
                                           -0.0000  0.0000
    28. (0.00190) RY*( 3) C   1           s( 12.39%)p 5.48( 67.86%)d 1.59( 19.75%)
                                            0.0000  0.0012  0.3324  0.1155  0.0052
                                           -0.0030  0.3930 -0.0690  0.0591 -0.0203
                                           -0.6954  0.1245  0.1280 -0.0000  0.0000
                                            0.0000 -0.0000  0.2970 -0.0000  0.0000
                                            0.3274 -0.0460
    29. (0.00135) RY*( 4) C   1           s( 50.80%)p 0.79( 40.16%)d 0.18(  9.04%)
                                           -0.0000 -0.0090  0.7121 -0.0284 -0.0055
                                            0.0357  0.2878 -0.1295 -0.0119 -0.0262
                                            0.4935 -0.2022  0.1245 -0.0000  0.0000
                                           -0.0000  0.0000 -0.2201 -0.0000 -0.0000
                                            0.1767 -0.1038
    30. (0.00069) RY*( 5) C   1           s(  0.00%)p 1.00( 27.28%)d 2.67( 72.72%)
                                           -0.0000  0.0000  0.0000  0.0000 -0.0000
                                           -0.0000  0.0000  0.0000  0.0000  0.0000
                                            0.0000  0.0000 -0.0000 -0.0265  0.2085
                                           -0.0202  0.4777  0.0000  0.5273 -0.6702
                                            0.0000 -0.0000
    31. (0.00056) RY*( 6) C   1           s(  9.90%)p 2.81( 27.81%)d 6.29( 62.29%)
                                            0.0000  0.0077  0.3054  0.0663  0.0355
                                           -0.0407  0.0131 -0.3255 -0.1459  0.0030
                                            0.1169  0.2615 -0.2588 -0.0000 -0.0000
                                            0.0000 -0.0000  0.5007 -0.0000 -0.0000
                                           -0.5632  0.2346
    32. (0.00020) RY*( 7) C   1           s( 14.61%)p 2.48( 36.28%)d 3.36( 49.11%)
                                           -0.0000 -0.0006  0.3590 -0.0674  0.1124
                                            0.0084 -0.1144  0.3464 -0.0056 -0.0122
                                           -0.3197  0.3517 -0.0598  0.0000  0.0000
                                           -0.0000  0.0000 -0.5814  0.0000  0.0000
                                           -0.3904  0.0247
    33. (0.00009) RY*( 8) C   1           s(  0.00%)p 1.00( 39.13%)d 1.56( 60.87%)
    34. (0.00005) RY*( 9) C   1           s( 47.14%)p 0.77( 36.38%)d 0.35( 16.48%)
    35. (0.00001) RY*(10) C   1           s(  1.88%)p43.15( 80.91%)d 9.18( 17.21%)
    36. (0.00000) RY*(11) C   1           s(  0.00%)p 1.00( 85.87%)d 0.16( 14.13%)
    37. (0.00000) RY*(12) C   1           s(  0.00%)p 1.00( 67.91%)d 0.47( 32.09%)
    38. (0.00001) RY*(13) C   1           s(  1.17%)p82.62( 96.71%)d 1.81(  2.12%)
    39. (0.00000) RY*(14) C   1           s( 96.34%)p 0.03(  2.65%)d 0.01(  1.01%)
    40. (0.00000) RY*(15) C   1           s( 33.37%)p 1.70( 56.87%)d 0.29(  9.77%)
    41. (0.00000) RY*(16) C   1           s( 12.23%)p 5.95( 72.76%)d 1.23( 15.01%)
    42. (0.00000) RY*(17) C   1           s(  7.29%)p 1.12(  8.17%)d11.59( 84.54%)
    43. (0.00471) RY*( 1) C   2           s( 12.73%)p 5.81( 73.90%)d 1.05( 13.37%)
                                            0.0000  0.0040  0.3567  0.0066 -0.0040
                                            0.0204  0.8496 -0.0113 -0.0274  0.0287
                                            0.0510 -0.0128 -0.1109 -0.0000  0.0000
                                            0.0000  0.0000  0.2254  0.0000  0.0000
                                            0.2816 -0.0603
    44. (0.00276) RY*( 2) C   2           s(  0.00%)p 1.00( 79.90%)d 0.25( 20.10%)
                                           -0.0000  0.0000 -0.0000  0.0000 -0.0000
                                            0.0000  0.0000 -0.0000  0.0000 -0.0000
                                           -0.0000 -0.0000  0.0000 -0.0179  0.8744
                                           -0.1723  0.0667 -0.0000  0.4475  0.0266
                                           -0.0000  0.0000
    45. (0.00190) RY*( 3) C   2           s( 12.39%)p 5.48( 67.86%)d 1.59( 19.75%)
                                            0.0000  0.0012  0.3324  0.1155  0.0052
                                            0.0030 -0.3930  0.0690 -0.0591  0.0203
                                            0.6954 -0.1245 -0.1280 -0.0000  0.0000
                                           -0.0000 -0.0000  0.2970  0.0000 -0.0000
                                            0.3274 -0.0460
    46. (0.00135) RY*( 4) C   2           s( 50.80%)p 0.79( 40.16%)d 0.18(  9.04%)
                                           -0.0000 -0.0090  0.7121 -0.0284 -0.0055
                                           -0.0357 -0.2878  0.1295  0.0119  0.0262
                                           -0.4935  0.2022 -0.1245 -0.0000  0.0000
                                           -0.0000  0.0000 -0.2201  0.0000 -0.0000
                                            0.1767 -0.1038
    47. (0.00069) RY*( 5) C   2           s(  0.00%)p 1.00( 27.28%)d 2.67( 72.72%)
                                            0.0000 -0.0000 -0.0000 -0.0000  0.0000
                                           -0.0000  0.0000  0.0000  0.0000  0.0000
                                            0.0000  0.0000 -0.0000  0.0265 -0.2085
                                            0.0202 -0.4777 -0.0000  0.5273 -0.6702
                                           -0.0000  0.0000
    48. (0.00056) RY*( 6) C   2           s(  9.90%)p 2.81( 27.81%)d 6.29( 62.29%)
                                            0.0000  0.0077  0.3054  0.0663  0.0355
                                            0.0407 -0.0131  0.3255  0.1459 -0.0030
                                           -0.1169 -0.2615  0.2588 -0.0000 -0.0000
                                            0.0000 -0.0000  0.5007  0.0000  0.0000
                                           -0.5632  0.2346
    49. (0.00020) RY*( 7) C   2           s( 14.61%)p 2.48( 36.28%)d 3.36( 49.11%)
                                           -0.0000 -0.0006  0.3590 -0.0674  0.1124
                                           -0.0084  0.1144 -0.3464  0.0056  0.0122
                                            0.3197 -0.3517  0.0598  0.0000  0.0000
                                           -0.0000  0.0000 -0.5814 -0.0000 -0.0000
                                           -0.3904  0.0247
    50. (0.00009) RY*( 8) C   2           s(  0.00%)p 1.00( 39.13%)d 1.56( 60.87%)
    51. (0.00005) RY*( 9) C   2           s( 47.14%)p 0.77( 36.38%)d 0.35( 16.48%)
    52. (0.00001) RY*(10) C   2           s(  1.88%)p43.15( 80.91%)d 9.18( 17.21%)
    53. (0.00000) RY*(11) C   2           s(  0.00%)p 1.00( 85.87%)d 0.16( 14.13%)
    54. (0.00000) RY*(12) C   2           s(  0.00%)p 1.00( 67.91%)d 0.47( 32.09%)
    55. (0.00001) RY*(13) C   2           s(  1.17%)p82.62( 96.71%)d 1.81(  2.12%)
    56. (0.00000) RY*(14) C   2           s( 96.34%)p 0.03(  2.65%)d 0.01(  1.01%)
    57. (0.00000) RY*(15) C   2           s( 33.37%)p 1.70( 56.87%)d 0.29(  9.77%)
    58. (0.00000) RY*(16) C   2           s( 12.23%)p 5.95( 72.76%)d 1.23( 15.01%)
    59. (0.00000) RY*(17) C   2           s(  7.29%)p 1.12(  8.17%)d11.59( 84.54%)
    60. (0.00225) RY*( 1)Cl   3           s(  0.48%)p99.99( 56.33%)d90.16( 43.19%)
                                            0.0000  0.0000 -0.0042  0.0683  0.0050
                                           -0.0088 -0.0001 -0.0000  0.0205  0.4759
                                            0.0931 -0.0163  0.0023  0.0000 -0.0082
                                            0.5403 -0.1878  0.0095  0.0072  0.0000
                                            0.0000 -0.0000  0.0000 -0.0000 -0.0000
                                            0.4267 -0.0000  0.0000  0.4896 -0.1007
    61. (0.00203) RY*( 2)Cl   3           s(  0.00%)p 1.00( 48.12%)d 1.08( 51.88%)
                                            0.0000  0.0000 -0.0000  0.0000  0.0000
                                           -0.0000 -0.0000 -0.0000  0.0000  0.0000
                                            0.0000 -0.0000 -0.0000  0.0000 -0.0000
                                            0.0000 -0.0000  0.0000  0.0000  0.0000
                                            0.0003  0.6528 -0.2340  0.0165  0.0050
                                            0.0000  0.6188 -0.3687  0.0000  0.0000
    62. (0.00053) RY*( 3)Cl   3           s( 26.45%)p 1.27( 33.62%)d 1.51( 39.93%)
                                            0.0000  0.0000 -0.0170  0.4473  0.2533
                                           -0.0017  0.0001 -0.0000  0.0782  0.4439
                                           -0.1739 -0.0460 -0.0217  0.0000 -0.0336
                                           -0.3067  0.0510  0.0483 -0.0083  0.0000
                                            0.0000  0.0000 -0.0000 -0.0000  0.0000
                                           -0.4959  0.0000 -0.0000  0.2602 -0.2928
    63. (0.00022) RY*( 4)Cl   3           s( 23.27%)p 2.86( 66.48%)d 0.44( 10.25%)
                                            0.0000  0.0000 -0.0080  0.3683 -0.3083
                                           -0.0437  0.0014 -0.0000  0.0178 -0.0649
                                            0.7698 -0.1024  0.0181  0.0000 -0.0156
                                            0.1810  0.1526  0.0221 -0.0079  0.0000
                                            0.0000 -0.0000 -0.0000  0.0000 -0.0000
                                           -0.2989  0.0000  0.0000  0.0056  0.1145
    64. (0.00011) RY*( 5)Cl   3           s(  0.00%)p 1.00( 57.36%)d 0.74( 42.64%)
                                            0.0000  0.0000 -0.0000 -0.0000 -0.0000
                                            0.0000 -0.0000 -0.0000  0.0000  0.0000
                                            0.0000  0.0000  0.0000 -0.0000 -0.0000
                                           -0.0000  0.0000 -0.0000  0.0000 -0.0000
                                           -0.0131  0.4647  0.5795  0.1474 -0.0075
                                           -0.0000 -0.5145 -0.4021  0.0000 -0.0000
    65. (0.00007) RY*( 6)Cl   3           s( 43.13%)p 0.38( 16.53%)d 0.94( 40.34%)
    66. (0.00002) RY*( 7)Cl   3           s( 23.61%)p 3.15( 74.41%)d 0.08(  1.98%)
    67. (0.00000) RY*( 8)Cl   3           s(  0.08%)p99.99( 99.90%)d 0.18(  0.02%)
    68. (0.00000) RY*( 9)Cl   3           s(100.00%)p 0.00(  0.00%)d 0.00(  0.00%)
    69. (0.00000) RY*(10)Cl   3           s( 20.07%)p 3.93( 78.89%)d 0.05(  1.04%)
    70. (0.00000) RY*(11)Cl   3           s(  4.50%)p20.44( 92.07%)d 0.76(  3.42%)
    71. (0.00000) RY*(12)Cl   3           s(  0.11%)p99.99( 99.83%)d 0.55(  0.06%)
    72. (0.00001) RY*(13)Cl   3           s(  5.47%)p 6.64( 36.32%)d10.64( 58.21%)
    73. (0.00000) RY*(14)Cl   3           s( 99.53%)p 0.00(  0.36%)d 0.00(  0.11%)
    74. (0.00001) RY*(15)Cl   3           s(  0.00%)p 1.00( 99.12%)d 0.01(  0.88%)
    75. (0.00000) RY*(16)Cl   3           s(  0.00%)p 1.00( 99.99%)d 0.00(  0.01%)
    76. (0.00000) RY*(17)Cl   3           s(  6.66%)p13.58( 90.47%)d 0.43(  2.87%)
    77. (0.00000) RY*(18)Cl   3           s(  0.00%)p 1.00( 65.28%)d 0.53( 34.72%)
    78. (0.00000) RY*(19)Cl   3           s(  0.00%)p 1.00( 30.15%)d 2.32( 69.85%)
    79. (0.00000) RY*(20)Cl   3           s(  8.74%)p 4.10( 35.85%)d 6.34( 55.41%)
    80. (0.00000) RY*(21)Cl   3           s( 37.75%)p 0.52( 19.61%)d 1.13( 42.63%)
    81. (0.00225) RY*( 1)Cl   4           s(  0.48%)p99.99( 56.33%)d90.16( 43.19%)
                                           -0.0000  0.0000 -0.0042  0.0683  0.0050
                                           -0.0088 -0.0001 -0.0000 -0.0205 -0.4759
                                           -0.0931  0.0163 -0.0023 -0.0000  0.0082
                                           -0.5403  0.1878 -0.0095 -0.0072  0.0000
                                            0.0000 -0.0000  0.0000 -0.0000 -0.0000
                                            0.4267  0.0000 -0.0000  0.4896 -0.1007
    82. (0.00203) RY*( 2)Cl   4           s(  0.00%)p 1.00( 48.12%)d 1.08( 51.88%)
                                            0.0000 -0.0000 -0.0000  0.0000  0.0000
                                           -0.0000 -0.0000  0.0000 -0.0000 -0.0000
                                           -0.0000  0.0000  0.0000  0.0000  0.0000
                                           -0.0000  0.0000 -0.0000 -0.0000  0.0000
                                            0.0003  0.6528 -0.2340  0.0165  0.0050
                                            0.0000 -0.6188  0.3687  0.0000  0.0000
    83. (0.00053) RY*( 3)Cl   4           s( 26.45%)p 1.27( 33.62%)d 1.51( 39.93%)
                                           -0.0000  0.0000 -0.0170  0.4473  0.2533
                                           -0.0017  0.0001 -0.0000 -0.0782 -0.4439
                                            0.1739  0.0460  0.0217 -0.0000  0.0336
                                            0.3067 -0.0510 -0.0483  0.0083  0.0000
                                            0.0000  0.0000 -0.0000 -0.0000  0.0000
                                           -0.4959 -0.0000  0.0000  0.2602 -0.2928
    84. (0.00022) RY*( 4)Cl   4           s( 23.27%)p 2.86( 66.48%)d 0.44( 10.25%)
                                           -0.0000  0.0000 -0.0080  0.3683 -0.3083
                                           -0.0437  0.0014 -0.0000 -0.0178  0.0649
                                           -0.7698  0.1024 -0.0181 -0.0000  0.0156
                                           -0.1810 -0.1526 -0.0221  0.0079  0.0000
                                            0.0000 -0.0000 -0.0000  0.0000 -0.0000
                                           -0.2989 -0.0000 -0.0000  0.0056  0.1145
    85. (0.00011) RY*( 5)Cl   4           s(  0.00%)p 1.00( 57.36%)d 0.74( 42.64%)
                                           -0.0000  0.0000 -0.0000 -0.0000 -0.0000
                                            0.0000 -0.0000 -0.0000 -0.0000 -0.0000
                                           -0.0000 -0.0000 -0.0000 -0.0000  0.0000
                                            0.0000 -0.0000  0.0000 -0.0000 -0.0000
                                           -0.0131  0.4647  0.5795  0.1474 -0.0075
                                           -0.0000  0.5145  0.4021  0.0000 -0.0000
    86. (0.00007) RY*( 6)Cl   4           s( 43.13%)p 0.38( 16.53%)d 0.94( 40.34%)
    87. (0.00002) RY*( 7)Cl   4           s( 23.61%)p 3.15( 74.41%)d 0.08(  1.98%)
    88. (0.00000) RY*( 8)Cl   4           s(  0.08%)p99.99( 99.90%)d 0.18(  0.02%)
    89. (0.00000) RY*( 9)Cl   4           s(100.00%)p 0.00(  0.00%)d 0.00(  0.00%)
    90. (0.00000) RY*(10)Cl   4           s( 20.07%)p 3.93( 78.89%)d 0.05(  1.04%)
    91. (0.00000) RY*(11)Cl   4           s(  4.50%)p20.44( 92.07%)d 0.76(  3.42%)
    92. (0.00000) RY*(12)Cl   4           s(  0.11%)p99.99( 99.83%)d 0.55(  0.06%)
    93. (0.00001) RY*(13)Cl   4           s(  5.47%)p 6.64( 36.32%)d10.64( 58.21%)
    94. (0.00000) RY*(14)Cl   4           s( 99.53%)p 0.00(  0.36%)d 0.00(  0.11%)
    95. (0.00001) RY*(15)Cl   4           s(  0.00%)p 1.00( 99.12%)d 0.01(  0.88%)
    96. (0.00000) RY*(16)Cl   4           s(  0.00%)p 1.00( 99.99%)d 0.00(  0.01%)
    97. (0.00000) RY*(17)Cl   4           s(  6.66%)p13.58( 90.47%)d 0.43(  2.87%)
    98. (0.00000) RY*(18)Cl   4           s(  0.00%)p 1.00( 65.28%)d 0.53( 34.72%)
    99. (0.00000) RY*(19)Cl   4           s(  0.00%)p 1.00( 30.15%)d 2.32( 69.85%)
   100. (0.00000) RY*(20)Cl   4           s(  8.74%)p 4.10( 35.85%)d 6.34( 55.41%)
   101. (0.00000) RY*(21)Cl   4           s( 37.75%)p 0.52( 19.61%)d 1.13( 42.63%)
   102. (0.00140) RY*( 1) H   5           s( 99.12%)p 0.01(  0.88%)
                                           -0.0041  0.9955  0.0090 -0.0001 -0.0893
                                            0.0272 -0.0095
   103. (0.00065) RY*( 2) H   5           s( 92.51%)p 0.08(  7.49%)
                                            0.0031 -0.0157  0.9617  0.0009 -0.1384
                                           -0.1279  0.1985
   104. (0.00020) RY*( 3) H   5           s( 79.52%)p 0.26( 20.48%)
                                           -0.0003  0.0180  0.0369  0.8908  0.2736
                                            0.2989  0.2017
   105. (0.00012) RY*( 4) H   5           s( 15.92%)p 5.28( 84.08%)
                                            0.0060 -0.0617 -0.2043  0.3371 -0.8314
                                           -0.3395  0.1849
   106. (0.00005) RY*( 5) H   5           s(  3.12%)p31.01( 96.88%)
   107. (0.00005) RY*( 6) H   5           s(  9.85%)p 9.15( 90.15%)
   108. (0.00140) RY*( 1) H   6           s( 99.12%)p 0.01(  0.88%)
                                           -0.0041  0.9955  0.0090 -0.0001 -0.0893
                                            0.0272  0.0095
   109. (0.00065) RY*( 2) H   6           s( 92.51%)p 0.08(  7.49%)
                                            0.0031 -0.0157  0.9617  0.0009 -0.1384
                                           -0.1279 -0.1985
   110. (0.00020) RY*( 3) H   6           s( 79.51%)p 0.26( 20.49%)
                                           -0.0003  0.0180  0.0369  0.8908  0.2736
                                            0.2989 -0.2017
   111. (0.00012) RY*( 4) H   6           s( 15.92%)p 5.28( 84.08%)
                                            0.0060 -0.0617 -0.2043  0.3371 -0.8314
                                           -0.3395 -0.1849
   112. (0.00005) RY*( 5) H   6           s(  3.12%)p31.01( 96.88%)
   113. (0.00005) RY*( 6) H   6           s(  9.85%)p 9.15( 90.15%)
   114. (0.00140) RY*( 1) H   7           s( 99.12%)p 0.01(  0.88%)
                                           -0.0041  0.9955  0.0090 -0.0001  0.0893
                                           -0.0272 -0.0095
   115. (0.00065) RY*( 2) H   7           s( 92.51%)p 0.08(  7.49%)
                                            0.0031 -0.0157  0.9617  0.0009  0.1384
                                            0.1279  0.1985
   116. (0.00020) RY*( 3) H   7           s( 79.51%)p 0.26( 20.49%)
                                           -0.0003  0.0180  0.0369  0.8908 -0.2736
                                           -0.2989  0.2017
   117. (0.00012) RY*( 4) H   7           s( 15.92%)p 5.28( 84.08%)
                                            0.0060 -0.0617 -0.2043  0.3371  0.8314
                                            0.3395  0.1849
   118. (0.00005) RY*( 5) H   7           s(  3.12%)p31.01( 96.88%)
   119. (0.00005) RY*( 6) H   7           s(  9.85%)p 9.15( 90.15%)
   120. (0.00140) RY*( 1) H   8           s( 99.12%)p 0.01(  0.88%)
                                           -0.0041  0.9955  0.0090 -0.0001  0.0893
                                           -0.0272  0.0095
   121. (0.00065) RY*( 2) H   8           s( 92.51%)p 0.08(  7.49%)
                                            0.0031 -0.0157  0.9617  0.0009  0.1384
                                            0.1279 -0.1985
   122. (0.00020) RY*( 3) H   8           s( 79.51%)p 0.26( 20.49%)
                                           -0.0003  0.0180  0.0369  0.8908 -0.2736
                                           -0.2989 -0.2017
   123. (0.00012) RY*( 4) H   8           s( 15.92%)p 5.28( 84.08%)
                                            0.0060 -0.0617 -0.2043  0.3371  0.8314
                                            0.3395 -0.1849
   124. (0.00005) RY*( 5) H   8           s(  3.12%)p31.01( 96.88%)
   125. (0.00005) RY*( 6) H   8           s(  9.85%)p 9.15( 90.15%)
   126. (0.02030) BD*( 1) C   1 - C   2  
                ( 50.00%)   0.7071* C   1 s( 30.92%)p 2.23( 69.03%)d 0.00(  0.05%)
                                           -0.0001 -0.5555 -0.0232 -0.0102 -0.0000
                                           -0.5215  0.0172  0.0031 -0.0056 -0.6464
                                            0.0100 -0.0012 -0.0027 -0.0000  0.0000
                                           -0.0000  0.0000 -0.0172  0.0000 -0.0000
                                            0.0056  0.0125
                ( 50.00%)  -0.7071* C   2 s( 30.92%)p 2.23( 69.03%)d 0.00(  0.05%)
                                           -0.0001 -0.5555 -0.0232 -0.0102 -0.0000
                                            0.5215 -0.0172 -0.0031  0.0056  0.6464
                                           -0.0100  0.0012  0.0027 -0.0000  0.0000
                                           -0.0000  0.0000 -0.0172 -0.0000  0.0000
                                            0.0056  0.0125
   127. (0.02643) BD*( 1) C   1 -Cl   4  
                ( 55.74%)   0.7466* C   1 s( 18.36%)p 4.44( 81.45%)d 0.01(  0.19%)
                                            0.0001 -0.4277 -0.0221  0.0151  0.0005
                                            0.8448 -0.0236 -0.0269 -0.0050 -0.3149
                                           -0.0146  0.0126 -0.0026 -0.0000  0.0000
                                            0.0000  0.0000  0.0265  0.0000 -0.0000
                                           -0.0253  0.0232
                ( 44.26%)  -0.6653*Cl   4 s( 14.57%)p 5.83( 84.92%)d 0.03(  0.51%)
                                           -0.0000 -0.0001 -0.3793 -0.0430  0.0003
                                           -0.0002  0.0000 -0.0001 -0.8567  0.0411
                                            0.0079  0.0007 -0.0001  0.0000  0.3364
                                           -0.0200 -0.0024  0.0002 -0.0002  0.0000
                                            0.0000 -0.0000  0.0000  0.0000  0.0000
                                            0.0405  0.0000 -0.0000 -0.0462  0.0362
   128. (0.02004) BD*( 1) C   1 - H   5  
                ( 38.85%)   0.6233* C   1 s( 25.44%)p 2.93( 74.48%)d 0.00(  0.07%)
                                            0.0000 -0.5041  0.0180 -0.0009 -0.0001
                                           -0.0718 -0.0058 -0.0009  0.0010  0.4900
                                           -0.0042  0.0042  0.0015 -0.7065 -0.0172
                                           -0.0107  0.0004  0.0013 -0.0023  0.0214
                                            0.0056 -0.0159
                ( 61.15%)  -0.7820* H   5 s( 99.96%)p 0.00(  0.04%)
                                           -0.9998 -0.0034 -0.0016 -0.0004  0.0019
                                           -0.0122  0.0164
   129. (0.02004) BD*( 1) C   1 - H   6  
                ( 38.85%)   0.6233* C   1 s( 25.44%)p 2.93( 74.48%)d 0.00(  0.07%)
                                            0.0000 -0.5041  0.0180 -0.0009 -0.0001
                                           -0.0718 -0.0058 -0.0009  0.0010  0.4900
                                           -0.0042  0.0042  0.0015  0.7065  0.0172
                                            0.0107 -0.0004  0.0013  0.0023 -0.0214
                                            0.0056 -0.0159
                ( 61.15%)  -0.7820* H   6 s( 99.96%)p 0.00(  0.04%)
                                           -0.9998 -0.0034 -0.0016 -0.0004  0.0019
                                           -0.0122 -0.0164
   130. (0.02643) BD*( 1) C   2 -Cl   3  
                ( 55.74%)   0.7466* C   2 s( 18.36%)p 4.44( 81.45%)d 0.01(  0.19%)
                                           -0.0001  0.4277  0.0221 -0.0151 -0.0005
                                            0.8448 -0.0236 -0.0269 -0.0050 -0.3149
                                           -0.0146  0.0126 -0.0026  0.0000 -0.0000
                                           -0.0000 -0.0000 -0.0265  0.0000 -0.0000
                                            0.0253 -0.0232
                ( 44.26%)  -0.6653*Cl   3 s( 14.57%)p 5.83( 84.92%)d 0.03(  0.51%)
                                            0.0000  0.0001  0.3793  0.0430 -0.0003
                                            0.0002 -0.0000 -0.0001 -0.8567  0.0411
                                            0.0079  0.0007 -0.0001  0.0000  0.3364
                                           -0.0200 -0.0024  0.0002 -0.0002 -0.0000
                                           -0.0000  0.0000 -0.0000 -0.0000 -0.0000
                                           -0.0405  0.0000 -0.0000  0.0462 -0.0362
   131. (0.02004) BD*( 1) C   2 - H   7  
                ( 38.85%)   0.6233* C   2 s( 25.44%)p 2.93( 74.48%)d 0.00(  0.07%)
                                            0.0000 -0.5041  0.0180 -0.0009 -0.0001
                                            0.0718  0.0058  0.0009 -0.0010 -0.4900
                                            0.0042 -0.0042 -0.0015 -0.7065 -0.0172
                                           -0.0107  0.0004  0.0013  0.0023 -0.0214
                                            0.0056 -0.0159
                ( 61.15%)  -0.7820* H   7 s( 99.96%)p 0.00(  0.04%)
                                           -0.9998 -0.0034 -0.0016 -0.0004 -0.0019
                                            0.0122  0.0164
   132. (0.02004) BD*( 1) C   2 - H   8  
                ( 38.85%)   0.6233* C   2 s( 25.44%)p 2.93( 74.48%)d 0.00(  0.07%)
                                            0.0000 -0.5041  0.0180 -0.0009 -0.0001
                                            0.0718  0.0058  0.0009 -0.0010 -0.4900
                                            0.0042 -0.0042 -0.0015  0.7065  0.0172
                                            0.0107 -0.0004  0.0013 -0.0023  0.0214
                                            0.0056 -0.0159
                ( 61.15%)  -0.7820* H   8 s( 99.96%)p 0.00(  0.04%)
                                           -0.9998 -0.0034 -0.0016 -0.0004 -0.0019
                                            0.0122 -0.0164


 NHO Directionality and "Bond Bending" (deviations from line of nuclear centers)

         [Thresholds for printing:  angular deviation  >  1.0 degree]
                                    hybrid p-character > 25.0%
                                    orbital occupancy  >  0.10e

                                Line of Centers        Hybrid 1              Hybrid 2
                                ---------------  -------------------   ------------------
                NBO               Theta   Phi    Theta   Phi    Dev    Theta   Phi    Dev
 ========================================================================================
     1. BD (   1) C   1 - C   2    90.0   49.9    90.0   51.6   1.8     90.0  231.6   1.8
     2. BD (   1) C   1 -Cl   4    90.0  159.0    90.0  158.0   1.1      --     --    --
     5. BD (   1) C   2 -Cl   3    90.0  339.0    90.0  338.0   1.1      --     --    --
    21. LP (   2)Cl   3             --     --      0.0    0.0   --       --     --    --
    22. LP (   3)Cl   3             --     --     90.0   66.4   --       --     --    --
    24. LP (   2)Cl   4             --     --      0.0    0.0   --       --     --    --
    25. LP (   3)Cl   4             --     --     90.0  246.4   --       --     --    --


 Second Order Perturbation Theory Analysis of Fock Matrix in NBO Basis

     Threshold for printing:   0.50 kcal/mol
                                                                              E(2)  E(j)-E(i) F(i,j)
         Donor NBO (i)                     Acceptor NBO (j)                 kcal/mol   a.u.    a.u. 
 ===================================================================================================

 within unit  1
   1. BD (   1) C   1 - C   2        / 60. RY*(   1)Cl   3                    0.71    1.29    0.027
   1. BD (   1) C   1 - C   2        / 81. RY*(   1)Cl   4                    0.71    1.29    0.027
   2. BD (   1) C   1 -Cl   4        / 46. RY*(   4) C   2                    0.55    1.29    0.024
   2. BD (   1) C   1 -Cl   4        /130. BD*(   1) C   2 -Cl   3            3.55    0.75    0.046
   3. BD (   1) C   1 - H   5        / 82. RY*(   2)Cl   4                    0.61    1.21    0.024
   3. BD (   1) C   1 - H   5        /127. BD*(   1) C   1 -Cl   4            0.93    0.64    0.022
   3. BD (   1) C   1 - H   5        /132. BD*(   1) C   2 - H   8            2.49    0.93    0.043
   4. BD (   1) C   1 - H   6        / 82. RY*(   2)Cl   4                    0.61    1.21    0.024
   4. BD (   1) C   1 - H   6        /127. BD*(   1) C   1 -Cl   4            0.93    0.64    0.022
   4. BD (   1) C   1 - H   6        /131. BD*(   1) C   2 - H   7            2.49    0.93    0.043
   5. BD (   1) C   2 -Cl   3        / 29. RY*(   4) C   1                    0.55    1.29    0.024
   5. BD (   1) C   2 -Cl   3        /127. BD*(   1) C   1 -Cl   4            3.55    0.75    0.046
   6. BD (   1) C   2 - H   7        / 61. RY*(   2)Cl   3                    0.61    1.21    0.024
   6. BD (   1) C   2 - H   7        /129. BD*(   1) C   1 - H   6            2.49    0.93    0.043
   6. BD (   1) C   2 - H   7        /130. BD*(   1) C   2 -Cl   3            0.93    0.64    0.022
   7. BD (   1) C   2 - H   8        / 61. RY*(   2)Cl   3                    0.61    1.21    0.024
   7. BD (   1) C   2 - H   8        /128. BD*(   1) C   1 - H   5            2.49    0.93    0.043
   7. BD (   1) C   2 - H   8        /130. BD*(   1) C   2 -Cl   3            0.93    0.64    0.022
   8. CR (   1) C   1                / 43. RY*(   1) C   2                    0.92   10.79    0.089
   8. CR (   1) C   1                /127. BD*(   1) C   1 -Cl   4            2.36   10.21    0.140
   9. CR (   1) C   2                / 26. RY*(   1) C   1                    0.92   10.79    0.089
   9. CR (   1) C   2                /130. BD*(   1) C   2 -Cl   3            2.36   10.21    0.140
  11. CR (   2)Cl   3                / 43. RY*(   1) C   2                    0.68   11.13    0.078
  11. CR (   2)Cl   3                / 45. RY*(   3) C   2                    0.75   11.40    0.082
  16. CR (   2)Cl   4                / 26. RY*(   1) C   1                    0.68   11.13    0.078
  16. CR (   2)Cl   4                / 28. RY*(   3) C   1                    0.75   11.40    0.082
  20. LP (   1)Cl   3                / 43. RY*(   1) C   2                    0.61    1.58    0.028
  20. LP (   1)Cl   3                / 45. RY*(   3) C   2                    0.96    1.86    0.038
  21. LP (   2)Cl   3                / 44. RY*(   2) C   2                    0.69    1.08    0.025
  21. LP (   2)Cl   3                /131. BD*(   1) C   2 - H   7            3.25    0.70    0.043
  21. LP (   2)Cl   3                /132. BD*(   1) C   2 - H   8            3.25    0.70    0.043
  22. LP (   3)Cl   3                / 43. RY*(   1) C   2                    0.71    0.99    0.024
  22. LP (   3)Cl   3                /126. BD*(   1) C   1 - C   2            3.20    0.68    0.042
  22. LP (   3)Cl   3                /127. BD*(   1) C   1 -Cl   4            1.83    0.42    0.025
  22. LP (   3)Cl   3                /131. BD*(   1) C   2 - H   7            0.92    0.71    0.023
  22. LP (   3)Cl   3                /132. BD*(   1) C   2 - H   8            0.92    0.71    0.023
  23. LP (   1)Cl   4                / 26. RY*(   1) C   1                    0.61    1.58    0.028
  23. LP (   1)Cl   4                / 28. RY*(   3) C   1                    0.96    1.86    0.038
  24. LP (   2)Cl   4                / 27. RY*(   2) C   1                    0.69    1.08    0.025
  24. LP (   2)Cl   4                /128. BD*(   1) C   1 - H   5            3.25    0.70    0.043
  24. LP (   2)Cl   4                /129. BD*(   1) C   1 - H   6            3.25    0.70    0.043
  25. LP (   3)Cl   4                / 26. RY*(   1) C   1                    0.71    0.99    0.024
  25. LP (   3)Cl   4                /126. BD*(   1) C   1 - C   2            3.20    0.68    0.042
  25. LP (   3)Cl   4                /128. BD*(   1) C   1 - H   5            0.92    0.71    0.023
  25. LP (   3)Cl   4                /129. BD*(   1) C   1 - H   6            0.92    0.71    0.023
  25. LP (   3)Cl   4                /130. BD*(   1) C   2 -Cl   3            1.83    0.42    0.025


 Natural Bond Orbitals (Summary):

                                                            Principal Delocalizations
           NBO                        Occupancy    Energy   (geminal,vicinal,remote)
 ====================================================================================
 Molecular unit  1  (C2H4Cl2)
     1. BD (   1) C   1 - C   2          1.99549    -0.69572  60(v),81(v)
     2. BD (   1) C   1 -Cl   4          1.98379    -0.66420  130(v),46(v)
     3. BD (   1) C   1 - H   5          1.98872    -0.55641  132(v),127(g),82(v)
     4. BD (   1) C   1 - H   6          1.98872    -0.55641  131(v),127(g),82(v)
     5. BD (   1) C   2 -Cl   3          1.98379    -0.66420  127(v),29(v)
     6. BD (   1) C   2 - H   7          1.98872    -0.55641  129(v),130(g),61(v)
     7. BD (   1) C   2 - H   8          1.98872    -0.55641  128(v),130(g),61(v)
     8. CR (   1) C   1                  1.99905   -10.12944  127(g),43(v)
     9. CR (   1) C   2                  1.99905   -10.12944  130(g),26(v)
    10. CR (   1)Cl   3                  2.00000  -100.27568   
    11. CR (   2)Cl   3                  1.99981   -10.47321  45(v),43(v)
    12. CR (   3)Cl   3                  1.99995    -7.22870   
    13. CR (   4)Cl   3                  1.99999    -7.22256   
    14. CR (   5)Cl   3                  1.99999    -7.22130   
    15. CR (   1)Cl   4                  2.00000  -100.27568   
    16. CR (   2)Cl   4                  1.99981   -10.47321  28(v),26(v)
    17. CR (   3)Cl   4                  1.99995    -7.22870   
    18. CR (   4)Cl   4                  1.99999    -7.22256   
    19. CR (   5)Cl   4                  1.99999    -7.22130   
    20. LP (   1)Cl   3                  1.99722    -0.92586  45(v),43(v)
    21. LP (   2)Cl   3                  1.97818    -0.32774  131(v),132(v),44(v)
    22. LP (   3)Cl   3                  1.96765    -0.33412  126(v),127(r),131(v),132(v)
                                                    43(v)
    23. LP (   1)Cl   4                  1.99722    -0.92586  28(v),26(v)
    24. LP (   2)Cl   4                  1.97818    -0.32774  128(v),129(v),27(v)
    25. LP (   3)Cl   4                  1.96765    -0.33412  126(v),130(r),128(v),129(v)
                                                    26(v)
    26. RY*(   1) C   1                  0.00471     0.65578   
    27. RY*(   2) C   1                  0.00276     0.75600   
    28. RY*(   3) C   1                  0.00190     0.93131   
    29. RY*(   4) C   1                  0.00135     0.62101   
    30. RY*(   5) C   1                  0.00069     1.64471   
    31. RY*(   6) C   1                  0.00056     1.72912   
    32. RY*(   7) C   1                  0.00020     1.78270   
    33. RY*(   8) C   1                  0.00009     1.34732   
    34. RY*(   9) C   1                  0.00005     2.41082   
    35. RY*(  10) C   1                  0.00001     1.15916   
    36. RY*(  11) C   1                  0.00000     1.96402   
    37. RY*(  12) C   1                  0.00000     1.95341   
    38. RY*(  13) C   1                  0.00001     1.72148   
    39. RY*(  14) C   1                  0.00000    22.56398   
    40. RY*(  15) C   1                  0.00000     0.87593   
    41. RY*(  16) C   1                  0.00000     1.49141   
    42. RY*(  17) C   1                  0.00000     1.76888   
    43. RY*(   1) C   2                  0.00471     0.65578   
    44. RY*(   2) C   2                  0.00276     0.75600   
    45. RY*(   3) C   2                  0.00190     0.93131   
    46. RY*(   4) C   2                  0.00135     0.62101   
    47. RY*(   5) C   2                  0.00069     1.64471   
    48. RY*(   6) C   2                  0.00056     1.72912   
    49. RY*(   7) C   2                  0.00020     1.78270   
    50. RY*(   8) C   2                  0.00009     1.34732   
    51. RY*(   9) C   2                  0.00005     2.41082   
    52. RY*(  10) C   2                  0.00001     1.15916   
    53. RY*(  11) C   2                  0.00000     1.96402   
    54. RY*(  12) C   2                  0.00000     1.95341   
    55. RY*(  13) C   2                  0.00001     1.72148   
    56. RY*(  14) C   2                  0.00000    22.56398   
    57. RY*(  15) C   2                  0.00000     0.87593   
    58. RY*(  16) C   2                  0.00000     1.49141   
    59. RY*(  17) C   2                  0.00000     1.76888   
    60. RY*(   1)Cl   3                  0.00225     0.59069   
    61. RY*(   2)Cl   3                  0.00203     0.65534   
    62. RY*(   3)Cl   3                  0.00053     0.63962   
    63. RY*(   4)Cl   3                  0.00022     0.59380   
    64. RY*(   5)Cl   3                  0.00011     0.45671   
    65. RY*(   6)Cl   3                  0.00007     1.80237   
    66. RY*(   7)Cl   3                  0.00002     0.27614   
    67. RY*(   8)Cl   3                  0.00000    25.50759   
    68. RY*(   9)Cl   3                  0.00000   207.67212   
    69. RY*(  10)Cl   3                  0.00000     0.33458   
    70. RY*(  11)Cl   3                  0.00000     2.50050   
    71. RY*(  12)Cl   3                  0.00000    25.09805   
    72. RY*(  13)Cl   3                  0.00001     0.84651   
    73. RY*(  14)Cl   3                  0.00000    17.31367   
    74. RY*(  15)Cl   3                  0.00001     2.72656   
    75. RY*(  16)Cl   3                  0.00000    25.30576   
    76. RY*(  17)Cl   3                  0.00000     2.66839   
    77. RY*(  18)Cl   3                  0.00000     0.67961   
    78. RY*(  19)Cl   3                  0.00000     0.69800   
    79. RY*(  20)Cl   3                  0.00000     0.75821   
    80. RY*(  21)Cl   3                  0.00000     0.97734   
    81. RY*(   1)Cl   4                  0.00225     0.59069   
    82. RY*(   2)Cl   4                  0.00203     0.65534   
    83. RY*(   3)Cl   4                  0.00053     0.63962   
    84. RY*(   4)Cl   4                  0.00022     0.59380   
    85. RY*(   5)Cl   4                  0.00011     0.45671   
    86. RY*(   6)Cl   4                  0.00007     1.80237   
    87. RY*(   7)Cl   4                  0.00002     0.27614   
    88. RY*(   8)Cl   4                  0.00000    25.50759   
    89. RY*(   9)Cl   4                  0.00000   207.67212   
    90. RY*(  10)Cl   4                  0.00000     0.33458   
    91. RY*(  11)Cl   4                  0.00000     2.50050   
    92. RY*(  12)Cl   4                  0.00000    25.09805   
    93. RY*(  13)Cl   4                  0.00001     0.84651   
    94. RY*(  14)Cl   4                  0.00000    17.31367   
    95. RY*(  15)Cl   4                  0.00001     2.72656   
    96. RY*(  16)Cl   4                  0.00000    25.30576   
    97. RY*(  17)Cl   4                  0.00000     2.66839   
    98. RY*(  18)Cl   4                  0.00000     0.67961   
    99. RY*(  19)Cl   4                  0.00000     0.69800   
   100. RY*(  20)Cl   4                  0.00000     0.75821   
   101. RY*(  21)Cl   4                  0.00000     0.97734   
   102. RY*(   1) H   5                  0.00140     0.51044   
   103. RY*(   2) H   5                  0.00065     0.38717   
   104. RY*(   3) H   5                  0.00020     2.16721   
   105. RY*(   4) H   5                  0.00012     1.76021   
   106. RY*(   5) H   5                  0.00005     2.02533   
   107. RY*(   6) H   5                  0.00005     2.13225   
   108. RY*(   1) H   6                  0.00140     0.51044   
   109. RY*(   2) H   6                  0.00065     0.38717   
   110. RY*(   3) H   6                  0.00020     2.16721   
   111. RY*(   4) H   6                  0.00012     1.76021   
   112. RY*(   5) H   6                  0.00005     2.02533   
   113. RY*(   6) H   6                  0.00005     2.13225   
   114. RY*(   1) H   7                  0.00140     0.51044   
   115. RY*(   2) H   7                  0.00065     0.38717   
   116. RY*(   3) H   7                  0.00020     2.16721   
   117. RY*(   4) H   7                  0.00012     1.76021   
   118. RY*(   5) H   7                  0.00005     2.02533   
   119. RY*(   6) H   7                  0.00005     2.13225   
   120. RY*(   1) H   8                  0.00140     0.51044   
   121. RY*(   2) H   8                  0.00065     0.38717   
   122. RY*(   3) H   8                  0.00020     2.16721   
   123. RY*(   4) H   8                  0.00012     1.76021   
   124. RY*(   5) H   8                  0.00005     2.02533   
   125. RY*(   6) H   8                  0.00005     2.13225   
   126. BD*(   1) C   1 - C   2          0.02030     0.34295   
   127. BD*(   1) C   1 -Cl   4          0.02643     0.08130   
   128. BD*(   1) C   1 - H   5          0.02004     0.37476   
   129. BD*(   1) C   1 - H   6          0.02004     0.37476   
   130. BD*(   1) C   2 -Cl   3          0.02643     0.08130   
   131. BD*(   1) C   2 - H   7          0.02004     0.37476   
   132. BD*(   1) C   2 - H   8          0.02004     0.37476   
       -------------------------------
              Total Lewis   49.80160  ( 99.6032%)
        Valence non-Lewis    0.15332  (  0.3066%)
        Rydberg non-Lewis    0.04508  (  0.0902%)
       -------------------------------
            Total unit  1   50.00000  (100.0000%)
           Charge unit  1    0.00000
 Unable to Open any file for archive entry.
 1\1\GINC-CCC091\FOpt\RB3LYP\6-311++G(d,p)\C2H4Cl2\ROOT\12-Jun-2024\0\\
 # opt freq b3lyp/6-311++g(d,p) pop=nbo geom=connectivity\\C(CCl)Cl\\0,
 1\C,-0.6778210832,0.3317458655,0.0663969971\C,0.6778210838,-0.33174584
 55,-0.06639707\Cl,1.9772798491,0.8975049481,0.2510975767\Cl,-1.9772797
 995,-0.8975048808,-0.2510979944\H,-0.8085784389,1.1285125508,-0.661898
 8171\H,-0.8410681746,0.7153682058,1.0706548097\H,0.8410683535,-0.71536
 86391,-1.0706546689\H,0.8085781998,-1.1285122047,0.6618991668\\Version
 =ES64L-G16RevC.02\State=1-A\HF=-999.1015028\RMSD=8.371e-09\RMSF=1.427e
 -04\Dipole=0.,0.,0.0000002\Quadrupole=-2.9911002,1.1820904,1.8090098,-
 2.6384076,-0.7203801,-0.2143838\PG=C01 [X(C2H4Cl2)]\\@
 The archive entry for this job was punched.


 I DON'T EXACTLY UNDERSTAND WHAT YOU ARE SAYING,
 BUT YOU ARE ABSOLUTELY RIGHT.
     M.S.GORDON, IN A NDSU FACULTY MEETING
 Job cpu time:       0 days  0 hours  1 minutes 40.7 seconds.
 Elapsed time:       0 days  0 hours  0 minutes 23.3 seconds.
 File lengths (MBytes):  RWF=     14 Int=      0 D2E=      0 Chk=      2 Scr=      1
 Normal termination of Gaussian 16 at Wed Jun 12 21:54:34 2024.
 Link1:  Proceeding to internal job step number  2.
 ----------------------------------------------------------------------
 #N Geom=AllCheck Guess=TCheck SCRF=Check GenChk RB3LYP/6-311++G(d,p) F
 req
 ----------------------------------------------------------------------
 1/10=4,29=7,30=1,38=1,40=1/1,3;
 2/12=2,40=1/2;
 3/5=4,6=6,7=1111,11=2,14=-4,25=1,30=1,70=2,71=2,74=-5,116=1,140=1/1,2,3;
 4/5=101/1;
 5/5=2,38=6,98=1/2;
 8/6=4,10=90,11=11/1;
 11/6=1,8=1,9=11,15=111,16=1/1,2,10;
 10/6=1/2;
 6/7=2,8=2,9=2,10=2,28=1,40=1/1,7;
 7/8=1,10=1,25=1/1,2,3,16;
 1/10=4,30=1/3;
 99//99;
 Structure from the checkpoint file:  "C(CCl)Cl.chk"
 --------
 C(CCl)Cl
 --------
 Charge =  0 Multiplicity = 1
 Redundant internal coordinates found in file.  (old form).
 C,0,-0.6778210832,0.3317458655,0.0663969971
 C,0,0.6778210838,-0.3317458455,-0.06639707
 Cl,0,1.9772798491,0.8975049481,0.2510975767
 Cl,0,-1.9772797995,-0.8975048808,-0.2510979944
 H,0,-0.8085784389,1.1285125508,-0.6618988171
 H,0,-0.8410681746,0.7153682058,1.0706548097
 H,0,0.8410683535,-0.7153686391,-1.0706546689
 H,0,0.8085781998,-1.1285122047,0.6618991668
 Recover connectivity data from disk.

 GradGradGradGradGradGradGradGradGradGradGradGradGradGradGradGradGradGrad
 Berny optimization.
 Initialization pass.
                           ----------------------------
                           !    Initial Parameters    !
                           ! (Angstroms and Degrees)  !
 --------------------------                            --------------------------
 ! Name  Definition              Value          Derivative Info.                !
 --------------------------------------------------------------------------------
 ! R1    R(1,2)                  1.5151         calculate D2E/DX2 analytically  !
 ! R2    R(1,4)                  1.8167         calculate D2E/DX2 analytically  !
 ! R3    R(1,5)                  1.0874         calculate D2E/DX2 analytically  !
 ! R4    R(1,6)                  1.0874         calculate D2E/DX2 analytically  !
 ! R5    R(2,3)                  1.8167         calculate D2E/DX2 analytically  !
 ! R6    R(2,7)                  1.0874         calculate D2E/DX2 analytically  !
 ! R7    R(2,8)                  1.0874         calculate D2E/DX2 analytically  !
 ! A1    A(2,1,4)              109.1695         calculate D2E/DX2 analytically  !
 ! A2    A(2,1,5)              111.7015         calculate D2E/DX2 analytically  !
 ! A3    A(2,1,6)              111.7015         calculate D2E/DX2 analytically  !
 ! A4    A(4,1,5)              107.022          calculate D2E/DX2 analytically  !
 ! A5    A(4,1,6)              107.022          calculate D2E/DX2 analytically  !
 ! A6    A(5,1,6)              110.0003         calculate D2E/DX2 analytically  !
 ! A7    A(1,2,3)              109.1695         calculate D2E/DX2 analytically  !
 ! A8    A(1,2,7)              111.7015         calculate D2E/DX2 analytically  !
 ! A9    A(1,2,8)              111.7015         calculate D2E/DX2 analytically  !
 ! A10   A(3,2,7)              107.022          calculate D2E/DX2 analytically  !
 ! A11   A(3,2,8)              107.022          calculate D2E/DX2 analytically  !
 ! A12   A(7,2,8)              110.0003         calculate D2E/DX2 analytically  !
 ! D1    D(4,1,2,3)            180.0            calculate D2E/DX2 analytically  !
 ! D2    D(4,1,2,7)             61.841          calculate D2E/DX2 analytically  !
 ! D3    D(4,1,2,8)            -61.8411         calculate D2E/DX2 analytically  !
 ! D4    D(5,1,2,3)             61.841          calculate D2E/DX2 analytically  !
 ! D5    D(5,1,2,7)            -56.3179         calculate D2E/DX2 analytically  !
 ! D6    D(5,1,2,8)            180.0            calculate D2E/DX2 analytically  !
 ! D7    D(6,1,2,3)            -61.8411         calculate D2E/DX2 analytically  !
 ! D8    D(6,1,2,7)            180.0            calculate D2E/DX2 analytically  !
 ! D9    D(6,1,2,8)             56.3179         calculate D2E/DX2 analytically  !
 --------------------------------------------------------------------------------
 Trust Radius=3.00D-01 FncErr=1.00D-07 GrdErr=1.00D-07 EigMax=2.50D+02 EigMin=1.00D-04
 Number of steps in this run=      2 maximum allowed number of steps=      2.
 GradGradGradGradGradGradGradGradGradGradGradGradGradGradGradGradGradGrad

                          Input orientation:                          
 ---------------------------------------------------------------------
 Center     Atomic      Atomic             Coordinates (Angstroms)
 Number     Number       Type             X           Y           Z
 ---------------------------------------------------------------------
      1          6           0       -0.677821    0.331746    0.066397
      2          6           0        0.677821   -0.331746   -0.066397
      3         17           0        1.977280    0.897505    0.251098
      4         17           0       -1.977280   -0.897505   -0.251098
      5          1           0       -0.808578    1.128513   -0.661899
      6          1           0       -0.841068    0.715368    1.070655
      7          1           0        0.841068   -0.715369   -1.070655
      8          1           0        0.808578   -1.128512    0.661899
 ---------------------------------------------------------------------
                    Distance matrix (angstroms):
                    1          2          3          4          5
     1  C    0.000000
     2  C    1.515131   0.000000
     3  Cl   2.720985   1.816715   0.000000
     4  Cl   1.816715   2.720985   4.371819   0.000000
     5  H    1.087359   2.167109   2.940737   2.374735   0.000000
     6  H    1.087359   2.167109   2.940737   2.374735   1.781428
     7  H    2.167109   1.087359   2.374735   2.940737   2.507651
     8  H    2.167109   1.087359   2.374735   2.940737   3.076003
                    6          7          8
     6  H    0.000000
     7  H    3.076003   0.000000
     8  H    2.507650   1.781428   0.000000
 Stoichiometry    C2H4Cl2
 Framework group  C1[X(C2H4Cl2)]
 Deg. of freedom    18
 Full point group                 C1      NOp   1
 Largest Abelian subgroup         C1      NOp   1
 Largest concise Abelian subgroup C1      NOp   1
                         Standard orientation:                         
 ---------------------------------------------------------------------
 Center     Atomic      Atomic             Coordinates (Angstroms)
 Number     Number       Type             X           Y           Z
 ---------------------------------------------------------------------
      1          6           0       -0.488171   -0.579305   -0.000000
      2          6           0        0.488171    0.579305   -0.000000
      3         17           0        2.184779   -0.070289    0.000000
      4         17           0       -2.184779    0.070289    0.000000
      5          1           0       -0.382678   -1.194000    0.890714
      6          1           0       -0.382678   -1.194000   -0.890714
      7          1           0        0.382678    1.194000    0.890714
      8          1           0        0.382678    1.193999   -0.890714
 ---------------------------------------------------------------------
 Rotational constants (GHZ):          29.1593651           1.4718949           1.4264653
 Standard basis: 6-311++G(d,p) (5D, 7F)
 There are   136 symmetry adapted cartesian basis functions of A   symmetry.
 There are   132 symmetry adapted basis functions of A   symmetry.
   132 basis functions,   214 primitive gaussians,   136 cartesian basis functions
    25 alpha electrons       25 beta electrons
       nuclear repulsion energy       192.9402040405 Hartrees.
 NAtoms=    8 NActive=    8 NUniq=    8 SFac= 1.00D+00 NAtFMM=   60 NAOKFM=F Big=F
 Integral buffers will be    131072 words long.
 Raffenetti 2 integral format.
 Two-electron integral symmetry is turned on.
 One-electron integrals computed using PRISM.
 NBasis=   132 RedAO= T EigKep=  6.19D-05  NBF=   132
 NBsUse=   132 1.00D-06 EigRej= -1.00D+00 NBFU=   132
 Initial guess from the checkpoint file:  "C(CCl)Cl.chk"
 B after Tr=     0.000000    0.000000   -0.000000
         Rot=    1.000000   -0.000000   -0.000000   -0.000000 Ang=   0.00 deg.
 Keep R1 ints in memory in canonical form, NReq=46243989.
 Requested convergence on RMS density matrix=1.00D-08 within 128 cycles.
 Requested convergence on MAX density matrix=1.00D-06.
 Requested convergence on             energy=1.00D-06.
 No special actions if energy rises.
 SCF Done:  E(RB3LYP) =  -999.101502818     A.U. after    1 cycles
            NFock=  1  Conv=0.37D-08     -V/T= 2.0026
 DoSCS=F DFT=T ScalE2(SS,OS)=  1.000000  1.000000
 Range of M.O.s used for correlation:     1   132
 NBasis=   132 NAE=    25 NBE=    25 NFC=     0 NFV=     0
 NROrb=    132 NOA=    25 NOB=    25 NVA=   107 NVB=   107

 **** Warning!!: The largest alpha MO coefficient is  0.47270685D+02

 Symmetrizing basis deriv contribution to polar:
 IMax=3 JMax=2 DiffMx= 0.00D+00
 G2DrvN: will do     9 centers at a time, making    1 passes.
 Calling FoFCou, ICntrl=  3107 FMM=F I1Cent=   0 AccDes= 0.00D+00.
 End of G2Drv F.D. properties file   721 does not exist.
 End of G2Drv F.D. properties file   722 does not exist.
 End of G2Drv F.D. properties file   788 does not exist.
          IDoAtm=11111111
          Differentiating once with respect to electric field.
                with respect to dipole field.
          Differentiating once with respect to nuclear coordinates.
 Keep R1 ints in memory in canonical form, NReq=46223750.
          There are    27 degrees of freedom in the 1st order CPHF.  IDoFFX=6 NUNeed=     3.
     24 vectors produced by pass  0 Test12= 9.91D-15 3.70D-09 XBig12= 5.49D+01 4.78D+00.
 AX will form    24 AO Fock derivatives at one time.
     24 vectors produced by pass  1 Test12= 9.91D-15 3.70D-09 XBig12= 8.35D+00 9.30D-01.
     24 vectors produced by pass  2 Test12= 9.91D-15 3.70D-09 XBig12= 2.12D-01 8.44D-02.
     24 vectors produced by pass  3 Test12= 9.91D-15 3.70D-09 XBig12= 7.57D-04 1.05D-02.
     24 vectors produced by pass  4 Test12= 9.91D-15 3.70D-09 XBig12= 2.03D-06 3.36D-04.
     19 vectors produced by pass  5 Test12= 9.91D-15 3.70D-09 XBig12= 2.96D-09 1.27D-05.
      5 vectors produced by pass  6 Test12= 9.91D-15 3.70D-09 XBig12= 2.88D-12 5.21D-07.
      1 vectors produced by pass  7 Test12= 9.91D-15 3.70D-09 XBig12= 2.34D-15 9.30D-09.
 InvSVY:  IOpt=1 It=  1 EMax= 3.55D-15
 Solved reduced A of dimension   145 with    27 vectors.
 Isotropic polarizability for W=    0.000000       50.05 Bohr**3.
 End of Minotr F.D. properties file   721 does not exist.
 End of Minotr F.D. properties file   722 does not exist.
 End of Minotr F.D. properties file   788 does not exist.

 **********************************************************************

            Population analysis using the SCF Density.

 **********************************************************************

 Orbital symmetries:
       Occupied  (A) (A) (A) (A) (A) (A) (A) (A) (A) (A) (A) (A)
                 (A) (A) (A) (A) (A) (A) (A) (A) (A) (A) (A) (A)
                 (A)
       Virtual   (A) (A) (A) (A) (A) (A) (A) (A) (A) (A) (A) (A)
                 (A) (A) (A) (A) (A) (A) (A) (A) (A) (A) (A) (A)
                 (A) (A) (A) (A) (A) (A) (A) (A) (A) (A) (A) (A)
                 (A) (A) (A) (A) (A) (A) (A) (A) (A) (A) (A) (A)
                 (A) (A) (A) (A) (A) (A) (A) (A) (A) (A) (A) (A)
                 (A) (A) (A) (A) (A) (A) (A) (A) (A) (A) (A) (A)
                 (A) (A) (A) (A) (A) (A) (A) (A) (A) (A) (A) (A)
                 (A) (A) (A) (A) (A) (A) (A) (A) (A) (A) (A) (A)
                 (A) (A) (A) (A) (A) (A) (A) (A) (A) (A) (A)
 The electronic state is 1-A.
 Alpha  occ. eigenvalues -- -101.55677-101.55677 -10.25515 -10.25491  -9.47099
 Alpha  occ. eigenvalues --   -9.47098  -7.23564  -7.23564  -7.22580  -7.22580
 Alpha  occ. eigenvalues --   -7.22554  -7.22554  -0.89396  -0.85290  -0.73696
 Alpha  occ. eigenvalues --   -0.64182  -0.51739  -0.46619  -0.45731  -0.42591
 Alpha  occ. eigenvalues --   -0.40198  -0.32767  -0.31850  -0.31484  -0.31384
 Alpha virt. eigenvalues --   -0.02410  -0.01521   0.01019   0.01550   0.02076
 Alpha virt. eigenvalues --    0.04264   0.04578   0.05871   0.08084   0.08451
 Alpha virt. eigenvalues --    0.08486   0.09120   0.11144   0.11540   0.11929
 Alpha virt. eigenvalues --    0.12876   0.13121   0.13311   0.15206   0.15892
 Alpha virt. eigenvalues --    0.15963   0.18732   0.18764   0.20402   0.22775
 Alpha virt. eigenvalues --    0.25498   0.29536   0.39516   0.40998   0.41270
 Alpha virt. eigenvalues --    0.43005   0.44771   0.46088   0.47837   0.48736
 Alpha virt. eigenvalues --    0.49001   0.49083   0.51257   0.58329   0.61015
 Alpha virt. eigenvalues --    0.61256   0.67359   0.68334   0.78636   0.80212
 Alpha virt. eigenvalues --    0.81065   0.82895   0.86318   0.86758   0.87030
 Alpha virt. eigenvalues --    0.87477   0.91091   0.94793   1.00913   1.03301
 Alpha virt. eigenvalues --    1.11892   1.14247   1.14684   1.17000   1.20822
 Alpha virt. eigenvalues --    1.46750   1.51425   1.52897   1.59896   1.60719
 Alpha virt. eigenvalues --    1.63932   1.66164   1.75106   1.76883   1.86317
 Alpha virt. eigenvalues --    1.90405   2.06165   2.08866   2.11080   2.23000
 Alpha virt. eigenvalues --    2.28807   2.29501   2.30680   2.31740   2.39058
 Alpha virt. eigenvalues --    2.44994   2.47498   2.48206   2.49889   2.53719
 Alpha virt. eigenvalues --    2.62033   2.64949   2.75650   2.76971   3.12527
 Alpha virt. eigenvalues --    3.13387   3.28314   3.69661   3.75127   4.05691
 Alpha virt. eigenvalues --    9.68466   9.74618  23.76406  23.78296  25.83555
 Alpha virt. eigenvalues --   25.85629  25.92085  25.92508  26.34385  26.40058
 Alpha virt. eigenvalues --  215.66500 215.73648
          Condensed to atoms (all electrons):
               1          2          3          4          5          6
     1  C    6.100074  -0.252196  -0.043188   0.022224   0.360239   0.360239
     2  C   -0.252196   6.100074   0.022224  -0.043188  -0.022622  -0.022621
     3  Cl  -0.043188   0.022224  16.887475  -0.002611   0.022525   0.022525
     4  Cl   0.022224  -0.043188  -0.002611  16.887475  -0.025413  -0.025413
     5  H    0.360239  -0.022622   0.022525  -0.025413   0.549924  -0.051315
     6  H    0.360239  -0.022621   0.022525  -0.025413  -0.051315   0.549924
     7  H   -0.022622   0.360239  -0.025413   0.022525  -0.024559   0.011084
     8  H   -0.022621   0.360239  -0.025413   0.022525   0.011084  -0.024559
               7          8
     1  C   -0.022622  -0.022621
     2  C    0.360239   0.360239
     3  Cl  -0.025413  -0.025413
     4  Cl   0.022525   0.022525
     5  H   -0.024559   0.011084
     6  H    0.011084  -0.024559
     7  H    0.549924  -0.051315
     8  H   -0.051315   0.549924
 Mulliken charges:
               1
     1  C   -0.502149
     2  C   -0.502149
     3  Cl   0.141875
     4  Cl   0.141875
     5  H    0.180137
     6  H    0.180137
     7  H    0.180137
     8  H    0.180137
 Sum of Mulliken charges =  -0.00000
 Mulliken charges with hydrogens summed into heavy atoms:
               1
     1  C   -0.141875
     2  C   -0.141875
     3  Cl   0.141875
     4  Cl   0.141875
 APT charges:
               1
     1  C    0.367084
     2  C    0.367084
     3  Cl  -0.355949
     4  Cl  -0.355949
     5  H   -0.005567
     6  H   -0.005567
     7  H   -0.005567
     8  H   -0.005567
 Sum of APT charges =   0.00000
 APT charges with hydrogens summed into heavy atoms:
               1
     1  C    0.355949
     2  C    0.355949
     3  Cl  -0.355949
     4  Cl  -0.355949
 Electronic spatial extent (au):  <R**2>=            729.3951
 Charge=              0.0000 electrons
 Dipole moment (field-independent basis, Debye):
    X=             -0.0000    Y=             -0.0000    Z=             -0.0000  Tot=              0.0000
 Quadrupole moment (field-independent basis, Debye-Ang):
   XX=            -46.5707   YY=            -37.4244   ZZ=            -38.2174
   XY=              0.5058   XZ=              0.0000   YZ=             -0.0000
 Traceless Quadrupole moment (field-independent basis, Debye-Ang):
   XX=             -5.8332   YY=              3.3131   ZZ=              2.5201
   XY=              0.5058   XZ=              0.0000   YZ=             -0.0000
 Octapole moment (field-independent basis, Debye-Ang**2):
  XXX=              0.0000  YYY=             -0.0000  ZZZ=             -0.0000  XYY=             -0.0000
  XXY=              0.0000  XXZ=              0.0000  XZZ=             -0.0000  YZZ=              0.0000
  YYZ=              0.0000  XYZ=             -0.0000
 Hexadecapole moment (field-independent basis, Debye-Ang**3):
 XXXX=           -795.2494 YYYY=            -90.1946 ZZZZ=            -57.6181 XXXY=            -16.3614
 XXXZ=              0.0000 YYYX=              1.0381 YYYZ=             -0.0000 ZZZX=              0.0000
 ZZZY=              0.0000 XXYY=           -151.0454 XXZZ=           -149.5405 YYZZ=            -21.8744
 XXYZ=             -0.0000 YYXZ=              0.0000 ZZXY=              1.2474
 N-N= 1.929402040405D+02 E-N=-2.755899852707D+03  KE= 9.965402620200D+02
  Exact polarizability:      71.185      -4.471      40.996       0.000       0.000      37.957
 Approx polarizability:      94.288     -10.903      56.341       0.000       0.000      52.484
 ******************************Gaussian NBO Version 3.1******************************
             N A T U R A L   A T O M I C   O R B I T A L   A N D
          N A T U R A L   B O N D   O R B I T A L   A N A L Y S I S
 ******************************Gaussian NBO Version 3.1******************************
       /RESON  / : Allow strongly delocalized NBO set

 Analyzing the SCF density

 Job title: C(CCl)Cl                                                        

 Storage needed:     53010 in NPA,     70186 in NBO (1258290800 available)
 GSVD:  LWork=        3320 too small for GESVD, short by       24150 words or       24150 for optimal perf.


 NATURAL POPULATIONS:  Natural atomic orbital occupancies 
                                                          
   NAO  Atom  No  lang   Type(AO)    Occupancy      Energy
 ----------------------------------------------------------
     1    C    1  S      Cor( 1S)     1.99904     -10.12948
     2    C    1  S      Val( 2S)     1.11002      -0.35388
     3    C    1  S      Ryd( 3S)     0.00310       0.55978
     4    C    1  S      Ryd( 4S)     0.00034       0.67285
     5    C    1  S      Ryd( 5S)     0.00001      23.44355
     6    C    1  px     Val( 2p)     0.88830      -0.18536
     7    C    1  px     Ryd( 3p)     0.00462       0.47554
     8    C    1  px     Ryd( 4p)     0.00077       1.32815
     9    C    1  px     Ryd( 5p)     0.00008       1.86528
    10    C    1  py     Val( 2p)     1.10608      -0.15458
    11    C    1  py     Ryd( 3p)     0.00157       0.40969
    12    C    1  py     Ryd( 4p)     0.00033       1.32393
    13    C    1  py     Ryd( 5p)     0.00016       1.98425
    14    C    1  pz     Val( 2p)     1.23587      -0.14234
    15    C    1  pz     Ryd( 3p)     0.00290       0.45886
    16    C    1  pz     Ryd( 4p)     0.00038       1.44610
    17    C    1  pz     Ryd( 5p)     0.00019       1.93518
    18    C    1  dxy    Ryd( 3d)     0.00152       1.94656
    19    C    1  dxz    Ryd( 3d)     0.00076       1.64949
    20    C    1  dyz    Ryd( 3d)     0.00137       2.17749
    21    C    1  dx2y2  Ryd( 3d)     0.00136       1.73220
    22    C    1  dz2    Ryd( 3d)     0.00123       1.98595
 
    23    C    2  S      Cor( 1S)     1.99904     -10.12948
    24    C    2  S      Val( 2S)     1.11002      -0.35388
    25    C    2  S      Ryd( 3S)     0.00310       0.55978
    26    C    2  S      Ryd( 4S)     0.00034       0.67285
    27    C    2  S      Ryd( 5S)     0.00001      23.44355
    28    C    2  px     Val( 2p)     0.88830      -0.18536
    29    C    2  px     Ryd( 3p)     0.00462       0.47554
    30    C    2  px     Ryd( 4p)     0.00077       1.32815
    31    C    2  px     Ryd( 5p)     0.00008       1.86528
    32    C    2  py     Val( 2p)     1.10608      -0.15458
    33    C    2  py     Ryd( 3p)     0.00157       0.40969
    34    C    2  py     Ryd( 4p)     0.00033       1.32393
    35    C    2  py     Ryd( 5p)     0.00016       1.98425
    36    C    2  pz     Val( 2p)     1.23587      -0.14234
    37    C    2  pz     Ryd( 3p)     0.00290       0.45886
    38    C    2  pz     Ryd( 4p)     0.00038       1.44610
    39    C    2  pz     Ryd( 5p)     0.00019       1.93518
    40    C    2  dxy    Ryd( 3d)     0.00152       1.94656
    41    C    2  dxz    Ryd( 3d)     0.00076       1.64949
    42    C    2  dyz    Ryd( 3d)     0.00137       2.17749
    43    C    2  dx2y2  Ryd( 3d)     0.00136       1.73220
    44    C    2  dz2    Ryd( 3d)     0.00123       1.98595
 
    45   Cl    3  S      Cor( 1S)     2.00000    -100.27568
    46   Cl    3  S      Cor( 2S)     1.99981     -10.47300
    47   Cl    3  S      Val( 3S)     1.87014      -0.99362
    48   Cl    3  S      Ryd( 4S)     0.00234       0.53215
    49   Cl    3  S      Ryd( 5S)     0.00007       1.10777
    50   Cl    3  S      Ryd( 6S)     0.00000      17.36943
    51   Cl    3  S      Ryd( 7S)     0.00000     207.66147
    52   Cl    3  px     Cor( 2p)     1.99995      -7.22874
    53   Cl    3  px     Val( 3p)     1.32902      -0.28751
    54   Cl    3  px     Ryd( 5p)     0.00274       0.37510
    55   Cl    3  px     Ryd( 4p)     0.00027       0.30111
    56   Cl    3  px     Ryd( 6p)     0.00002       3.02127
    57   Cl    3  px     Ryd( 7p)     0.00000      25.45958
    58   Cl    3  py     Cor( 2p)     1.99999      -7.22255
    59   Cl    3  py     Val( 3p)     1.87181      -0.32098
    60   Cl    3  py     Ryd( 5p)     0.00155       0.34971
    61   Cl    3  py     Ryd( 4p)     0.00010       0.34528
    62   Cl    3  py     Ryd( 6p)     0.00001       2.72272
    63   Cl    3  py     Ryd( 7p)     0.00000      25.32157
    64   Cl    3  pz     Cor( 2p)     1.99999      -7.22128
    65   Cl    3  pz     Val( 3p)     1.97745      -0.32764
    66   Cl    3  pz     Ryd( 4p)     0.00127       0.33632
    67   Cl    3  pz     Ryd( 5p)     0.00016       0.34541
    68   Cl    3  pz     Ryd( 6p)     0.00001       2.68162
    69   Cl    3  pz     Ryd( 7p)     0.00000      25.29985
    70   Cl    3  dxy    Ryd( 3d)     0.00266       1.03181
    71   Cl    3  dxz    Ryd( 3d)     0.00113       0.97435
    72   Cl    3  dyz    Ryd( 3d)     0.00031       0.88431
    73   Cl    3  dx2y2  Ryd( 3d)     0.00313       1.04143
    74   Cl    3  dz2    Ryd( 3d)     0.00151       0.95412
 
    75   Cl    4  S      Cor( 1S)     2.00000    -100.27568
    76   Cl    4  S      Cor( 2S)     1.99981     -10.47300
    77   Cl    4  S      Val( 3S)     1.87014      -0.99362
    78   Cl    4  S      Ryd( 4S)     0.00234       0.53215
    79   Cl    4  S      Ryd( 5S)     0.00007       1.10777
    80   Cl    4  S      Ryd( 6S)     0.00000      17.36943
    81   Cl    4  S      Ryd( 7S)     0.00000     207.66147
    82   Cl    4  px     Cor( 2p)     1.99995      -7.22874
    83   Cl    4  px     Val( 3p)     1.32902      -0.28751
    84   Cl    4  px     Ryd( 5p)     0.00274       0.37510
    85   Cl    4  px     Ryd( 4p)     0.00027       0.30111
    86   Cl    4  px     Ryd( 6p)     0.00002       3.02127
    87   Cl    4  px     Ryd( 7p)     0.00000      25.45958
    88   Cl    4  py     Cor( 2p)     1.99999      -7.22255
    89   Cl    4  py     Val( 3p)     1.87181      -0.32098
    90   Cl    4  py     Ryd( 5p)     0.00155       0.34971
    91   Cl    4  py     Ryd( 4p)     0.00010       0.34528
    92   Cl    4  py     Ryd( 6p)     0.00001       2.72272
    93   Cl    4  py     Ryd( 7p)     0.00000      25.32157
    94   Cl    4  pz     Cor( 2p)     1.99999      -7.22128
    95   Cl    4  pz     Val( 3p)     1.97745      -0.32764
    96   Cl    4  pz     Ryd( 4p)     0.00127       0.33632
    97   Cl    4  pz     Ryd( 5p)     0.00016       0.34541
    98   Cl    4  pz     Ryd( 6p)     0.00001       2.68162
    99   Cl    4  pz     Ryd( 7p)     0.00000      25.29985
   100   Cl    4  dxy    Ryd( 3d)     0.00266       1.03181
   101   Cl    4  dxz    Ryd( 3d)     0.00113       0.97435
   102   Cl    4  dyz    Ryd( 3d)     0.00031       0.88431
   103   Cl    4  dx2y2  Ryd( 3d)     0.00313       1.04143
   104   Cl    4  dz2    Ryd( 3d)     0.00151       0.95412
 
   105    H    5  S      Val( 1S)     0.78449       0.00883
   106    H    5  S      Ryd( 3S)     0.00138       0.49062
   107    H    5  S      Ryd( 2S)     0.00061       0.22139
   108    H    5  S      Ryd( 4S)     0.00018       2.27754
   109    H    5  px     Ryd( 2p)     0.00013       1.68255
   110    H    5  py     Ryd( 2p)     0.00020       1.98497
   111    H    5  pz     Ryd( 2p)     0.00031       2.32812
 
   112    H    6  S      Val( 1S)     0.78449       0.00883
   113    H    6  S      Ryd( 3S)     0.00138       0.49062
   114    H    6  S      Ryd( 2S)     0.00061       0.22139
   115    H    6  S      Ryd( 4S)     0.00018       2.27754
   116    H    6  px     Ryd( 2p)     0.00013       1.68255
   117    H    6  py     Ryd( 2p)     0.00020       1.98497
   118    H    6  pz     Ryd( 2p)     0.00031       2.32812
 
   119    H    7  S      Val( 1S)     0.78449       0.00883
   120    H    7  S      Ryd( 3S)     0.00138       0.49062
   121    H    7  S      Ryd( 2S)     0.00061       0.22139
   122    H    7  S      Ryd( 4S)     0.00018       2.27754
   123    H    7  px     Ryd( 2p)     0.00013       1.68255
   124    H    7  py     Ryd( 2p)     0.00020       1.98497
   125    H    7  pz     Ryd( 2p)     0.00031       2.32812
 
   126    H    8  S      Val( 1S)     0.78449       0.00883
   127    H    8  S      Ryd( 3S)     0.00138       0.49062
   128    H    8  S      Ryd( 2S)     0.00061       0.22139
   129    H    8  S      Ryd( 4S)     0.00018       2.27754
   130    H    8  px     Ryd( 2p)     0.00013       1.68255
   131    H    8  py     Ryd( 2p)     0.00020       1.98497
   132    H    8  pz     Ryd( 2p)     0.00031       2.32812

 WARNING:  Population inversion found on atom Cl    3
           Population inversion found on atom Cl    4
           Population inversion found on atom  H    5
           Population inversion found on atom  H    6
           Population inversion found on atom  H    7
           Population inversion found on atom  H    8


 Summary of Natural Population Analysis:                  
                                                          
                                       Natural Population 
                Natural  -----------------------------------------------
    Atom  No    Charge         Core      Valence    Rydberg      Total
 -----------------------------------------------------------------------
      C    1   -0.35996      1.99904     4.34026    0.02066     6.35996
      C    2   -0.35996      1.99904     4.34026    0.02066     6.35996
     Cl    3   -0.06543      9.99975     7.04842    0.01727    17.06543
     Cl    4   -0.06543      9.99975     7.04842    0.01727    17.06543
      H    5    0.21270      0.00000     0.78449    0.00281     0.78730
      H    6    0.21270      0.00000     0.78449    0.00281     0.78730
      H    7    0.21270      0.00000     0.78449    0.00281     0.78730
      H    8    0.21270      0.00000     0.78449    0.00281     0.78730
 =======================================================================
   * Total *   -0.00000     23.99758    25.91531    0.08711    50.00000

                                 Natural Population      
 --------------------------------------------------------
   Core                      23.99758 ( 99.9899% of  24)
   Valence                   25.91531 ( 99.6743% of  26)
   Natural Minimal Basis     49.91289 ( 99.8258% of  50)
   Natural Rydberg Basis      0.08711 (  0.1742% of  50)
 --------------------------------------------------------

    Atom  No          Natural Electron Configuration
 ----------------------------------------------------------------------------
      C    1      [core]2S( 1.11)2p( 3.23)3p( 0.01)3d( 0.01)
      C    2      [core]2S( 1.11)2p( 3.23)3p( 0.01)3d( 0.01)
     Cl    3      [core]3S( 1.87)3p( 5.18)3d( 0.01)
     Cl    4      [core]3S( 1.87)3p( 5.18)3d( 0.01)
      H    5            1S( 0.78)
      H    6            1S( 0.78)
      H    7            1S( 0.78)
      H    8            1S( 0.78)


 NATURAL BOND ORBITAL ANALYSIS:

                       Occupancies       Lewis Structure    Low   High
           Occ.    -------------------  -----------------   occ   occ
  Cycle   Thresh.   Lewis   Non-Lewis     CR  BD  3C  LP    (L)   (NL)   Dev
 =============================================================================
   1(1)    1.90    49.80160   0.19840     12   7   0   6     0      0    0.05
 -----------------------------------------------------------------------------

 Structure accepted: No low occupancy Lewis orbitals

 --------------------------------------------------------
   Core                     23.99758 ( 99.990% of  24)
   Valence Lewis            25.80402 ( 99.246% of  26)
  ==================       ============================
   Total Lewis              49.80160 ( 99.603% of  50)
  -----------------------------------------------------
   Valence non-Lewis         0.15332 (  0.307% of  50)
   Rydberg non-Lewis         0.04508 (  0.090% of  50)
  ==================       ============================
   Total non-Lewis           0.19840 (  0.397% of  50)
 --------------------------------------------------------


       (Occupancy)   Bond orbital/ Coefficients/ Hybrids
 ---------------------------------------------------------------------------------
     1. (1.99549) BD ( 1) C   1 - C   2  
                ( 50.00%)   0.7071* C   1 s( 30.92%)p 2.23( 69.03%)d 0.00(  0.05%)
                                            0.0001  0.5555  0.0232  0.0102  0.0000
                                            0.5215 -0.0172 -0.0031  0.0056  0.6464
                                           -0.0100  0.0012  0.0027  0.0000 -0.0000
                                            0.0000 -0.0000  0.0172 -0.0000  0.0000
                                           -0.0056 -0.0125
                ( 50.00%)   0.7071* C   2 s( 30.92%)p 2.23( 69.03%)d 0.00(  0.05%)
                                            0.0001  0.5555  0.0232  0.0102  0.0000
                                           -0.5215  0.0172  0.0031 -0.0056 -0.6464
                                            0.0100 -0.0012 -0.0027  0.0000 -0.0000
                                            0.0000 -0.0000  0.0172  0.0000 -0.0000
                                           -0.0056 -0.0125
     2. (1.98379) BD ( 1) C   1 -Cl   4  
                ( 44.26%)   0.6653* C   1 s( 18.36%)p 4.44( 81.45%)d 0.01(  0.19%)
                                            0.0001 -0.4277 -0.0221  0.0151  0.0005
                                            0.8448 -0.0236 -0.0269 -0.0050 -0.3149
                                           -0.0146  0.0126 -0.0026 -0.0000  0.0000
                                            0.0000  0.0000  0.0265  0.0000 -0.0000
                                           -0.0253  0.0232
                ( 55.74%)   0.7466*Cl   4 s( 14.57%)p 5.83( 84.92%)d 0.03(  0.51%)
                                           -0.0000 -0.0001 -0.3793 -0.0430  0.0003
                                           -0.0002  0.0000 -0.0001 -0.8567  0.0411
                                            0.0079  0.0007 -0.0001  0.0000  0.3364
                                           -0.0200 -0.0024  0.0002 -0.0002  0.0000
                                            0.0000 -0.0000  0.0000  0.0000  0.0000
                                            0.0405  0.0000 -0.0000 -0.0462  0.0362
     3. (1.98872) BD ( 1) C   1 - H   5  
                ( 61.15%)   0.7820* C   1 s( 25.44%)p 2.93( 74.48%)d 0.00(  0.07%)
                                           -0.0000  0.5041 -0.0180  0.0009  0.0001
                                            0.0718  0.0058  0.0009 -0.0010 -0.4900
                                            0.0042 -0.0042 -0.0015  0.7065  0.0172
                                            0.0107 -0.0004 -0.0013  0.0023 -0.0214
                                           -0.0056  0.0159
                ( 38.85%)   0.6233* H   5 s( 99.96%)p 0.00(  0.04%)
                                            0.9998  0.0034  0.0016  0.0004 -0.0019
                                            0.0122 -0.0164
     4. (1.98872) BD ( 1) C   1 - H   6  
                ( 61.15%)   0.7820* C   1 s( 25.44%)p 2.93( 74.48%)d 0.00(  0.07%)
                                           -0.0000  0.5041 -0.0180  0.0009  0.0001
                                            0.0718  0.0058  0.0009 -0.0010 -0.4900
                                            0.0042 -0.0042 -0.0015 -0.7065 -0.0172
                                           -0.0107  0.0004 -0.0013 -0.0023  0.0214
                                           -0.0056  0.0159
                ( 38.85%)   0.6233* H   6 s( 99.96%)p 0.00(  0.04%)
                                            0.9998  0.0034  0.0016  0.0004 -0.0019
                                            0.0122  0.0164
     5. (1.98379) BD ( 1) C   2 -Cl   3  
                ( 44.26%)   0.6653* C   2 s( 18.36%)p 4.44( 81.45%)d 0.01(  0.19%)
                                           -0.0001  0.4277  0.0221 -0.0151 -0.0005
                                            0.8448 -0.0236 -0.0269 -0.0050 -0.3149
                                           -0.0146  0.0126 -0.0026  0.0000 -0.0000
                                           -0.0000 -0.0000 -0.0265  0.0000 -0.0000
                                            0.0253 -0.0232
                ( 55.74%)   0.7466*Cl   3 s( 14.57%)p 5.83( 84.92%)d 0.03(  0.51%)
                                            0.0000  0.0001  0.3793  0.0430 -0.0003
                                            0.0002 -0.0000 -0.0001 -0.8567  0.0411
                                            0.0079  0.0007 -0.0001  0.0000  0.3364
                                           -0.0200 -0.0024  0.0002 -0.0002 -0.0000
                                           -0.0000  0.0000 -0.0000 -0.0000 -0.0000
                                           -0.0405  0.0000 -0.0000  0.0462 -0.0362
     6. (1.98872) BD ( 1) C   2 - H   7  
                ( 61.15%)   0.7820* C   2 s( 25.44%)p 2.93( 74.48%)d 0.00(  0.07%)
                                           -0.0000  0.5041 -0.0180  0.0009  0.0001
                                           -0.0718 -0.0058 -0.0009  0.0010  0.4900
                                           -0.0042  0.0042  0.0015  0.7065  0.0172
                                            0.0107 -0.0004 -0.0013 -0.0023  0.0214
                                           -0.0056  0.0159
                ( 38.85%)   0.6233* H   7 s( 99.96%)p 0.00(  0.04%)
                                            0.9998  0.0034  0.0016  0.0004  0.0019
                                           -0.0122 -0.0164
     7. (1.98872) BD ( 1) C   2 - H   8  
                ( 61.15%)   0.7820* C   2 s( 25.44%)p 2.93( 74.48%)d 0.00(  0.07%)
                                           -0.0000  0.5041 -0.0180  0.0009  0.0001
                                           -0.0718 -0.0058 -0.0009  0.0010  0.4900
                                           -0.0042  0.0042  0.0015 -0.7065 -0.0172
                                           -0.0107  0.0004 -0.0013  0.0023 -0.0214
                                           -0.0056  0.0159
                ( 38.85%)   0.6233* H   8 s( 99.96%)p 0.00(  0.04%)
                                            0.9998  0.0034  0.0016  0.0004  0.0019
                                           -0.0122  0.0164
     8. (1.99905) CR ( 1) C   1           s(100.00%)p 0.00(  0.00%)
                                            1.0000 -0.0000 -0.0000 -0.0000 -0.0000
                                           -0.0001  0.0000  0.0000 -0.0000 -0.0001
                                            0.0000 -0.0000 -0.0000 -0.0000 -0.0000
                                           -0.0000  0.0000 -0.0000 -0.0000  0.0000
                                            0.0000  0.0000
     9. (1.99905) CR ( 1) C   2           s(100.00%)p 0.00(  0.00%)
                                            1.0000 -0.0000 -0.0000 -0.0000 -0.0000
                                            0.0001 -0.0000 -0.0000  0.0000  0.0001
                                           -0.0000  0.0000  0.0000 -0.0000 -0.0000
                                           -0.0000  0.0000 -0.0000  0.0000 -0.0000
                                            0.0000  0.0000
    10. (2.00000) CR ( 1)Cl   3           s(100.00%)
                                            1.0000 -0.0000 -0.0000 -0.0000  0.0000
                                           -0.0000  0.0000  0.0000  0.0000 -0.0000
                                           -0.0000 -0.0000  0.0000 -0.0000 -0.0000
                                            0.0000  0.0000 -0.0000  0.0000  0.0000
                                            0.0000 -0.0000  0.0000  0.0000  0.0000
                                            0.0000 -0.0000  0.0000 -0.0000  0.0000
    11. (1.99981) CR ( 2)Cl   3           s(100.00%)p 0.00(  0.00%)
                                           -0.0000  1.0000  0.0001 -0.0000  0.0000
                                           -0.0000  0.0000  0.0000  0.0002 -0.0000
                                           -0.0000 -0.0000  0.0000 -0.0000  0.0001
                                            0.0000  0.0000 -0.0000  0.0000  0.0000
                                            0.0000 -0.0000  0.0000  0.0000  0.0000
                                            0.0000 -0.0000  0.0000 -0.0000  0.0000
    12. (1.99995) CR ( 3)Cl   3           s(  0.00%)p 1.00(100.00%)
                                            0.0000  0.0000 -0.0000  0.0000 -0.0000
                                            0.0000 -0.0000  1.0000 -0.0002  0.0000
                                            0.0000  0.0000 -0.0000  0.0000 -0.0000
                                           -0.0000 -0.0000  0.0000 -0.0000 -0.0000
                                           -0.0000  0.0000 -0.0000 -0.0000 -0.0000
                                           -0.0000  0.0000 -0.0000  0.0000 -0.0000
    13. (1.99999) CR ( 4)Cl   3           s(  0.00%)p 1.00(100.00%)
                                           -0.0000 -0.0000  0.0000 -0.0000  0.0000
                                           -0.0000  0.0000  0.0000  0.0000 -0.0000
                                            0.0000 -0.0000  0.0000  1.0000  0.0000
                                            0.0000  0.0000 -0.0000 -0.0000  0.0000
                                            0.0000  0.0000  0.0000  0.0000  0.0000
                                            0.0000 -0.0000  0.0000 -0.0000  0.0000
    14. (1.99999) CR ( 5)Cl   3           s(  0.00%)p 1.00(100.00%)
                                            0.0000  0.0000 -0.0000  0.0000 -0.0000
                                            0.0000 -0.0000 -0.0000 -0.0000  0.0000
                                            0.0000  0.0000 -0.0000  0.0000 -0.0000
                                           -0.0000  0.0000  0.0000 -0.0000  1.0000
                                            0.0001  0.0000  0.0000  0.0000 -0.0000
                                           -0.0000 -0.0000  0.0000  0.0000 -0.0000
    15. (2.00000) CR ( 1)Cl   4           s(100.00%)
                                            1.0000 -0.0000 -0.0000 -0.0000  0.0000
                                           -0.0000  0.0000 -0.0000 -0.0000  0.0000
                                            0.0000  0.0000 -0.0000  0.0000  0.0000
                                           -0.0000 -0.0000  0.0000 -0.0000  0.0000
                                            0.0000 -0.0000  0.0000  0.0000  0.0000
                                            0.0000  0.0000 -0.0000 -0.0000  0.0000
    16. (1.99981) CR ( 2)Cl   4           s(100.00%)p 0.00(  0.00%)
                                           -0.0000  1.0000  0.0001 -0.0000  0.0000
                                           -0.0000  0.0000 -0.0000 -0.0002  0.0000
                                            0.0000  0.0000 -0.0000  0.0000 -0.0001
                                           -0.0000 -0.0000  0.0000 -0.0000  0.0000
                                            0.0000 -0.0000  0.0000  0.0000  0.0000
                                            0.0000  0.0000 -0.0000 -0.0000  0.0000
    17. (1.99995) CR ( 3)Cl   4           s(  0.00%)p 1.00(100.00%)
                                           -0.0000 -0.0000  0.0000 -0.0000  0.0000
                                           -0.0000  0.0000  1.0000 -0.0002  0.0000
                                            0.0000  0.0000 -0.0000  0.0000 -0.0000
                                           -0.0000 -0.0000  0.0000 -0.0000  0.0000
                                            0.0000 -0.0000  0.0000  0.0000  0.0000
                                            0.0000  0.0000 -0.0000 -0.0000  0.0000
    18. (1.99999) CR ( 4)Cl   4           s(  0.00%)p 1.00(100.00%)
                                            0.0000  0.0000 -0.0000  0.0000 -0.0000
                                            0.0000 -0.0000  0.0000  0.0000 -0.0000
                                            0.0000 -0.0000  0.0000  1.0000  0.0000
                                            0.0000  0.0000 -0.0000 -0.0000 -0.0000
                                           -0.0000 -0.0000 -0.0000 -0.0000 -0.0000
                                           -0.0000 -0.0000  0.0000  0.0000 -0.0000
    19. (1.99999) CR ( 5)Cl   4           s(  0.00%)p 1.00(100.00%)
                                            0.0000  0.0000 -0.0000  0.0000 -0.0000
                                            0.0000 -0.0000  0.0000  0.0000 -0.0000
                                           -0.0000 -0.0000  0.0000 -0.0000  0.0000
                                            0.0000 -0.0000 -0.0000  0.0000  1.0000
                                            0.0001  0.0000  0.0000  0.0000 -0.0000
                                           -0.0000  0.0000 -0.0000  0.0000 -0.0000
    20. (1.99722) LP ( 1)Cl   3           s( 84.65%)p 0.18( 15.35%)d 0.00(  0.01%)
                                           -0.0000 -0.0001  0.9200 -0.0099  0.0002
                                           -0.0000  0.0000  0.0001  0.3134 -0.0127
                                            0.0025  0.0016  0.0004 -0.0000 -0.2347
                                            0.0036 -0.0002 -0.0005 -0.0001  0.0000
                                            0.0000 -0.0000  0.0000  0.0000  0.0000
                                            0.0059 -0.0000  0.0000 -0.0042  0.0037
    21. (1.97818) LP ( 2)Cl   3           s(  0.00%)p 1.00( 99.98%)d 0.00(  0.02%)
                                           -0.0000 -0.0000  0.0000 -0.0000 -0.0000
                                            0.0000  0.0000  0.0000 -0.0000 -0.0000
                                            0.0000  0.0000 -0.0000 -0.0000  0.0000
                                            0.0000  0.0000  0.0000 -0.0000 -0.0001
                                            0.9998  0.0139  0.0020  0.0007 -0.0001
                                           -0.0000 -0.0127  0.0030  0.0000 -0.0000
    22. (1.96765) LP ( 3)Cl   3           s(  0.93%)p99.99( 99.05%)d 0.02(  0.02%)
                                           -0.0000 -0.0002  0.0962  0.0024  0.0006
                                           -0.0003  0.0000  0.0001  0.4002  0.0038
                                            0.0018 -0.0015 -0.0000 -0.0000  0.9111
                                            0.0137  0.0010 -0.0003 -0.0000  0.0000
                                           -0.0000 -0.0000  0.0000 -0.0000  0.0000
                                           -0.0107  0.0000 -0.0000 -0.0105  0.0004
    23. (1.99722) LP ( 1)Cl   4           s( 84.65%)p 0.18( 15.35%)d 0.00(  0.01%)
                                           -0.0000 -0.0001  0.9200 -0.0099  0.0002
                                           -0.0000  0.0000 -0.0001 -0.3134  0.0127
                                           -0.0025 -0.0016 -0.0004  0.0000  0.2347
                                           -0.0036  0.0002  0.0005  0.0001  0.0000
                                            0.0000 -0.0000  0.0000  0.0000  0.0000
                                            0.0059  0.0000 -0.0000 -0.0042  0.0037
    24. (1.97818) LP ( 2)Cl   4           s(  0.00%)p 1.00( 99.98%)d 0.00(  0.02%)
                                           -0.0000 -0.0000  0.0000 -0.0000 -0.0000
                                            0.0000 -0.0000 -0.0000  0.0000  0.0000
                                           -0.0000 -0.0000 -0.0000  0.0000 -0.0000
                                           -0.0000 -0.0000 -0.0000  0.0000 -0.0001
                                            0.9998  0.0139  0.0020  0.0007 -0.0001
                                           -0.0000  0.0127 -0.0030  0.0000 -0.0000
    25. (1.96765) LP ( 3)Cl   4           s(  0.93%)p99.99( 99.05%)d 0.02(  0.02%)
                                           -0.0000 -0.0002  0.0962  0.0024  0.0006
                                           -0.0003  0.0000 -0.0001 -0.4002 -0.0038
                                           -0.0018  0.0015  0.0000  0.0000 -0.9111
                                           -0.0137 -0.0010  0.0003  0.0000  0.0000
                                           -0.0000 -0.0000  0.0000 -0.0000  0.0000
                                           -0.0107  0.0000  0.0000 -0.0105  0.0004
    26. (0.00471) RY*( 1) C   1           s( 12.73%)p 5.81( 73.90%)d 1.05( 13.37%)
                                            0.0000  0.0040  0.3567  0.0066 -0.0040
                                           -0.0204 -0.8496  0.0113  0.0274 -0.0287
                                           -0.0510  0.0128  0.1109 -0.0000  0.0000
                                            0.0000  0.0000  0.2254 -0.0000 -0.0000
                                            0.2816 -0.0603
    27. (0.00276) RY*( 2) C   1           s(  0.00%)p 1.00( 79.90%)d 0.25( 20.10%)
                                           -0.0000  0.0000 -0.0000  0.0000 -0.0000
                                           -0.0000 -0.0000  0.0000 -0.0000  0.0000
                                           -0.0000  0.0000 -0.0000 -0.0179  0.8744
                                           -0.1723  0.0667 -0.0000 -0.4475 -0.0266
                                           -0.0000  0.0000
    28. (0.00190) RY*( 3) C   1           s( 12.39%)p 5.48( 67.86%)d 1.59( 19.75%)
                                            0.0000  0.0012  0.3324  0.1155  0.0052
                                           -0.0030  0.3930 -0.0690  0.0591 -0.0203
                                           -0.6954  0.1245  0.1280 -0.0000  0.0000
                                            0.0000 -0.0000  0.2970 -0.0000  0.0000
                                            0.3274 -0.0460
    29. (0.00135) RY*( 4) C   1           s( 50.80%)p 0.79( 40.16%)d 0.18(  9.04%)
                                           -0.0000 -0.0090  0.7121 -0.0284 -0.0055
                                            0.0357  0.2878 -0.1295 -0.0119 -0.0262
                                            0.4935 -0.2022  0.1245 -0.0000  0.0000
                                           -0.0000  0.0000 -0.2201 -0.0000 -0.0000
                                            0.1767 -0.1038
    30. (0.00069) RY*( 5) C   1           s(  0.00%)p 1.00( 27.28%)d 2.67( 72.72%)
                                           -0.0000  0.0000  0.0000  0.0000 -0.0000
                                           -0.0000  0.0000  0.0000  0.0000  0.0000
                                            0.0000  0.0000 -0.0000 -0.0265  0.2085
                                           -0.0202  0.4777  0.0000  0.5273 -0.6702
                                            0.0000 -0.0000
    31. (0.00056) RY*( 6) C   1           s(  9.90%)p 2.81( 27.81%)d 6.29( 62.29%)
                                            0.0000  0.0077  0.3054  0.0663  0.0355
                                           -0.0407  0.0131 -0.3255 -0.1459  0.0030
                                            0.1169  0.2615 -0.2588 -0.0000 -0.0000
                                            0.0000 -0.0000  0.5007 -0.0000 -0.0000
                                           -0.5632  0.2346
    32. (0.00020) RY*( 7) C   1           s( 14.61%)p 2.48( 36.28%)d 3.36( 49.11%)
                                           -0.0000 -0.0006  0.3590 -0.0674  0.1124
                                            0.0084 -0.1144  0.3464 -0.0056 -0.0122
                                           -0.3197  0.3517 -0.0598  0.0000  0.0000
                                           -0.0000  0.0000 -0.5814  0.0000  0.0000
                                           -0.3904  0.0247
    33. (0.00009) RY*( 8) C   1           s(  0.00%)p 1.00( 39.13%)d 1.56( 60.87%)
    34. (0.00005) RY*( 9) C   1           s( 47.14%)p 0.77( 36.38%)d 0.35( 16.48%)
    35. (0.00001) RY*(10) C   1           s(  1.88%)p43.15( 80.91%)d 9.18( 17.21%)
    36. (0.00000) RY*(11) C   1           s(  0.00%)p 1.00( 85.87%)d 0.16( 14.13%)
    37. (0.00000) RY*(12) C   1           s(  0.00%)p 1.00( 67.91%)d 0.47( 32.09%)
    38. (0.00001) RY*(13) C   1           s(  1.17%)p82.62( 96.71%)d 1.81(  2.12%)
    39. (0.00000) RY*(14) C   1           s( 96.34%)p 0.03(  2.65%)d 0.01(  1.01%)
    40. (0.00000) RY*(15) C   1           s( 33.37%)p 1.70( 56.87%)d 0.29(  9.77%)
    41. (0.00000) RY*(16) C   1           s( 12.23%)p 5.95( 72.76%)d 1.23( 15.01%)
    42. (0.00000) RY*(17) C   1           s(  7.29%)p 1.12(  8.17%)d11.59( 84.54%)
    43. (0.00471) RY*( 1) C   2           s( 12.73%)p 5.81( 73.90%)d 1.05( 13.37%)
                                            0.0000  0.0040  0.3567  0.0066 -0.0040
                                            0.0204  0.8496 -0.0113 -0.0274  0.0287
                                            0.0510 -0.0128 -0.1109 -0.0000  0.0000
                                            0.0000  0.0000  0.2254  0.0000  0.0000
                                            0.2816 -0.0603
    44. (0.00276) RY*( 2) C   2           s(  0.00%)p 1.00( 79.90%)d 0.25( 20.10%)
                                           -0.0000  0.0000 -0.0000  0.0000 -0.0000
                                            0.0000  0.0000 -0.0000  0.0000 -0.0000
                                           -0.0000 -0.0000  0.0000 -0.0179  0.8744
                                           -0.1723  0.0667 -0.0000  0.4475  0.0266
                                           -0.0000  0.0000
    45. (0.00190) RY*( 3) C   2           s( 12.39%)p 5.48( 67.86%)d 1.59( 19.75%)
                                            0.0000  0.0012  0.3324  0.1155  0.0052
                                            0.0030 -0.3930  0.0690 -0.0591  0.0203
                                            0.6954 -0.1245 -0.1280 -0.0000  0.0000
                                           -0.0000 -0.0000  0.2970  0.0000 -0.0000
                                            0.3274 -0.0460
    46. (0.00135) RY*( 4) C   2           s( 50.80%)p 0.79( 40.16%)d 0.18(  9.04%)
                                           -0.0000 -0.0090  0.7121 -0.0284 -0.0055
                                           -0.0357 -0.2878  0.1295  0.0119  0.0262
                                           -0.4935  0.2022 -0.1245 -0.0000  0.0000
                                           -0.0000  0.0000 -0.2201  0.0000 -0.0000
                                            0.1767 -0.1038
    47. (0.00069) RY*( 5) C   2           s(  0.00%)p 1.00( 27.28%)d 2.67( 72.72%)
                                            0.0000 -0.0000 -0.0000 -0.0000  0.0000
                                           -0.0000  0.0000  0.0000  0.0000  0.0000
                                            0.0000  0.0000 -0.0000  0.0265 -0.2085
                                            0.0202 -0.4777 -0.0000  0.5273 -0.6702
                                           -0.0000  0.0000
    48. (0.00056) RY*( 6) C   2           s(  9.90%)p 2.81( 27.81%)d 6.29( 62.29%)
                                            0.0000  0.0077  0.3054  0.0663  0.0355
                                            0.0407 -0.0131  0.3255  0.1459 -0.0030
                                           -0.1169 -0.2615  0.2588 -0.0000 -0.0000
                                            0.0000 -0.0000  0.5007  0.0000  0.0000
                                           -0.5632  0.2346
    49. (0.00020) RY*( 7) C   2           s( 14.61%)p 2.48( 36.28%)d 3.36( 49.11%)
                                           -0.0000 -0.0006  0.3590 -0.0674  0.1124
                                           -0.0084  0.1144 -0.3464  0.0056  0.0122
                                            0.3197 -0.3517  0.0598  0.0000  0.0000
                                           -0.0000  0.0000 -0.5814 -0.0000 -0.0000
                                           -0.3904  0.0247
    50. (0.00009) RY*( 8) C   2           s(  0.00%)p 1.00( 39.13%)d 1.56( 60.87%)
    51. (0.00005) RY*( 9) C   2           s( 47.14%)p 0.77( 36.38%)d 0.35( 16.48%)
    52. (0.00001) RY*(10) C   2           s(  1.88%)p43.15( 80.91%)d 9.18( 17.21%)
    53. (0.00000) RY*(11) C   2           s(  0.00%)p 1.00( 85.87%)d 0.16( 14.13%)
    54. (0.00000) RY*(12) C   2           s(  0.00%)p 1.00( 67.91%)d 0.47( 32.09%)
    55. (0.00001) RY*(13) C   2           s(  1.17%)p82.62( 96.71%)d 1.81(  2.12%)
    56. (0.00000) RY*(14) C   2           s( 96.34%)p 0.03(  2.65%)d 0.01(  1.01%)
    57. (0.00000) RY*(15) C   2           s( 33.37%)p 1.70( 56.87%)d 0.29(  9.77%)
    58. (0.00000) RY*(16) C   2           s( 12.23%)p 5.95( 72.76%)d 1.23( 15.01%)
    59. (0.00000) RY*(17) C   2           s(  7.29%)p 1.12(  8.17%)d11.59( 84.54%)
    60. (0.00225) RY*( 1)Cl   3           s(  0.48%)p99.99( 56.33%)d90.16( 43.19%)
                                           -0.0000  0.0000 -0.0042  0.0683  0.0050
                                           -0.0088 -0.0001  0.0000  0.0205  0.4759
                                            0.0931 -0.0163  0.0023  0.0000 -0.0082
                                            0.5403 -0.1878  0.0095  0.0072  0.0000
                                            0.0000 -0.0000  0.0000 -0.0000 -0.0000
                                            0.4267 -0.0000  0.0000  0.4896 -0.1007
    61. (0.00203) RY*( 2)Cl   3           s(  0.00%)p 1.00( 48.12%)d 1.08( 51.88%)
                                           -0.0000  0.0000 -0.0000  0.0000  0.0000
                                           -0.0000 -0.0000  0.0000  0.0000  0.0000
                                            0.0000 -0.0000 -0.0000  0.0000 -0.0000
                                            0.0000 -0.0000  0.0000  0.0000  0.0000
                                            0.0003  0.6528 -0.2340  0.0165  0.0050
                                            0.0000  0.6188 -0.3687  0.0000  0.0000
    62. (0.00053) RY*( 3)Cl   3           s( 26.45%)p 1.27( 33.62%)d 1.51( 39.93%)
                                           -0.0000  0.0000 -0.0170  0.4473  0.2533
                                           -0.0017  0.0001  0.0000  0.0782  0.4439
                                           -0.1739 -0.0460 -0.0217  0.0000 -0.0336
                                           -0.3067  0.0510  0.0483 -0.0083  0.0000
                                            0.0000  0.0000 -0.0000 -0.0000  0.0000
                                           -0.4959  0.0000 -0.0000  0.2602 -0.2928
    63. (0.00022) RY*( 4)Cl   3           s( 23.27%)p 2.86( 66.48%)d 0.44( 10.25%)
                                           -0.0000  0.0000 -0.0080  0.3683 -0.3083
                                           -0.0437  0.0014  0.0000  0.0178 -0.0649
                                            0.7698 -0.1024  0.0181  0.0000 -0.0156
                                            0.1810  0.1526  0.0221 -0.0079  0.0000
                                            0.0000 -0.0000 -0.0000  0.0000 -0.0000
                                           -0.2989  0.0000  0.0000  0.0056  0.1145
    64. (0.00011) RY*( 5)Cl   3           s(  0.00%)p 1.00( 57.36%)d 0.74( 42.64%)
                                            0.0000 -0.0000 -0.0000 -0.0000 -0.0000
                                            0.0000 -0.0000 -0.0000  0.0000  0.0000
                                            0.0000  0.0000  0.0000 -0.0000 -0.0000
                                           -0.0000  0.0000 -0.0000  0.0000 -0.0000
                                           -0.0131  0.4647  0.5795  0.1474 -0.0075
                                           -0.0000 -0.5145 -0.4021  0.0000 -0.0000
    65. (0.00007) RY*( 6)Cl   3           s( 43.13%)p 0.38( 16.53%)d 0.94( 40.34%)
    66. (0.00002) RY*( 7)Cl   3           s( 23.61%)p 3.15( 74.41%)d 0.08(  1.98%)
    67. (0.00000) RY*( 8)Cl   3           s(  0.08%)p99.99( 99.90%)d 0.18(  0.02%)
    68. (0.00000) RY*( 9)Cl   3           s(100.00%)p 0.00(  0.00%)d 0.00(  0.00%)
    69. (0.00000) RY*(10)Cl   3           s( 20.07%)p 3.93( 78.89%)d 0.05(  1.04%)
    70. (0.00000) RY*(11)Cl   3           s(  4.50%)p20.44( 92.07%)d 0.76(  3.42%)
    71. (0.00000) RY*(12)Cl   3           s(  0.11%)p99.99( 99.83%)d 0.55(  0.06%)
    72. (0.00001) RY*(13)Cl   3           s(  5.47%)p 6.64( 36.32%)d10.64( 58.21%)
    73. (0.00000) RY*(14)Cl   3           s( 99.53%)p 0.00(  0.36%)d 0.00(  0.11%)
    74. (0.00001) RY*(15)Cl   3           s(  0.00%)p 1.00( 99.12%)d 0.01(  0.88%)
    75. (0.00000) RY*(16)Cl   3           s(  0.00%)p 1.00( 99.99%)d 0.00(  0.01%)
    76. (0.00000) RY*(17)Cl   3           s(  6.66%)p13.58( 90.47%)d 0.43(  2.87%)
    77. (0.00000) RY*(18)Cl   3           s(  0.00%)p 1.00( 65.28%)d 0.53( 34.72%)
    78. (0.00000) RY*(19)Cl   3           s(  0.00%)p 1.00( 30.15%)d 2.32( 69.85%)
    79. (0.00000) RY*(20)Cl   3           s(  8.74%)p 4.10( 35.85%)d 6.34( 55.41%)
    80. (0.00000) RY*(21)Cl   3           s( 37.75%)p 0.52( 19.61%)d 1.13( 42.63%)
    81. (0.00225) RY*( 1)Cl   4           s(  0.48%)p99.99( 56.33%)d90.16( 43.19%)
                                           -0.0000 -0.0000 -0.0042  0.0683  0.0050
                                           -0.0088 -0.0001 -0.0000 -0.0205 -0.4759
                                           -0.0931  0.0163 -0.0023  0.0000  0.0082
                                           -0.5403  0.1878 -0.0095 -0.0072  0.0000
                                            0.0000 -0.0000  0.0000 -0.0000 -0.0000
                                            0.4267  0.0000 -0.0000  0.4896 -0.1007
    82. (0.00203) RY*( 2)Cl   4           s(  0.00%)p 1.00( 48.12%)d 1.08( 51.88%)
                                           -0.0000  0.0000 -0.0000  0.0000  0.0000
                                           -0.0000 -0.0000 -0.0000 -0.0000 -0.0000
                                           -0.0000  0.0000  0.0000  0.0000  0.0000
                                           -0.0000  0.0000 -0.0000 -0.0000  0.0000
                                            0.0003  0.6528 -0.2340  0.0165  0.0050
                                            0.0000 -0.6188  0.3687  0.0000  0.0000
    83. (0.00053) RY*( 3)Cl   4           s( 26.45%)p 1.27( 33.62%)d 1.51( 39.93%)
                                           -0.0000 -0.0000 -0.0170  0.4473  0.2533
                                           -0.0017  0.0001 -0.0000 -0.0782 -0.4439
                                            0.1739  0.0460  0.0217  0.0000  0.0336
                                            0.3067 -0.0510 -0.0483  0.0083  0.0000
                                            0.0000  0.0000 -0.0000 -0.0000  0.0000
                                           -0.4959 -0.0000  0.0000  0.2602 -0.2928
    84. (0.00022) RY*( 4)Cl   4           s( 23.27%)p 2.86( 66.48%)d 0.44( 10.25%)
                                           -0.0000 -0.0000 -0.0080  0.3683 -0.3083
                                           -0.0437  0.0014 -0.0000 -0.0178  0.0649
                                           -0.7698  0.1024 -0.0181  0.0000  0.0156
                                           -0.1810 -0.1526 -0.0221  0.0079  0.0000
                                            0.0000 -0.0000 -0.0000  0.0000 -0.0000
                                           -0.2989 -0.0000 -0.0000  0.0056  0.1145
    85. (0.00011) RY*( 5)Cl   4           s(  0.00%)p 1.00( 57.36%)d 0.74( 42.64%)
                                            0.0000 -0.0000 -0.0000 -0.0000 -0.0000
                                            0.0000 -0.0000  0.0000 -0.0000 -0.0000
                                           -0.0000 -0.0000 -0.0000 -0.0000  0.0000
                                            0.0000 -0.0000  0.0000 -0.0000 -0.0000
                                           -0.0131  0.4647  0.5795  0.1474 -0.0075
                                           -0.0000  0.5145  0.4021  0.0000 -0.0000
    86. (0.00007) RY*( 6)Cl   4           s( 43.13%)p 0.38( 16.53%)d 0.94( 40.34%)
    87. (0.00002) RY*( 7)Cl   4           s( 23.61%)p 3.15( 74.41%)d 0.08(  1.98%)
    88. (0.00000) RY*( 8)Cl   4           s(  0.08%)p99.99( 99.90%)d 0.18(  0.02%)
    89. (0.00000) RY*( 9)Cl   4           s(100.00%)p 0.00(  0.00%)d 0.00(  0.00%)
    90. (0.00000) RY*(10)Cl   4           s( 20.07%)p 3.93( 78.89%)d 0.05(  1.04%)
    91. (0.00000) RY*(11)Cl   4           s(  4.50%)p20.44( 92.07%)d 0.76(  3.42%)
    92. (0.00000) RY*(12)Cl   4           s(  0.11%)p99.99( 99.83%)d 0.55(  0.06%)
    93. (0.00001) RY*(13)Cl   4           s(  5.47%)p 6.64( 36.32%)d10.64( 58.21%)
    94. (0.00000) RY*(14)Cl   4           s( 99.53%)p 0.00(  0.36%)d 0.00(  0.11%)
    95. (0.00001) RY*(15)Cl   4           s(  0.00%)p 1.00( 99.12%)d 0.01(  0.88%)
    96. (0.00000) RY*(16)Cl   4           s(  0.00%)p 1.00( 99.99%)d 0.00(  0.01%)
    97. (0.00000) RY*(17)Cl   4           s(  6.66%)p13.58( 90.47%)d 0.43(  2.87%)
    98. (0.00000) RY*(18)Cl   4           s(  0.00%)p 1.00( 65.28%)d 0.53( 34.72%)
    99. (0.00000) RY*(19)Cl   4           s(  0.00%)p 1.00( 30.15%)d 2.32( 69.85%)
   100. (0.00000) RY*(20)Cl   4           s(  8.74%)p 4.10( 35.85%)d 6.34( 55.41%)
   101. (0.00000) RY*(21)Cl   4           s( 37.75%)p 0.52( 19.61%)d 1.13( 42.63%)
   102. (0.00140) RY*( 1) H   5           s( 99.12%)p 0.01(  0.88%)
                                           -0.0041  0.9955  0.0090 -0.0001 -0.0893
                                            0.0272 -0.0095
   103. (0.00065) RY*( 2) H   5           s( 92.51%)p 0.08(  7.49%)
                                            0.0031 -0.0157  0.9617  0.0009 -0.1384
                                           -0.1279  0.1985
   104. (0.00020) RY*( 3) H   5           s( 79.51%)p 0.26( 20.49%)
                                           -0.0003  0.0180  0.0369  0.8908  0.2736
                                            0.2989  0.2017
   105. (0.00012) RY*( 4) H   5           s( 15.92%)p 5.28( 84.08%)
                                            0.0060 -0.0617 -0.2043  0.3371 -0.8314
                                           -0.3395  0.1849
   106. (0.00005) RY*( 5) H   5           s(  3.12%)p31.01( 96.88%)
   107. (0.00005) RY*( 6) H   5           s(  9.85%)p 9.15( 90.15%)
   108. (0.00140) RY*( 1) H   6           s( 99.12%)p 0.01(  0.88%)
                                           -0.0041  0.9955  0.0090 -0.0001 -0.0893
                                            0.0272  0.0095
   109. (0.00065) RY*( 2) H   6           s( 92.51%)p 0.08(  7.49%)
                                            0.0031 -0.0157  0.9617  0.0009 -0.1384
                                           -0.1279 -0.1985
   110. (0.00020) RY*( 3) H   6           s( 79.51%)p 0.26( 20.49%)
                                           -0.0003  0.0180  0.0369  0.8908  0.2736
                                            0.2989 -0.2017
   111. (0.00012) RY*( 4) H   6           s( 15.92%)p 5.28( 84.08%)
                                            0.0060 -0.0617 -0.2043  0.3371 -0.8314
                                           -0.3395 -0.1849
   112. (0.00005) RY*( 5) H   6           s(  3.12%)p31.01( 96.88%)
   113. (0.00005) RY*( 6) H   6           s(  9.85%)p 9.15( 90.15%)
   114. (0.00140) RY*( 1) H   7           s( 99.12%)p 0.01(  0.88%)
                                           -0.0041  0.9955  0.0090 -0.0001  0.0893
                                           -0.0272 -0.0095
   115. (0.00065) RY*( 2) H   7           s( 92.51%)p 0.08(  7.49%)
                                            0.0031 -0.0157  0.9617  0.0009  0.1384
                                            0.1279  0.1985
   116. (0.00020) RY*( 3) H   7           s( 79.51%)p 0.26( 20.49%)
                                           -0.0003  0.0180  0.0369  0.8908 -0.2736
                                           -0.2989  0.2017
   117. (0.00012) RY*( 4) H   7           s( 15.92%)p 5.28( 84.08%)
                                            0.0060 -0.0617 -0.2043  0.3371  0.8314
                                            0.3395  0.1849
   118. (0.00005) RY*( 5) H   7           s(  3.12%)p31.01( 96.88%)
   119. (0.00005) RY*( 6) H   7           s(  9.85%)p 9.15( 90.15%)
   120. (0.00140) RY*( 1) H   8           s( 99.12%)p 0.01(  0.88%)
                                           -0.0041  0.9955  0.0090 -0.0001  0.0893
                                           -0.0272  0.0095
   121. (0.00065) RY*( 2) H   8           s( 92.51%)p 0.08(  7.49%)
                                            0.0031 -0.0157  0.9617  0.0009  0.1384
                                            0.1279 -0.1985
   122. (0.00020) RY*( 3) H   8           s( 79.51%)p 0.26( 20.49%)
                                           -0.0003  0.0180  0.0369  0.8908 -0.2736
                                           -0.2989 -0.2017
   123. (0.00012) RY*( 4) H   8           s( 15.92%)p 5.28( 84.08%)
                                            0.0060 -0.0617 -0.2043  0.3371  0.8314
                                            0.3395 -0.1849
   124. (0.00005) RY*( 5) H   8           s(  3.12%)p31.01( 96.88%)
   125. (0.00005) RY*( 6) H   8           s(  9.85%)p 9.15( 90.15%)
   126. (0.02030) BD*( 1) C   1 - C   2  
                ( 50.00%)   0.7071* C   1 s( 30.92%)p 2.23( 69.03%)d 0.00(  0.05%)
                                           -0.0001 -0.5555 -0.0232 -0.0102 -0.0000
                                           -0.5215  0.0172  0.0031 -0.0056 -0.6464
                                            0.0100 -0.0012 -0.0027 -0.0000  0.0000
                                           -0.0000  0.0000 -0.0172  0.0000 -0.0000
                                            0.0056  0.0125
                ( 50.00%)  -0.7071* C   2 s( 30.92%)p 2.23( 69.03%)d 0.00(  0.05%)
                                           -0.0001 -0.5555 -0.0232 -0.0102 -0.0000
                                            0.5215 -0.0172 -0.0031  0.0056  0.6464
                                           -0.0100  0.0012  0.0027 -0.0000  0.0000
                                           -0.0000  0.0000 -0.0172 -0.0000  0.0000
                                            0.0056  0.0125
   127. (0.02643) BD*( 1) C   1 -Cl   4  
                ( 55.74%)   0.7466* C   1 s( 18.36%)p 4.44( 81.45%)d 0.01(  0.19%)
                                            0.0001 -0.4277 -0.0221  0.0151  0.0005
                                            0.8448 -0.0236 -0.0269 -0.0050 -0.3149
                                           -0.0146  0.0126 -0.0026 -0.0000  0.0000
                                            0.0000  0.0000  0.0265  0.0000 -0.0000
                                           -0.0253  0.0232
                ( 44.26%)  -0.6653*Cl   4 s( 14.57%)p 5.83( 84.92%)d 0.03(  0.51%)
                                           -0.0000 -0.0001 -0.3793 -0.0430  0.0003
                                           -0.0002  0.0000 -0.0001 -0.8567  0.0411
                                            0.0079  0.0007 -0.0001  0.0000  0.3364
                                           -0.0200 -0.0024  0.0002 -0.0002  0.0000
                                            0.0000 -0.0000  0.0000  0.0000  0.0000
                                            0.0405  0.0000 -0.0000 -0.0462  0.0362
   128. (0.02004) BD*( 1) C   1 - H   5  
                ( 38.85%)   0.6233* C   1 s( 25.44%)p 2.93( 74.48%)d 0.00(  0.07%)
                                            0.0000 -0.5041  0.0180 -0.0009 -0.0001
                                           -0.0718 -0.0058 -0.0009  0.0010  0.4900
                                           -0.0042  0.0042  0.0015 -0.7065 -0.0172
                                           -0.0107  0.0004  0.0013 -0.0023  0.0214
                                            0.0056 -0.0159
                ( 61.15%)  -0.7820* H   5 s( 99.96%)p 0.00(  0.04%)
                                           -0.9998 -0.0034 -0.0016 -0.0004  0.0019
                                           -0.0122  0.0164
   129. (0.02004) BD*( 1) C   1 - H   6  
                ( 38.85%)   0.6233* C   1 s( 25.44%)p 2.93( 74.48%)d 0.00(  0.07%)
                                            0.0000 -0.5041  0.0180 -0.0009 -0.0001
                                           -0.0718 -0.0058 -0.0009  0.0010  0.4900
                                           -0.0042  0.0042  0.0015  0.7065  0.0172
                                            0.0107 -0.0004  0.0013  0.0023 -0.0214
                                            0.0056 -0.0159
                ( 61.15%)  -0.7820* H   6 s( 99.96%)p 0.00(  0.04%)
                                           -0.9998 -0.0034 -0.0016 -0.0004  0.0019
                                           -0.0122 -0.0164
   130. (0.02643) BD*( 1) C   2 -Cl   3  
                ( 55.74%)   0.7466* C   2 s( 18.36%)p 4.44( 81.45%)d 0.01(  0.19%)
                                           -0.0001  0.4277  0.0221 -0.0151 -0.0005
                                            0.8448 -0.0236 -0.0269 -0.0050 -0.3149
                                           -0.0146  0.0126 -0.0026  0.0000 -0.0000
                                           -0.0000 -0.0000 -0.0265  0.0000 -0.0000
                                            0.0253 -0.0232
                ( 44.26%)  -0.6653*Cl   3 s( 14.57%)p 5.83( 84.92%)d 0.03(  0.51%)
                                            0.0000  0.0001  0.3793  0.0430 -0.0003
                                            0.0002 -0.0000 -0.0001 -0.8567  0.0411
                                            0.0079  0.0007 -0.0001  0.0000  0.3364
                                           -0.0200 -0.0024  0.0002 -0.0002 -0.0000
                                           -0.0000  0.0000 -0.0000 -0.0000 -0.0000
                                           -0.0405  0.0000 -0.0000  0.0462 -0.0362
   131. (0.02004) BD*( 1) C   2 - H   7  
                ( 38.85%)   0.6233* C   2 s( 25.44%)p 2.93( 74.48%)d 0.00(  0.07%)
                                            0.0000 -0.5041  0.0180 -0.0009 -0.0001
                                            0.0718  0.0058  0.0009 -0.0010 -0.4900
                                            0.0042 -0.0042 -0.0015 -0.7065 -0.0172
                                           -0.0107  0.0004  0.0013  0.0023 -0.0214
                                            0.0056 -0.0159
                ( 61.15%)  -0.7820* H   7 s( 99.96%)p 0.00(  0.04%)
                                           -0.9998 -0.0034 -0.0016 -0.0004 -0.0019
                                            0.0122  0.0164
   132. (0.02004) BD*( 1) C   2 - H   8  
                ( 38.85%)   0.6233* C   2 s( 25.44%)p 2.93( 74.48%)d 0.00(  0.07%)
                                            0.0000 -0.5041  0.0180 -0.0009 -0.0001
                                            0.0718  0.0058  0.0009 -0.0010 -0.4900
                                            0.0042 -0.0042 -0.0015  0.7065  0.0172
                                            0.0107 -0.0004  0.0013 -0.0023  0.0214
                                            0.0056 -0.0159
                ( 61.15%)  -0.7820* H   8 s( 99.96%)p 0.00(  0.04%)
                                           -0.9998 -0.0034 -0.0016 -0.0004 -0.0019
                                            0.0122 -0.0164


 NHO Directionality and "Bond Bending" (deviations from line of nuclear centers)

         [Thresholds for printing:  angular deviation  >  1.0 degree]
                                    hybrid p-character > 25.0%
                                    orbital occupancy  >  0.10e

                                Line of Centers        Hybrid 1              Hybrid 2
                                ---------------  -------------------   ------------------
                NBO               Theta   Phi    Theta   Phi    Dev    Theta   Phi    Dev
 ========================================================================================
     1. BD (   1) C   1 - C   2    90.0   49.9    90.0   51.6   1.8     90.0  231.6   1.8
     2. BD (   1) C   1 -Cl   4    90.0  159.0    90.0  158.0   1.1      --     --    --
     5. BD (   1) C   2 -Cl   3    90.0  339.0    90.0  338.0   1.1      --     --    --
    21. LP (   2)Cl   3             --     --      0.0    0.0   --       --     --    --
    22. LP (   3)Cl   3             --     --     90.0   66.4   --       --     --    --
    24. LP (   2)Cl   4             --     --      0.0    0.0   --       --     --    --
    25. LP (   3)Cl   4             --     --     90.0  246.4   --       --     --    --


 Second Order Perturbation Theory Analysis of Fock Matrix in NBO Basis

     Threshold for printing:   0.50 kcal/mol
                                                                              E(2)  E(j)-E(i) F(i,j)
         Donor NBO (i)                     Acceptor NBO (j)                 kcal/mol   a.u.    a.u. 
 ===================================================================================================

 within unit  1
   1. BD (   1) C   1 - C   2        / 60. RY*(   1)Cl   3                    0.71    1.29    0.027
   1. BD (   1) C   1 - C   2        / 81. RY*(   1)Cl   4                    0.71    1.29    0.027
   2. BD (   1) C   1 -Cl   4        / 46. RY*(   4) C   2                    0.55    1.29    0.024
   2. BD (   1) C   1 -Cl   4        /130. BD*(   1) C   2 -Cl   3            3.55    0.75    0.046
   3. BD (   1) C   1 - H   5        / 82. RY*(   2)Cl   4                    0.61    1.21    0.024
   3. BD (   1) C   1 - H   5        /127. BD*(   1) C   1 -Cl   4            0.93    0.64    0.022
   3. BD (   1) C   1 - H   5        /132. BD*(   1) C   2 - H   8            2.49    0.93    0.043
   4. BD (   1) C   1 - H   6        / 82. RY*(   2)Cl   4                    0.61    1.21    0.024
   4. BD (   1) C   1 - H   6        /127. BD*(   1) C   1 -Cl   4            0.93    0.64    0.022
   4. BD (   1) C   1 - H   6        /131. BD*(   1) C   2 - H   7            2.49    0.93    0.043
   5. BD (   1) C   2 -Cl   3        / 29. RY*(   4) C   1                    0.55    1.29    0.024
   5. BD (   1) C   2 -Cl   3        /127. BD*(   1) C   1 -Cl   4            3.55    0.75    0.046
   6. BD (   1) C   2 - H   7        / 61. RY*(   2)Cl   3                    0.61    1.21    0.024
   6. BD (   1) C   2 - H   7        /129. BD*(   1) C   1 - H   6            2.49    0.93    0.043
   6. BD (   1) C   2 - H   7        /130. BD*(   1) C   2 -Cl   3            0.93    0.64    0.022
   7. BD (   1) C   2 - H   8        / 61. RY*(   2)Cl   3                    0.61    1.21    0.024
   7. BD (   1) C   2 - H   8        /128. BD*(   1) C   1 - H   5            2.49    0.93    0.043
   7. BD (   1) C   2 - H   8        /130. BD*(   1) C   2 -Cl   3            0.93    0.64    0.022
   8. CR (   1) C   1                / 43. RY*(   1) C   2                    0.92   10.79    0.089
   8. CR (   1) C   1                /127. BD*(   1) C   1 -Cl   4            2.36   10.21    0.140
   9. CR (   1) C   2                / 26. RY*(   1) C   1                    0.92   10.79    0.089
   9. CR (   1) C   2                /130. BD*(   1) C   2 -Cl   3            2.36   10.21    0.140
  11. CR (   2)Cl   3                / 43. RY*(   1) C   2                    0.68   11.13    0.078
  11. CR (   2)Cl   3                / 45. RY*(   3) C   2                    0.75   11.40    0.082
  16. CR (   2)Cl   4                / 26. RY*(   1) C   1                    0.68   11.13    0.078
  16. CR (   2)Cl   4                / 28. RY*(   3) C   1                    0.75   11.40    0.082
  20. LP (   1)Cl   3                / 43. RY*(   1) C   2                    0.61    1.58    0.028
  20. LP (   1)Cl   3                / 45. RY*(   3) C   2                    0.96    1.86    0.038
  21. LP (   2)Cl   3                / 44. RY*(   2) C   2                    0.69    1.08    0.025
  21. LP (   2)Cl   3                /131. BD*(   1) C   2 - H   7            3.25    0.70    0.043
  21. LP (   2)Cl   3                /132. BD*(   1) C   2 - H   8            3.25    0.70    0.043
  22. LP (   3)Cl   3                / 43. RY*(   1) C   2                    0.71    0.99    0.024
  22. LP (   3)Cl   3                /126. BD*(   1) C   1 - C   2            3.20    0.68    0.042
  22. LP (   3)Cl   3                /127. BD*(   1) C   1 -Cl   4            1.83    0.42    0.025
  22. LP (   3)Cl   3                /131. BD*(   1) C   2 - H   7            0.92    0.71    0.023
  22. LP (   3)Cl   3                /132. BD*(   1) C   2 - H   8            0.92    0.71    0.023
  23. LP (   1)Cl   4                / 26. RY*(   1) C   1                    0.61    1.58    0.028
  23. LP (   1)Cl   4                / 28. RY*(   3) C   1                    0.96    1.86    0.038
  24. LP (   2)Cl   4                / 27. RY*(   2) C   1                    0.69    1.08    0.025
  24. LP (   2)Cl   4                /128. BD*(   1) C   1 - H   5            3.25    0.70    0.043
  24. LP (   2)Cl   4                /129. BD*(   1) C   1 - H   6            3.25    0.70    0.043
  25. LP (   3)Cl   4                / 26. RY*(   1) C   1                    0.71    0.99    0.024
  25. LP (   3)Cl   4                /126. BD*(   1) C   1 - C   2            3.20    0.68    0.042
  25. LP (   3)Cl   4                /128. BD*(   1) C   1 - H   5            0.92    0.71    0.023
  25. LP (   3)Cl   4                /129. BD*(   1) C   1 - H   6            0.92    0.71    0.023
  25. LP (   3)Cl   4                /130. BD*(   1) C   2 -Cl   3            1.83    0.42    0.025


 Natural Bond Orbitals (Summary):

                                                            Principal Delocalizations
           NBO                        Occupancy    Energy   (geminal,vicinal,remote)
 ====================================================================================
 Molecular unit  1  (C2H4Cl2)
     1. BD (   1) C   1 - C   2          1.99549    -0.69572  60(v),81(v)
     2. BD (   1) C   1 -Cl   4          1.98379    -0.66420  130(v),46(v)
     3. BD (   1) C   1 - H   5          1.98872    -0.55641  132(v),127(g),82(v)
     4. BD (   1) C   1 - H   6          1.98872    -0.55641  131(v),127(g),82(v)
     5. BD (   1) C   2 -Cl   3          1.98379    -0.66420  127(v),29(v)
     6. BD (   1) C   2 - H   7          1.98872    -0.55641  129(v),130(g),61(v)
     7. BD (   1) C   2 - H   8          1.98872    -0.55641  128(v),130(g),61(v)
     8. CR (   1) C   1                  1.99905   -10.12944  127(g),43(v)
     9. CR (   1) C   2                  1.99905   -10.12944  130(g),26(v)
    10. CR (   1)Cl   3                  2.00000  -100.27568   
    11. CR (   2)Cl   3                  1.99981   -10.47321  45(v),43(v)
    12. CR (   3)Cl   3                  1.99995    -7.22870   
    13. CR (   4)Cl   3                  1.99999    -7.22256   
    14. CR (   5)Cl   3                  1.99999    -7.22130   
    15. CR (   1)Cl   4                  2.00000  -100.27568   
    16. CR (   2)Cl   4                  1.99981   -10.47321  28(v),26(v)
    17. CR (   3)Cl   4                  1.99995    -7.22870   
    18. CR (   4)Cl   4                  1.99999    -7.22256   
    19. CR (   5)Cl   4                  1.99999    -7.22130   
    20. LP (   1)Cl   3                  1.99722    -0.92586  45(v),43(v)
    21. LP (   2)Cl   3                  1.97818    -0.32774  131(v),132(v),44(v)
    22. LP (   3)Cl   3                  1.96765    -0.33412  126(v),127(r),131(v),132(v)
                                                    43(v)
    23. LP (   1)Cl   4                  1.99722    -0.92586  28(v),26(v)
    24. LP (   2)Cl   4                  1.97818    -0.32774  128(v),129(v),27(v)
    25. LP (   3)Cl   4                  1.96765    -0.33412  126(v),130(r),128(v),129(v)
                                                    26(v)
    26. RY*(   1) C   1                  0.00471     0.65578   
    27. RY*(   2) C   1                  0.00276     0.75600   
    28. RY*(   3) C   1                  0.00190     0.93131   
    29. RY*(   4) C   1                  0.00135     0.62101   
    30. RY*(   5) C   1                  0.00069     1.64471   
    31. RY*(   6) C   1                  0.00056     1.72912   
    32. RY*(   7) C   1                  0.00020     1.78270   
    33. RY*(   8) C   1                  0.00009     1.34732   
    34. RY*(   9) C   1                  0.00005     2.41082   
    35. RY*(  10) C   1                  0.00001     1.15916   
    36. RY*(  11) C   1                  0.00000     1.96402   
    37. RY*(  12) C   1                  0.00000     1.95341   
    38. RY*(  13) C   1                  0.00001     1.72148   
    39. RY*(  14) C   1                  0.00000    22.56398   
    40. RY*(  15) C   1                  0.00000     0.87593   
    41. RY*(  16) C   1                  0.00000     1.49141   
    42. RY*(  17) C   1                  0.00000     1.76888   
    43. RY*(   1) C   2                  0.00471     0.65578   
    44. RY*(   2) C   2                  0.00276     0.75600   
    45. RY*(   3) C   2                  0.00190     0.93131   
    46. RY*(   4) C   2                  0.00135     0.62101   
    47. RY*(   5) C   2                  0.00069     1.64471   
    48. RY*(   6) C   2                  0.00056     1.72912   
    49. RY*(   7) C   2                  0.00020     1.78270   
    50. RY*(   8) C   2                  0.00009     1.34732   
    51. RY*(   9) C   2                  0.00005     2.41082   
    52. RY*(  10) C   2                  0.00001     1.15916   
    53. RY*(  11) C   2                  0.00000     1.96402   
    54. RY*(  12) C   2                  0.00000     1.95341   
    55. RY*(  13) C   2                  0.00001     1.72148   
    56. RY*(  14) C   2                  0.00000    22.56398   
    57. RY*(  15) C   2                  0.00000     0.87593   
    58. RY*(  16) C   2                  0.00000     1.49141   
    59. RY*(  17) C   2                  0.00000     1.76888   
    60. RY*(   1)Cl   3                  0.00225     0.59069   
    61. RY*(   2)Cl   3                  0.00203     0.65534   
    62. RY*(   3)Cl   3                  0.00053     0.63962   
    63. RY*(   4)Cl   3                  0.00022     0.59380   
    64. RY*(   5)Cl   3                  0.00011     0.45671   
    65. RY*(   6)Cl   3                  0.00007     1.80237   
    66. RY*(   7)Cl   3                  0.00002     0.27614   
    67. RY*(   8)Cl   3                  0.00000    25.50759   
    68. RY*(   9)Cl   3                  0.00000   207.67211   
    69. RY*(  10)Cl   3                  0.00000     0.33458   
    70. RY*(  11)Cl   3                  0.00000     2.50050   
    71. RY*(  12)Cl   3                  0.00000    25.09805   
    72. RY*(  13)Cl   3                  0.00001     0.84651   
    73. RY*(  14)Cl   3                  0.00000    17.31367   
    74. RY*(  15)Cl   3                  0.00001     2.72656   
    75. RY*(  16)Cl   3                  0.00000    25.30576   
    76. RY*(  17)Cl   3                  0.00000     2.66839   
    77. RY*(  18)Cl   3                  0.00000     0.67961   
    78. RY*(  19)Cl   3                  0.00000     0.69800   
    79. RY*(  20)Cl   3                  0.00000     0.75821   
    80. RY*(  21)Cl   3                  0.00000     0.97734   
    81. RY*(   1)Cl   4                  0.00225     0.59069   
    82. RY*(   2)Cl   4                  0.00203     0.65534   
    83. RY*(   3)Cl   4                  0.00053     0.63962   
    84. RY*(   4)Cl   4                  0.00022     0.59380   
    85. RY*(   5)Cl   4                  0.00011     0.45671   
    86. RY*(   6)Cl   4                  0.00007     1.80237   
    87. RY*(   7)Cl   4                  0.00002     0.27614   
    88. RY*(   8)Cl   4                  0.00000    25.50759   
    89. RY*(   9)Cl   4                  0.00000   207.67211   
    90. RY*(  10)Cl   4                  0.00000     0.33458   
    91. RY*(  11)Cl   4                  0.00000     2.50050   
    92. RY*(  12)Cl   4                  0.00000    25.09805   
    93. RY*(  13)Cl   4                  0.00001     0.84651   
    94. RY*(  14)Cl   4                  0.00000    17.31367   
    95. RY*(  15)Cl   4                  0.00001     2.72656   
    96. RY*(  16)Cl   4                  0.00000    25.30576   
    97. RY*(  17)Cl   4                  0.00000     2.66839   
    98. RY*(  18)Cl   4                  0.00000     0.67961   
    99. RY*(  19)Cl   4                  0.00000     0.69800   
   100. RY*(  20)Cl   4                  0.00000     0.75821   
   101. RY*(  21)Cl   4                  0.00000     0.97734   
   102. RY*(   1) H   5                  0.00140     0.51044   
   103. RY*(   2) H   5                  0.00065     0.38717   
   104. RY*(   3) H   5                  0.00020     2.16721   
   105. RY*(   4) H   5                  0.00012     1.76021   
   106. RY*(   5) H   5                  0.00005     2.02533   
   107. RY*(   6) H   5                  0.00005     2.13225   
   108. RY*(   1) H   6                  0.00140     0.51044   
   109. RY*(   2) H   6                  0.00065     0.38717   
   110. RY*(   3) H   6                  0.00020     2.16721   
   111. RY*(   4) H   6                  0.00012     1.76021   
   112. RY*(   5) H   6                  0.00005     2.02533   
   113. RY*(   6) H   6                  0.00005     2.13225   
   114. RY*(   1) H   7                  0.00140     0.51044   
   115. RY*(   2) H   7                  0.00065     0.38717   
   116. RY*(   3) H   7                  0.00020     2.16721   
   117. RY*(   4) H   7                  0.00012     1.76021   
   118. RY*(   5) H   7                  0.00005     2.02533   
   119. RY*(   6) H   7                  0.00005     2.13225   
   120. RY*(   1) H   8                  0.00140     0.51044   
   121. RY*(   2) H   8                  0.00065     0.38717   
   122. RY*(   3) H   8                  0.00020     2.16721   
   123. RY*(   4) H   8                  0.00012     1.76021   
   124. RY*(   5) H   8                  0.00005     2.02533   
   125. RY*(   6) H   8                  0.00005     2.13225   
   126. BD*(   1) C   1 - C   2          0.02030     0.34295   
   127. BD*(   1) C   1 -Cl   4          0.02643     0.08130   
   128. BD*(   1) C   1 - H   5          0.02004     0.37476   
   129. BD*(   1) C   1 - H   6          0.02004     0.37476   
   130. BD*(   1) C   2 -Cl   3          0.02643     0.08130   
   131. BD*(   1) C   2 - H   7          0.02004     0.37476   
   132. BD*(   1) C   2 - H   8          0.02004     0.37476   
       -------------------------------
              Total Lewis   49.80160  ( 99.6032%)
        Valence non-Lewis    0.15332  (  0.3066%)
        Rydberg non-Lewis    0.04508  (  0.0902%)
       -------------------------------
            Total unit  1   50.00000  (100.0000%)
           Charge unit  1    0.00000
 Calling FoFJK, ICntrl=    100127 FMM=F ISym2X=0 I1Cent= 0 IOpClX= 0 NMat=1 NMatS=1 NMatT=0.
 Full mass-weighted force constant matrix:
 Low frequencies ---   -0.0015   -0.0012    0.0029    1.6191    3.9335    6.6559
 Low frequencies ---  117.5037  213.3978  295.7403
 Diagonal vibrational polarizability:
        8.7617392       4.4852215      14.3205818
 Harmonic frequencies (cm**-1), IR intensities (KM/Mole), Raman scattering
 activities (A**4/AMU), depolarization ratios for plane and unpolarized
 incident light, reduced masses (AMU), force constants (mDyne/A),
 and normal coordinates:
                      1                      2                      3
                      A                      A                      A
 Frequencies --    117.5037               213.3978               295.7403
 Red. masses --      4.0697                 5.2978                17.1004
 Frc consts  --      0.0331                 0.1421                 0.8812
 IR Inten    --      7.2701                10.5893                 0.0000
  Atom  AN      X      Y      Z        X      Y      Z        X      Y      Z
     1   6     0.00  -0.00   0.30     0.12   0.34   0.00    -0.20   0.10   0.00
     2   6    -0.00   0.00   0.30     0.12   0.34  -0.00     0.20  -0.10   0.00
     3  17     0.00  -0.00  -0.13    -0.05  -0.14   0.00     0.47   0.02   0.00
     4  17    -0.00   0.00  -0.13    -0.05  -0.14  -0.00    -0.47  -0.02   0.00
     5   1    -0.16   0.11   0.40     0.24   0.35  -0.01    -0.33   0.08  -0.00
     6   1     0.16  -0.11   0.40     0.24   0.35   0.01    -0.33   0.08   0.00
     7   1     0.16  -0.11   0.40     0.24   0.35   0.01     0.33  -0.08  -0.00
     8   1    -0.16   0.11   0.40     0.24   0.35  -0.01     0.33  -0.08   0.00
                      4                      5                      6
                      A                      A                      A
 Frequencies --    698.9943               746.0437               781.4200
 Red. masses --      8.8853                 5.2790                 1.1062
 Frc consts  --      2.5578                 1.7311                 0.3980
 IR Inten    --    112.5790                 0.0000                 2.2887
  Atom  AN      X      Y      Z        X      Y      Z        X      Y      Z
     1   6     0.47  -0.17  -0.00     0.33  -0.22  -0.00    -0.00   0.00  -0.07
     2   6     0.47  -0.17   0.00    -0.33   0.22  -0.00     0.00  -0.00  -0.07
     3  17    -0.18   0.07  -0.00     0.08  -0.06   0.00    -0.00   0.00   0.01
     4  17    -0.18   0.07   0.00    -0.08   0.06   0.00     0.00  -0.00   0.01
     5   1     0.29  -0.15   0.03     0.38  -0.13   0.05     0.04   0.44   0.23
     6   1     0.29  -0.15  -0.03     0.38  -0.13  -0.05    -0.04  -0.44   0.23
     7   1     0.29  -0.15  -0.03    -0.38   0.13   0.05    -0.04  -0.44   0.23
     8   1     0.29  -0.15   0.03    -0.38   0.13  -0.05     0.04   0.44   0.23
                      7                      8                      9
                      A                      A                      A
 Frequencies --   1012.3611              1059.8833              1147.8883
 Red. masses --      1.3675                 4.2139                 1.0428
 Frc consts  --      0.8258                 2.7890                 0.8096
 IR Inten    --      0.0000                 0.0000                 2.0406
  Atom  AN      X      Y      Z        X      Y      Z        X      Y      Z
     1   6     0.00  -0.00   0.12     0.20   0.33   0.00    -0.00  -0.00   0.03
     2   6     0.00  -0.00  -0.12    -0.20  -0.33   0.00     0.00   0.00   0.03
     3  17    -0.00   0.00   0.02     0.01   0.00  -0.00     0.00  -0.00  -0.01
     4  17    -0.00   0.00  -0.02    -0.01  -0.00  -0.00    -0.00   0.00  -0.01
     5   1     0.34  -0.32  -0.13     0.22   0.36   0.00     0.50  -0.00  -0.01
     6   1    -0.34   0.32  -0.13     0.22   0.36  -0.00    -0.50   0.00  -0.01
     7   1     0.34  -0.32   0.13    -0.22  -0.36   0.00    -0.50   0.00  -0.01
     8   1    -0.34   0.32   0.13    -0.22  -0.36  -0.00     0.50  -0.00  -0.01
                     10                     11                     12
                      A                      A                      A
 Frequencies --   1268.7989              1297.5738              1340.7785
 Red. masses --      1.1445                 1.1560                 1.2306
 Frc consts  --      1.0855                 1.1468                 1.3034
 IR Inten    --     39.7491                 0.0000                 0.0000
  Atom  AN      X      Y      Z        X      Y      Z        X      Y      Z
     1   6    -0.07  -0.03  -0.00    -0.00  -0.00   0.08    -0.10   0.00   0.00
     2   6    -0.07  -0.03   0.00    -0.00  -0.00  -0.08     0.10  -0.00  -0.00
     3  17    -0.00   0.01   0.00    -0.00   0.00  -0.00     0.01  -0.01   0.00
     4  17    -0.00   0.01  -0.00    -0.00   0.00   0.00    -0.01   0.01   0.00
     5   1     0.50   0.04  -0.01    -0.43  -0.25  -0.05     0.49   0.00  -0.05
     6   1     0.50   0.04   0.01     0.43   0.25  -0.05     0.49   0.00   0.05
     7   1     0.50   0.04   0.01    -0.43  -0.25   0.05    -0.49  -0.00  -0.05
     8   1     0.50   0.04  -0.01     0.43   0.25   0.05    -0.49  -0.00   0.05
                     13                     14                     15
                      A                      A                      A
 Frequencies --   1490.0135              1490.5535              3097.8552
 Red. masses --      1.1005                 1.0929                 1.0570
 Frc consts  --      1.4395                 1.4307                 5.9767
 IR Inten    --      0.0000                 6.7973                 0.0000
  Atom  AN      X      Y      Z        X      Y      Z        X      Y      Z
     1   6     0.02   0.06   0.00     0.00  -0.06   0.00     0.00  -0.05  -0.00
     2   6    -0.02  -0.06   0.00     0.00  -0.06  -0.00    -0.00   0.05  -0.00
     3  17     0.00  -0.00   0.00     0.00  -0.00   0.00    -0.00  -0.00   0.00
     4  17    -0.00   0.00   0.00     0.00  -0.00  -0.00     0.00   0.00   0.00
     5   1    -0.01  -0.40  -0.30    -0.04   0.39   0.30    -0.04   0.27  -0.42
     6   1    -0.01  -0.40   0.30    -0.04   0.39  -0.30    -0.04   0.27   0.42
     7   1     0.01   0.40  -0.30    -0.04   0.39  -0.30     0.04  -0.27  -0.42
     8   1     0.01   0.40   0.30    -0.04   0.39   0.30     0.04  -0.27   0.42
                     16                     17                     18
                      A                      A                      A
 Frequencies --   3106.1137              3153.2698              3176.3396
 Red. masses --      1.0557                 1.1120                 1.1132
 Frc consts  --      6.0011                 6.5143                 6.6173
 IR Inten    --     14.9359                 0.0000                 3.0005
  Atom  AN      X      Y      Z        X      Y      Z        X      Y      Z
     1   6     0.01  -0.05  -0.00    -0.00   0.00  -0.07    -0.00   0.00  -0.07
     2   6     0.01  -0.05   0.00    -0.00   0.00   0.07     0.00  -0.00  -0.07
     3  17    -0.00   0.00  -0.00     0.00  -0.00  -0.00     0.00  -0.00   0.00
     4  17    -0.00   0.00   0.00    -0.00  -0.00   0.00    -0.00  -0.00   0.00
     5   1    -0.04   0.27  -0.42     0.04  -0.28   0.41     0.04  -0.28   0.41
     6   1    -0.04   0.27   0.42    -0.04   0.28   0.41    -0.04   0.28   0.41
     7   1    -0.04   0.27   0.42     0.04  -0.28  -0.41    -0.04   0.28   0.41
     8   1    -0.04   0.27  -0.42    -0.04   0.28  -0.41     0.04  -0.28   0.41

 -------------------
 - Thermochemistry -
 -------------------
 Temperature   298.150 Kelvin.  Pressure   1.00000 Atm.
 Atom     1 has atomic number  6 and mass  12.00000
 Atom     2 has atomic number  6 and mass  12.00000
 Atom     3 has atomic number 17 and mass  34.96885
 Atom     4 has atomic number 17 and mass  34.96885
 Atom     5 has atomic number  1 and mass   1.00783
 Atom     6 has atomic number  1 and mass   1.00783
 Atom     7 has atomic number  1 and mass   1.00783
 Atom     8 has atomic number  1 and mass   1.00783
 Molecular mass:    97.96901 amu.
 Principal axes and moments of inertia in atomic units:
                           1         2         3
     Eigenvalues --    61.892341226.134591265.18412
           X            0.99998   0.00647   0.00000
           Y           -0.00647   0.99998   0.00000
           Z           -0.00000  -0.00000   1.00000
 This molecule is an asymmetric top.
 Rotational symmetry number  1.
 Rotational temperatures (Kelvin)      1.39943     0.07064     0.06846
 Rotational constants (GHZ):          29.15937     1.47189     1.42647
 Zero-point vibrational energy     152491.1 (Joules/Mol)
                                   36.44626 (Kcal/Mol)
 Warning -- explicit consideration of   3 degrees of freedom as
           vibrations may cause significant error
 Vibrational temperatures:    169.06   307.03   425.50  1005.70  1073.39
          (Kelvin)           1124.29  1456.56  1524.94  1651.56  1825.52
                             1866.92  1929.08  2143.80  2144.57  4457.12
                             4469.00  4536.85  4570.04
 
 Zero-point correction=                           0.058081 (Hartree/Particle)
 Thermal correction to Energy=                    0.063002
 Thermal correction to Enthalpy=                  0.063946
 Thermal correction to Gibbs Free Energy=         0.029059
 Sum of electronic and zero-point Energies=           -999.043422
 Sum of electronic and thermal Energies=              -999.038501
 Sum of electronic and thermal Enthalpies=            -999.037557
 Sum of electronic and thermal Free Energies=         -999.072443
 
                     E (Thermal)             CV                S
                      KCal/Mol        Cal/Mol-Kelvin    Cal/Mol-Kelvin
 Total                   39.534             15.175             73.425
 Electronic               0.000              0.000              0.000
 Translational            0.889              2.981             39.657
 Rotational               0.889              2.981             26.065
 Vibrational             37.757              9.213              7.702
 Vibration     1          0.608              1.935              3.141
 Vibration     2          0.644              1.821              2.014
 Vibration     3          0.690              1.682              1.441
                       Q            Log10(Q)             Ln(Q)
 Total Bot       0.430107D-13        -13.366424        -30.777328
 Total V=0       0.223291D+14         13.348871         30.736912
 Vib (Bot)       0.101737D-25        -25.992521        -59.849990
 Vib (Bot)    1  0.174015D+01          0.240587          0.553972
 Vib (Bot)    2  0.929455D+00         -0.031772         -0.073157
 Vib (Bot)    3  0.644586D+00         -0.190719         -0.439148
 Vib (V=0)       0.528171D+01          0.722774          1.664249
 Vib (V=0)    1  0.231056D+01          0.363717          0.837490
 Vib (V=0)    2  0.155541D+01          0.191844          0.441738
 Vib (V=0)    3  0.131578D+01          0.119182          0.274427
 Electronic      0.100000D+01          0.000000          0.000000
 Translational   0.381142D+08          7.581087         17.456098
 Rotational      0.110920D+06          5.045010         11.616565
 ***** Axes restored to original set *****
 -------------------------------------------------------------------
 Center     Atomic                   Forces (Hartrees/Bohr)
 Number     Number              X              Y              Z
 -------------------------------------------------------------------
      1        6           0.000412510   -0.000213928   -0.000043263
      2        6          -0.000412511    0.000213926    0.000043285
      3       17           0.000004761   -0.000047882   -0.000011326
      4       17          -0.000004764    0.000047880    0.000011329
      5        1          -0.000092998    0.000055132   -0.000020680
      6        1          -0.000094154    0.000040667    0.000040000
      7        1           0.000094136   -0.000040662   -0.000040008
      8        1           0.000093020   -0.000055135    0.000020663
 -------------------------------------------------------------------
 Cartesian Forces:  Max     0.000412511 RMS     0.000142735
 FormGI is forming the generalized inverse of G from B-inverse, IUseBI=4.

 GradGradGradGradGradGradGradGradGradGradGradGradGradGradGradGradGradGrad
 Berny optimization.
 Internal  Forces:  Max     0.000228988 RMS     0.000073566
 Search for a local minimum.
 Step number   1 out of a maximum of    2
 All quantities printed in internal units (Hartrees-Bohrs-Radians)
 Second derivative matrix not updated -- analytic derivatives used.
 ITU=  0
     Eigenvalues ---    0.00363   0.04190   0.04322   0.06103   0.06202
     Eigenvalues ---    0.12391   0.12472   0.12482   0.16989   0.17248
     Eigenvalues ---    0.19246   0.20879   0.24883   0.30771   0.34438
     Eigenvalues ---    0.34576   0.35055   0.35116
 Angle between quadratic step and forces=  21.11 degrees.
 Linear search not attempted -- first point.
 Iteration  1 RMS(Cart)=  0.00041825 RMS(Int)=  0.00000026
 Iteration  2 RMS(Cart)=  0.00000023 RMS(Int)=  0.00000016
 Variable       Old X    -DE/DX   Delta X   Delta X   Delta X     New X
                                 (Linear)    (Quad)   (Total)
    R1        2.86318  -0.00023   0.00000  -0.00123  -0.00123   2.86196
    R2        3.43309  -0.00003   0.00000   0.00017   0.00017   3.43327
    R3        2.05481   0.00007   0.00000   0.00020   0.00020   2.05501
    R4        2.05481   0.00007   0.00000   0.00020   0.00020   2.05501
    R5        3.43309  -0.00003   0.00000   0.00017   0.00017   3.43327
    R6        2.05481   0.00007   0.00000   0.00020   0.00020   2.05501
    R7        2.05481   0.00007   0.00000   0.00020   0.00020   2.05501
    A1        1.90537   0.00005   0.00000   0.00024   0.00024   1.90560
    A2        1.94956   0.00009   0.00000   0.00077   0.00077   1.95033
    A3        1.94956   0.00009   0.00000   0.00077   0.00077   1.95033
    A4        1.86789  -0.00008   0.00000  -0.00064  -0.00064   1.86725
    A5        1.86789  -0.00008   0.00000  -0.00064  -0.00064   1.86725
    A6        1.91987  -0.00009   0.00000  -0.00062  -0.00062   1.91924
    A7        1.90537   0.00005   0.00000   0.00024   0.00024   1.90560
    A8        1.94956   0.00009   0.00000   0.00077   0.00077   1.95033
    A9        1.94956   0.00009   0.00000   0.00077   0.00077   1.95033
   A10        1.86789  -0.00008   0.00000  -0.00064  -0.00064   1.86725
   A11        1.86789  -0.00008   0.00000  -0.00064  -0.00064   1.86725
   A12        1.91987  -0.00009   0.00000  -0.00062  -0.00062   1.91924
    D1        3.14159  -0.00000   0.00000   0.00000   0.00000   3.14159
    D2        1.07933   0.00001   0.00000   0.00017   0.00017   1.07950
    D3       -1.07933  -0.00001   0.00000  -0.00017  -0.00017  -1.07950
    D4        1.07933   0.00001   0.00000   0.00017   0.00017   1.07950
    D5       -0.98293   0.00002   0.00000   0.00033   0.00033  -0.98260
    D6        3.14159   0.00000   0.00000   0.00000   0.00000   3.14159
    D7       -1.07933  -0.00001   0.00000  -0.00017  -0.00017  -1.07950
    D8        3.14159   0.00000   0.00000   0.00000   0.00000   3.14159
    D9        0.98293  -0.00002   0.00000  -0.00033  -0.00033   0.98260
         Item               Value     Threshold  Converged?
 Maximum Force            0.000229     0.000450     YES
 RMS     Force            0.000074     0.000300     YES
 Maximum Displacement     0.000887     0.001800     YES
 RMS     Displacement     0.000418     0.001200     YES
 Predicted change in Energy=-4.790618D-07
 Optimization completed.
    -- Stationary point found.
                           ----------------------------
                           !   Optimized Parameters   !
                           ! (Angstroms and Degrees)  !
 --------------------------                            --------------------------
 ! Name  Definition              Value          Derivative Info.                !
 --------------------------------------------------------------------------------
 ! R1    R(1,2)                  1.5151         -DE/DX =   -0.0002              !
 ! R2    R(1,4)                  1.8167         -DE/DX =    0.0                 !
 ! R3    R(1,5)                  1.0874         -DE/DX =    0.0001              !
 ! R4    R(1,6)                  1.0874         -DE/DX =    0.0001              !
 ! R5    R(2,3)                  1.8167         -DE/DX =    0.0                 !
 ! R6    R(2,7)                  1.0874         -DE/DX =    0.0001              !
 ! R7    R(2,8)                  1.0874         -DE/DX =    0.0001              !
 ! A1    A(2,1,4)              109.1695         -DE/DX =    0.0001              !
 ! A2    A(2,1,5)              111.7015         -DE/DX =    0.0001              !
 ! A3    A(2,1,6)              111.7015         -DE/DX =    0.0001              !
 ! A4    A(4,1,5)              107.022          -DE/DX =   -0.0001              !
 ! A5    A(4,1,6)              107.022          -DE/DX =   -0.0001              !
 ! A6    A(5,1,6)              110.0003         -DE/DX =   -0.0001              !
 ! A7    A(1,2,3)              109.1695         -DE/DX =    0.0001              !
 ! A8    A(1,2,7)              111.7015         -DE/DX =    0.0001              !
 ! A9    A(1,2,8)              111.7015         -DE/DX =    0.0001              !
 ! A10   A(3,2,7)              107.022          -DE/DX =   -0.0001              !
 ! A11   A(3,2,8)              107.022          -DE/DX =   -0.0001              !
 ! A12   A(7,2,8)              110.0003         -DE/DX =   -0.0001              !
 ! D1    D(4,1,2,3)            180.0            -DE/DX =    0.0                 !
 ! D2    D(4,1,2,7)             61.841          -DE/DX =    0.0                 !
 ! D3    D(4,1,2,8)            -61.8411         -DE/DX =    0.0                 !
 ! D4    D(5,1,2,3)             61.841          -DE/DX =    0.0                 !
 ! D5    D(5,1,2,7)            -56.3179         -DE/DX =    0.0                 !
 ! D6    D(5,1,2,8)            180.0            -DE/DX =    0.0                 !
 ! D7    D(6,1,2,3)            -61.8411         -DE/DX =    0.0                 !
 ! D8    D(6,1,2,7)            180.0            -DE/DX =    0.0                 !
 ! D9    D(6,1,2,8)             56.3179         -DE/DX =    0.0                 !
 --------------------------------------------------------------------------------
 GradGradGradGradGradGradGradGradGradGradGradGradGradGradGradGradGradGrad


 ----------------------------------------------------------------------

 Electric dipole moment (input orientation):
 (Debye = 10**-18 statcoulomb cm , SI units = C m)
                  (au)            (Debye)         (10**-30 SI)
   Tot        0.000000D+00      0.000000D+00      0.000000D+00
   x          0.000000D+00      0.000000D+00      0.000000D+00
   y          0.000000D+00      0.000000D+00      0.000000D+00
   z          0.000000D+00      0.000000D+00      0.000000D+00

 Dipole polarizability, Alpha (input orientation).
 (esu units = cm**3 , SI units = C**2 m**2 J**-1)
 Alpha(0;0):
               (au)            (10**-24 esu)      (10**-40 SI)
   iso        0.500463D+02      0.741610D+01      0.825152D+01
   aniso      0.327460D+02      0.485245D+01      0.539908D+01
   xx         0.631692D+02      0.936071D+01      0.104152D+02
   yx         0.135648D+02      0.201009D+01      0.223653D+01
   yy         0.482943D+02      0.715648D+01      0.796266D+01
   zx         0.370744D+01      0.549386D+00      0.611274D+00
   zy         0.271933D+01      0.402963D+00      0.448357D+00
   zz         0.386753D+02      0.573109D+01      0.637670D+01

 ----------------------------------------------------------------------

 Dipole orientation:
     6         -1.24268939          0.65633950          0.27275369
     6          1.24268937         -0.65633948         -0.27275383
    17          3.73475292          1.69467938         -0.49289653
    17         -3.73475298         -1.69467937          0.49289573
     1         -1.76661556          1.94876804         -1.23634415
     1         -1.19682580          1.65424058          2.06839746
     1          1.19682620         -1.65424136         -2.06839715
     1          1.76661523         -1.94876729          1.23634478

 Electric dipole moment (dipole orientation):
 (Debye = 10**-18 statcoulomb cm , SI units = C m)
                  (au)            (Debye)         (10**-30 SI)
   Tot        0.000000D+00      0.000000D+00      0.000000D+00
   x          0.000000D+00      0.000000D+00      0.000000D+00
   y          0.000000D+00      0.000000D+00      0.000000D+00
   z          0.000000D+00      0.000000D+00      0.000000D+00

 Dipole polarizability, Alpha (dipole orientation).
 (esu units = cm**3 , SI units = C**2 m**2 J**-1)
 Alpha(0;0):
               (au)            (10**-24 esu)      (10**-40 SI)
   iso        0.500463D+02      0.741610D+01      0.825152D+01
   aniso      0.327460D+02      0.485245D+01      0.539908D+01
   xx         0.632805D+02      0.937720D+01      0.104335D+02
   yx         0.137325D+02      0.203494D+01      0.226418D+01
   yy         0.484867D+02      0.718498D+01      0.799437D+01
   zx        -0.314224D+01     -0.465632D+00     -0.518085D+00
   zy        -0.142929D+01     -0.211799D+00     -0.235658D+00
   zz         0.383717D+02      0.568610D+01      0.632664D+01

 ----------------------------------------------------------------------
 Unable to Open any file for archive entry.
 1\1\GINC-CCC091\Freq\RB3LYP\6-311++G(d,p)\C2H4Cl2\ROOT\12-Jun-2024\0\\
 #N Geom=AllCheck Guess=TCheck SCRF=Check GenChk RB3LYP/6-311++G(d,p) F
 req\\C(CCl)Cl\\0,1\C,-0.6778210832,0.3317458655,0.0663969971\C,0.67782
 10838,-0.3317458455,-0.06639707\Cl,1.9772798491,0.8975049481,0.2510975
 767\Cl,-1.9772797995,-0.8975048808,-0.2510979944\H,-0.8085784389,1.128
 5125508,-0.6618988171\H,-0.8410681746,0.7153682058,1.0706548097\H,0.84
 10683535,-0.7153686391,-1.0706546689\H,0.8085781998,-1.1285122047,0.66
 18991668\\Version=ES64L-G16RevC.02\State=1-A\HF=-999.1015028\RMSD=3.69
 6e-09\RMSF=1.427e-04\ZeroPoint=0.0580808\Thermal=0.0630017\ETot=-999.0
 385011\HTot=-999.0375569\GTot=-999.0724433\Dipole=0.,0.,0.0000002\Dipo
 leDeriv=0.6049804,0.3359479,0.0887669,0.3075178,0.3387727,0.0523681,0.
 0819874,0.0529012,0.1574986,0.6049804,0.3359479,0.0887668,0.3075178,0.
 3387728,0.052368,0.0819874,0.0529012,0.1574986,-0.5912891,-0.2065717,-
 0.0573967,-0.2464955,-0.3084519,-0.0406575,-0.0669169,-0.0399088,-0.16
 81074,-0.591289,-0.2065717,-0.0573968,-0.2464954,-0.3084519,-0.0406575
 ,-0.066917,-0.0399088,-0.1681074,-0.0068282,-0.0684056,-0.0049349,-0.0
 285278,-0.0400444,0.0369582,-0.0196856,0.0491135,0.0301708,-0.0068632,
 -0.0609706,-0.0264352,-0.0324945,0.0097235,-0.0486688,0.0046152,-0.062
 1059,-0.0195621,-0.0068632,-0.0609706,-0.0264352,-0.0324945,0.0097235,
 -0.0486688,0.0046152,-0.0621059,-0.019562,-0.0068282,-0.0684056,-0.004
 9348,-0.0285279,-0.0400443,0.0369582,-0.0196856,0.0491135,0.0301708\Po
 lar=63.1692283,13.5647712,48.2943358,3.7074381,2.7193323,38.6753062\Qu
 adrupole=-2.9910987,1.1820903,1.8090084,-2.6384056,-0.7203796,-0.21438
 35\PG=C01 [X(C2H4Cl2)]\NImag=0\\0.36357034,-0.08757482,0.46267179,-0.0
 2544799,-0.03605929,0.59792625,-0.16279536,0.07226987,0.01583288,0.363
 57034,0.07226987,-0.10090025,-0.00169497,-0.08757479,0.46267172,0.0158
 3287,-0.00169496,-0.08821619,-0.02544807,-0.03605917,0.59792632,-0.022
 87060,-0.02576982,-0.00657914,-0.06949300,-0.04138042,-0.01051456,0.11
 239471,-0.00473416,-0.00251276,-0.00075409,-0.03833309,-0.07593124,-0.
 01048158,0.08158378,0.10212325,-0.00156299,-0.00114856,-0.00002593,-0.
 00978790,-0.01053873,-0.03768698,0.02114554,0.02058493,0.02751958,-0.0
 6949300,-0.04138042,-0.01051458,-0.02287060,-0.02576982,-0.00657915,-0
 .00921547,-0.00028048,-0.00026551,0.11239471,-0.03833309,-0.07593124,-
 0.01048159,-0.00473416,-0.00251276,-0.00075409,-0.00028048,0.00288224,
 0.00035380,0.08158378,0.10212324,-0.00978791,-0.01053874,-0.03768698,-
 0.00156299,-0.00114856,-0.00002593,-0.00026551,0.00035381,0.00145586,0
 .02114556,0.02058495,0.02751959,-0.04788238,0.02807726,-0.01987787,-0.
 00473749,0.02387527,-0.02147991,0.00146944,0.00005419,0.00025239,-0.00
 713568,-0.02252318,0.00939761,0.06004541,0.03165522,-0.19045908,0.1376
 4028,0.00233706,-0.01013483,0.01017474,-0.00006341,0.00126613,-0.00050
 876,-0.00705569,-0.01591338,0.00621774,-0.02781781,0.20455142,-0.02173
 120,0.13834699,-0.18269839,0.00128581,-0.00349237,0.00404413,-0.000321
 98,-0.00055071,-0.00005434,-0.00223585,-0.00929248,0.00604799,0.026309
 07,-0.14529006,0.18774481,-0.05012515,0.01886151,0.03839661,-0.0056663
 6,0.01164114,0.02967003,0.00146544,0.00012386,-0.00016455,-0.00661484,
 -0.01589093,-0.01901460,0.00238526,-0.00066746,-0.00399385,0.06263941,
 0.02119108,-0.07805397,-0.08415283,0.00318883,-0.00467966,-0.01467227,
 -0.00023863,0.00057124,0.00081849,-0.00679533,-0.01248548,-0.01577894,
 -0.00308567,0.01048596,0.02127749,-0.01605107,0.08435756,0.04165866,-0
 .08497032,-0.29286069,-0.00024724,-0.00044276,-0.00048220,0.00029534,0
 .00086945,0.00064456,-0.00152383,-0.00072934,0.00209926,0.00389112,-0.
 00741020,-0.01708597,-0.04395738,0.09270976,0.30534464,-0.00566635,0.0
 1164114,0.02967002,-0.05012517,0.01886155,0.03839664,-0.00661485,-0.01
 589094,-0.01901460,0.00146544,0.00012386,-0.00016455,0.00106891,-0.000
 50960,-0.00055122,-0.00515268,0.00249254,-0.00038503,0.06263942,0.0031
 8882,-0.00467966,-0.01467227,0.02119112,-0.07805405,-0.08415294,-0.006
 79533,-0.01248549,-0.01577893,-0.00023863,0.00057124,0.00081849,-0.000
 70175,0.00024146,-0.00025808,0.00249254,-0.00043711,0.00005638,-0.0160
 5110,0.08435764,-0.00024724,-0.00044275,-0.00048219,0.04165869,-0.0849
 7043,-0.29286062,-0.00152383,-0.00072934,0.00209926,0.00029534,0.00086
 945,0.00064456,0.00026837,-0.00008296,0.00086561,-0.00038503,0.0000563
 8,0.00147480,-0.04395742,0.09270987,0.30534457,-0.00473750,0.02387528,
 -0.02147992,-0.04788236,0.02807720,-0.01987784,-0.00713569,-0.02252317
 ,0.00939761,0.00146944,0.00005419,0.00025239,-0.00521348,0.00212169,0.
 00123922,0.00106891,-0.00070175,0.00026837,0.00238526,-0.00308567,0.00
 389112,0.06004541,0.00233707,-0.01013484,0.01017475,0.03165516,-0.1904
 5893,0.13764026,-0.00705569,-0.01591337,0.00621774,-0.00006341,0.00126
 613,-0.00050876,0.00212169,-0.00003768,-0.00074077,-0.00050960,0.00024
 146,-0.00008296,-0.00066746,0.01048596,-0.00741022,-0.02781777,0.20455
 127,0.00128581,-0.00349236,0.00404412,-0.02173118,0.13834698,-0.182698
 52,-0.00223585,-0.00929247,0.00604799,-0.00032198,-0.00055071,-0.00005
 434,0.00123922,-0.00074077,0.00113617,-0.00055122,-0.00025809,0.000865
 61,-0.00399384,0.02127748,-0.01708598,0.02630904,-0.14529005,0.1877449
 4\\-0.00041251,0.00021393,0.00004326,0.00041251,-0.00021393,-0.0000432
 8,-0.00000476,0.00004788,0.00001133,0.00000476,-0.00004788,-0.00001133
 ,0.00009300,-0.00005513,0.00002068,0.00009415,-0.00004067,-0.00004000,
 -0.00009414,0.00004066,0.00004001,-0.00009302,0.00005514,-0.00002066\\
 \@
 The archive entry for this job was punched.


 YOU KNOW YOU'RE A TEACHER WHEN YOU SAY 2, WRITE 3, AND MEAN 4.
 -- RONALD ANSTROM, HIGH SCHOOL TEACHER, UNDERWOOD, N.D. 1974
 Job cpu time:       0 days  0 hours  1 minutes 52.5 seconds.
 Elapsed time:       0 days  0 hours  0 minutes 15.9 seconds.
 File lengths (MBytes):  RWF=     22 Int=      0 D2E=      0 Chk=      3 Scr=      1
 Normal termination of Gaussian 16 at Wed Jun 12 21:54:52 2024.
