 Entering Gaussian System, Link 0=/apl/gaussian/16c02/g16/._.g16
 Initial command:
 /apl/gaussian/16c02/g16/l1.exe "/lwork/users/eso/6527350.ccpbs1/gaussian/Gau-1605695.inp" -scrdir="/lwork/users/eso/6527350.ccpbs1/gaussian/"
 Default CPUs for threads: 24,25,26,27,28,29,30,31
 Default is to use a total of   8 processors:
                                8 via shared-memory
                                1 via Linda
 Entering Link 1 = /apl/gaussian/16c02/g16/l1.exe PID=   1605696.
  
 Copyright (c) 1988-2021, Gaussian, Inc.  All Rights Reserved.
  
 This is part of the Gaussian(R) 16 program.  It is based on
 the Gaussian(R) 09 system (copyright 2009, Gaussian, Inc.),
 the Gaussian(R) 03 system (copyright 2003, Gaussian, Inc.),
 the Gaussian(R) 98 system (copyright 1998, Gaussian, Inc.),
 the Gaussian(R) 94 system (copyright 1995, Gaussian, Inc.),
 the Gaussian 92(TM) system (copyright 1992, Gaussian, Inc.),
 the Gaussian 90(TM) system (copyright 1990, Gaussian, Inc.),
 the Gaussian 88(TM) system (copyright 1988, Gaussian, Inc.),
 the Gaussian 86(TM) system (copyright 1986, Carnegie Mellon
 University), and the Gaussian 82(TM) system (copyright 1983,
 Carnegie Mellon University). Gaussian is a federally registered
 trademark of Gaussian, Inc.
  
 This software contains proprietary and confidential information,
 including trade secrets, belonging to Gaussian, Inc.
  
 This software is provided under written license and may be
 used, copied, transmitted, or stored only in accord with that
 written license.
  
 The following legend is applicable only to US Government
 contracts under FAR:
  
                    RESTRICTED RIGHTS LEGEND
  
 Use, reproduction and disclosure by the US Government is
 subject to restrictions as set forth in subparagraphs (a)
 and (c) of the Commercial Computer Software - Restricted
 Rights clause in FAR 52.227-19.
  
 Gaussian, Inc.
 340 Quinnipiac St., Bldg. 40, Wallingford CT 06492
  
  
 ---------------------------------------------------------------
 Warning -- This program may not be used in any manner that
 competes with the business of Gaussian, Inc. or will provide
 assistance to any competitor of Gaussian, Inc.  The licensee
 of this program is prohibited from giving any competitor of
 Gaussian, Inc. access to this program.  By using this program,
 the user acknowledges that Gaussian, Inc. is engaged in the
 business of creating and licensing software in the field of
 computational chemistry and represents and warrants to the
 licensee that it is not a competitor of Gaussian, Inc. and that
 it will not use this program in any manner prohibited above.
 ---------------------------------------------------------------
  

 Cite this work as:
 Gaussian 16, Revision C.02,
 M. J. Frisch, G. W. Trucks, H. B. Schlegel, G. E. Scuseria, 
 M. A. Robb, J. R. Cheeseman, G. Scalmani, V. Barone, 
 G. A. Petersson, H. Nakatsuji, X. Li, M. Caricato, A. V. Marenich, 
 J. Bloino, B. G. Janesko, R. Gomperts, B. Mennucci, H. P. Hratchian, 
 J. V. Ortiz, A. F. Izmaylov, J. L. Sonnenberg, D. Williams-Young, 
 F. Ding, F. Lipparini, F. Egidi, J. Goings, B. Peng, A. Petrone, 
 T. Henderson, D. Ranasinghe, V. G. Zakrzewski, J. Gao, N. Rega, 
 G. Zheng, W. Liang, M. Hada, M. Ehara, K. Toyota, R. Fukuda, 
 J. Hasegawa, M. Ishida, T. Nakajima, Y. Honda, O. Kitao, H. Nakai, 
 T. Vreven, K. Throssell, J. A. Montgomery, Jr., J. E. Peralta, 
 F. Ogliaro, M. J. Bearpark, J. J. Heyd, E. N. Brothers, K. N. Kudin, 
 V. N. Staroverov, T. A. Keith, R. Kobayashi, J. Normand, 
 K. Raghavachari, A. P. Rendell, J. C. Burant, S. S. Iyengar, 
 J. Tomasi, M. Cossi, J. M. Millam, M. Klene, C. Adamo, R. Cammi, 
 J. W. Ochterski, R. L. Martin, K. Morokuma, O. Farkas, 
 J. B. Foresman, and D. J. Fox, Gaussian, Inc., Wallingford CT, 2019.
 
 ******************************************
 Gaussian 16:  ES64L-G16RevC.02  7-Dec-2021
                12-Jun-2024 
 ******************************************
 %chk=C1=CC=C(C=C1)Cl.chk
 %mem=9600MB
 SetSPE:  set environment variable "OMP_PROC_BIND" = "true"
 SetSPE:  set environment variable "OMP_PLACES" = "{24},{25},{26},{27},{28},{29},{30},{31}"
 --------------------------------------------------------
 # opt freq b3lyp/6-311++g(d,p) pop=nbo geom=connectivity
 --------------------------------------------------------
 1/18=20,19=15,26=3,38=1,57=2/1,3;
 2/9=110,12=2,17=6,18=5,40=1/2;
 3/5=4,6=6,7=1111,11=2,25=1,30=1,71=1,74=-5/1,2,3;
 4//1;
 5/5=2,38=5/2;
 6/7=2,8=2,9=2,10=2,28=1,40=1/1,7;
 7//1,2,3,16;
 1/18=20,19=15,26=3/3(2);
 2/9=110/2;
 99//99;
 2/9=110/2;
 3/5=4,6=6,7=1111,11=2,25=1,30=1,71=1,74=-5/1,2,3;
 4/5=5,16=3,69=1/1;
 5/5=2,38=5/2;
 7//1,2,3,16;
 1/18=20,19=15,26=3/3(-5);
 2/9=110/2;
 6/7=2,8=2,9=2,10=2,19=2,28=1,40=1/1,7;
 99/9=1/99;
 ---------------
 C1=CC=C(C=C1)Cl
 ---------------
 Symbolic Z-matrix:
 Charge =  0 Multiplicity = 1
 C                    -1.37166   0.41985  -0.18075 
 C                    -1.07056  -0.93578  -0.04214 
 C                     0.25334  -1.34202   0.1324 
 C                     1.27021  -0.3888    0.16739 
 C                     0.97354   0.96649   0.02926 
 C                    -0.35093   1.37088  -0.14519 
 Cl                    2.90284  -0.88853   0.38258 
 H                    -2.40334   0.73564  -0.31669 
 H                    -1.86677  -1.67544  -0.07006 
 H                     0.48447  -2.39817   0.24002 
 H                     1.76592   1.70935   0.05651 
 H                    -0.58705   2.42653  -0.25331 
 

 GradGradGradGradGradGradGradGradGradGradGradGradGradGradGradGradGradGrad
 Berny optimization.
 Initialization pass.
                           ----------------------------
                           !    Initial Parameters    !
                           ! (Angstroms and Degrees)  !
 --------------------------                            --------------------------
 ! Name  Definition              Value          Derivative Info.                !
 --------------------------------------------------------------------------------
 ! R1    R(1,2)                  1.3956         estimate D2E/DX2                !
 ! R2    R(1,6)                  1.3956         estimate D2E/DX2                !
 ! R3    R(1,8)                  1.0875         estimate D2E/DX2                !
 ! R4    R(2,3)                  1.3958         estimate D2E/DX2                !
 ! R5    R(2,9)                  1.0871         estimate D2E/DX2                !
 ! R6    R(3,4)                  1.3942         estimate D2E/DX2                !
 ! R7    R(3,10)                 1.0865         estimate D2E/DX2                !
 ! R8    R(4,5)                  1.3942         estimate D2E/DX2                !
 ! R9    R(4,7)                  1.7209         estimate D2E/DX2                !
 ! R10   R(5,6)                  1.3958         estimate D2E/DX2                !
 ! R11   R(5,11)                 1.0865         estimate D2E/DX2                !
 ! R12   R(6,12)                 1.0871         estimate D2E/DX2                !
 ! A1    A(2,1,6)              120.1077         estimate D2E/DX2                !
 ! A2    A(2,1,8)              119.9461         estimate D2E/DX2                !
 ! A3    A(6,1,8)              119.9461         estimate D2E/DX2                !
 ! A4    A(1,2,3)              119.9858         estimate D2E/DX2                !
 ! A5    A(1,2,9)              120.0228         estimate D2E/DX2                !
 ! A6    A(3,2,9)              119.9915         estimate D2E/DX2                !
 ! A7    A(2,3,4)              119.7314         estimate D2E/DX2                !
 ! A8    A(2,3,10)             119.8072         estimate D2E/DX2                !
 ! A9    A(4,3,10)             120.4614         estimate D2E/DX2                !
 ! A10   A(3,4,5)              120.4579         estimate D2E/DX2                !
 ! A11   A(3,4,7)              119.771          estimate D2E/DX2                !
 ! A12   A(5,4,7)              119.771          estimate D2E/DX2                !
 ! A13   A(4,5,6)              119.7314         estimate D2E/DX2                !
 ! A14   A(4,5,11)             120.4614         estimate D2E/DX2                !
 ! A15   A(6,5,11)             119.8073         estimate D2E/DX2                !
 ! A16   A(1,6,5)              119.9858         estimate D2E/DX2                !
 ! A17   A(1,6,12)             120.0227         estimate D2E/DX2                !
 ! A18   A(5,6,12)             119.9915         estimate D2E/DX2                !
 ! D1    D(6,1,2,3)              0.0009         estimate D2E/DX2                !
 ! D2    D(6,1,2,9)           -179.9992         estimate D2E/DX2                !
 ! D3    D(8,1,2,3)           -179.9992         estimate D2E/DX2                !
 ! D4    D(8,1,2,9)              0.0007         estimate D2E/DX2                !
 ! D5    D(2,1,6,5)             -0.0007         estimate D2E/DX2                !
 ! D6    D(2,1,6,12)           179.9995         estimate D2E/DX2                !
 ! D7    D(8,1,6,5)            179.9994         estimate D2E/DX2                !
 ! D8    D(8,1,6,12)            -0.0004         estimate D2E/DX2                !
 ! D9    D(1,2,3,4)              0.0            estimate D2E/DX2                !
 ! D10   D(1,2,3,10)           179.9998         estimate D2E/DX2                !
 ! D11   D(9,2,3,4)           -179.9999         estimate D2E/DX2                !
 ! D12   D(9,2,3,10)            -0.0001         estimate D2E/DX2                !
 ! D13   D(2,3,4,5)             -0.0011         estimate D2E/DX2                !
 ! D14   D(2,3,4,7)            179.9982         estimate D2E/DX2                !
 ! D15   D(10,3,4,5)           179.9991         estimate D2E/DX2                !
 ! D16   D(10,3,4,7)            -0.0015         estimate D2E/DX2                !
 ! D17   D(3,4,5,6)              0.0013         estimate D2E/DX2                !
 ! D18   D(3,4,5,11)          -179.9991         estimate D2E/DX2                !
 ! D19   D(7,4,5,6)           -179.9981         estimate D2E/DX2                !
 ! D20   D(7,4,5,11)             0.0015         estimate D2E/DX2                !
 ! D21   D(4,5,6,1)             -0.0004         estimate D2E/DX2                !
 ! D22   D(4,5,6,12)           179.9994         estimate D2E/DX2                !
 ! D23   D(11,5,6,1)          -179.9999         estimate D2E/DX2                !
 ! D24   D(11,5,6,12)           -0.0002         estimate D2E/DX2                !
 --------------------------------------------------------------------------------
 Trust Radius=3.00D-01 FncErr=1.00D-07 GrdErr=1.00D-06 EigMax=2.50D+02 EigMin=1.00D-04
 Number of steps in this run=     64 maximum allowed number of steps=    100.
 GradGradGradGradGradGradGradGradGradGradGradGradGradGradGradGradGradGrad

                          Input orientation:                          
 ---------------------------------------------------------------------
 Center     Atomic      Atomic             Coordinates (Angstroms)
 Number     Number       Type             X           Y           Z
 ---------------------------------------------------------------------
      1          6           0       -1.371659    0.419850   -0.180751
      2          6           0       -1.070557   -0.935780   -0.042142
      3          6           0        0.253336   -1.342018    0.132396
      4          6           0        1.270212   -0.388798    0.167389
      5          6           0        0.973537    0.966485    0.029262
      6          6           0       -0.350932    1.370882   -0.145191
      7         17           0        2.902838   -0.888527    0.382579
      8          1           0       -2.403341    0.735638   -0.316690
      9          1           0       -1.866767   -1.675441   -0.070064
     10          1           0        0.484465   -2.398168    0.240015
     11          1           0        1.765916    1.709350    0.056508
     12          1           0       -0.587049    2.426527   -0.253312
 ---------------------------------------------------------------------
                    Distance matrix (angstroms):
                    1          2          3          4          5
     1  C    0.000000
     2  C    1.395567   0.000000
     3  C    2.417199   1.395774   0.000000
     4  C    2.784708   2.412942   1.394234   0.000000
     5  C    2.417200   2.793211   2.420437   1.394234   0.000000
     6  C    1.395568   2.418505   2.793210   2.412941   1.395774
     7  Cl   4.505609   3.996309   2.699649   1.720902   2.699649
     8  H    1.087460   2.155303   3.402392   3.872168   3.402393
     9  H    2.155836   1.087120   2.155690   3.398892   3.880330
    10  H    3.400510   2.153204   1.086488   2.158759   3.406538
    11  H    3.400512   3.879693   3.406538   2.158759   1.086488
    12  H    2.155836   3.403451   3.880329   3.398891   2.155689
                    6          7          8          9         10
     6  C    0.000000
     7  Cl   3.996308   0.000000
     8  H    2.155303   5.593069   0.000000
     9  H    3.403452   4.855229   2.482346   0.000000
    10  H    3.879692   2.854447   4.297684   2.479269   0.000000
    11  H    2.153204   2.854448   4.297686   4.966811   4.306680
    12  H    1.087120   4.855229   2.482346   4.300860   4.966810
                   11         12
    11  H    0.000000
    12  H    2.479270   0.000000
 Stoichiometry    C6H5Cl
 Framework group  C1[X(C6H5Cl)]
 Deg. of freedom    30
 Full point group                 C1      NOp   1
 Largest Abelian subgroup         C1      NOp   1
 Largest concise Abelian subgroup C1      NOp   1
                         Standard orientation:                         
 ---------------------------------------------------------------------
 Center     Atomic      Atomic             Coordinates (Angstroms)
 Number     Number       Type             X           Y           Z
 ---------------------------------------------------------------------
      1          6           0        2.262997   -0.000000   -0.000018
      2          6           0        1.566350   -1.209252    0.000000
      3          6           0        0.170576   -1.210218    0.000017
      4          6           0       -0.521711    0.000000    0.000014
      5          6           0        0.170575    1.210219    0.000019
      6          6           0        1.566349    1.209252   -0.000001
      7         17           0       -2.242613   -0.000000   -0.000012
      8          1           0        3.350457   -0.000000   -0.000044
      9          1           0        2.110420   -2.150430    0.000000
     10          1           0       -0.368847   -2.153340    0.000027
     11          1           0       -0.368848    2.153341    0.000031
     12          1           0        2.110420    2.150430   -0.000008
 ---------------------------------------------------------------------
 Rotational constants (GHZ):           5.6839425           1.5792115           1.2358470
 Standard basis: 6-311++G(d,p) (5D, 7F)
 There are   204 symmetry adapted cartesian basis functions of A   symmetry.
 There are   197 symmetry adapted basis functions of A   symmetry.
   197 basis functions,   314 primitive gaussians,   204 cartesian basis functions
    29 alpha electrons       29 beta electrons
       nuclear repulsion energy       315.9875351887 Hartrees.
 NAtoms=   12 NActive=   12 NUniq=   12 SFac= 1.00D+00 NAtFMM=   60 NAOKFM=F Big=F
 Integral buffers will be    131072 words long.
 Raffenetti 2 integral format.
 Two-electron integral symmetry is turned on.
 One-electron integrals computed using PRISM.
 NBasis=   197 RedAO= T EigKep=  1.12D-06  NBF=   197
 NBsUse=   197 1.00D-06 EigRej= -1.00D+00 NBFU=   197
 ExpMin= 3.60D-02 ExpMax= 1.06D+05 ExpMxC= 3.62D+03 IAcc=3 IRadAn=         5 AccDes= 0.00D+00
 Harris functional with IExCor=  402 and IRadAn=       5 diagonalized for initial guess.
 HarFok:  IExCor=  402 AccDes= 0.00D+00 IRadAn=         5 IDoV= 1 UseB2=F ITyADJ=14
 ICtDFT=  3500011 ScaDFX=  1.000000  1.000000  1.000000  1.000000
 FoFCou: FMM=F IPFlag=           0 FMFlag=      100000 FMFlg1=           0
         NFxFlg=           0 DoJE=T BraDBF=F KetDBF=T FulRan=T
         wScrn=  0.000000 ICntrl=       500 IOpCl=  0 I1Cent=   200000004 NGrid=           0
         NMat0=    1 NMatS0=      1 NMatT0=    0 NMatD0=    1 NMtDS0=    0 NMtDT0=    0
 Petite list used in FoFCou.
 Keep R1 ints in memory in canonical form, NReq=198470495.
 Requested convergence on RMS density matrix=1.00D-08 within 128 cycles.
 Requested convergence on MAX density matrix=1.00D-06.
 Requested convergence on             energy=1.00D-06.
 No special actions if energy rises.
 SCF Done:  E(RB3LYP) =  -691.933501315     A.U. after   13 cycles
            NFock= 13  Conv=0.68D-08     -V/T= 2.0031

 **********************************************************************

            Population analysis using the SCF Density.

 **********************************************************************

 Orbital symmetries:
       Occupied  (A) (A) (A) (A) (A) (A) (A) (A) (A) (A) (A) (A)
                 (A) (A) (A) (A) (A) (A) (A) (A) (A) (A) (A) (A)
                 (A) (A) (A) (A) (A)
       Virtual   (A) (A) (A) (A) (A) (A) (A) (A) (A) (A) (A) (A)
                 (A) (A) (A) (A) (A) (A) (A) (A) (A) (A) (A) (A)
                 (A) (A) (A) (A) (A) (A) (A) (A) (A) (A) (A) (A)
                 (A) (A) (A) (A) (A) (A) (A) (A) (A) (A) (A) (A)
                 (A) (A) (A) (A) (A) (A) (A) (A) (A) (A) (A) (A)
                 (A) (A) (A) (A) (A) (A) (A) (A) (A) (A) (A) (A)
                 (A) (A) (A) (A) (A) (A) (A) (A) (A) (A) (A) (A)
                 (A) (A) (A) (A) (A) (A) (A) (A) (A) (A) (A) (A)
                 (A) (A) (A) (A) (A) (A) (A) (A) (A) (A) (A) (A)
                 (A) (A) (A) (A) (A) (A) (A) (A) (A) (A) (A) (A)
                 (A) (A) (A) (A) (A) (A) (A) (A) (A) (A) (A) (A)
                 (A) (A) (A) (A) (A) (A) (A) (A) (A) (A) (A) (A)
                 (A) (A) (A) (A) (A) (A) (A) (A) (A) (A) (A) (A)
                 (A) (A) (A) (A) (A) (A) (A) (A) (A) (A) (A) (A)
 The electronic state is 1-A.
 Alpha  occ. eigenvalues -- -101.55791 -10.24333 -10.19379 -10.19377 -10.19282
 Alpha  occ. eigenvalues --  -10.19279 -10.18880  -9.47326  -7.23771  -7.22810
 Alpha  occ. eigenvalues --   -7.22770  -0.90473  -0.84744  -0.76689  -0.74220
 Alpha  occ. eigenvalues --   -0.62814  -0.60979  -0.53433  -0.47935  -0.47750
 Alpha  occ. eigenvalues --   -0.44242  -0.44178  -0.40654  -0.37268  -0.37087
 Alpha  occ. eigenvalues --   -0.34380  -0.32076  -0.27340  -0.25503
 Alpha virt. eigenvalues --   -0.03099  -0.02937  -0.01081   0.00709   0.01147
 Alpha virt. eigenvalues --    0.01935   0.03367   0.04159   0.05405   0.05620
 Alpha virt. eigenvalues --    0.07968   0.08110   0.08468   0.08575   0.10714
 Alpha virt. eigenvalues --    0.11564   0.11576   0.11603   0.12413   0.12735
 Alpha virt. eigenvalues --    0.12784   0.13339   0.13519   0.13630   0.14117
 Alpha virt. eigenvalues --    0.14778   0.15505   0.17818   0.17966   0.18832
 Alpha virt. eigenvalues --    0.19700   0.21246   0.21426   0.22704   0.24224
 Alpha virt. eigenvalues --    0.25458   0.26195   0.27342   0.27441   0.28310
 Alpha virt. eigenvalues --    0.28471   0.30231   0.32781   0.33979   0.34762
 Alpha virt. eigenvalues --    0.34800   0.44394   0.45852   0.46019   0.47482
 Alpha virt. eigenvalues --    0.48358   0.52696   0.53301   0.54390   0.54759
 Alpha virt. eigenvalues --    0.54977   0.56339   0.57696   0.58009   0.59848
 Alpha virt. eigenvalues --    0.60376   0.60576   0.66096   0.67427   0.70933
 Alpha virt. eigenvalues --    0.71235   0.72852   0.76235   0.77497   0.81942
 Alpha virt. eigenvalues --    0.83389   0.83610   0.84399   0.85793   0.86824
 Alpha virt. eigenvalues --    0.87132   0.87564   0.87678   0.88367   0.93347
 Alpha virt. eigenvalues --    0.96074   0.98079   0.99527   1.00120   1.03819
 Alpha virt. eigenvalues --    1.06430   1.10386   1.12296   1.16875   1.19000
 Alpha virt. eigenvalues --    1.30087   1.31723   1.37635   1.46818   1.50397
 Alpha virt. eigenvalues --    1.51311   1.55330   1.55608   1.55862   1.61330
 Alpha virt. eigenvalues --    1.63748   1.63799   1.67988   1.71470   1.72669
 Alpha virt. eigenvalues --    1.75922   1.81752   1.86332   1.90627   1.90905
 Alpha virt. eigenvalues --    1.92038   1.92988   1.94135   1.98600   1.99690
 Alpha virt. eigenvalues --    2.02845   2.06420   2.06467   2.23491   2.25966
 Alpha virt. eigenvalues --    2.30659   2.32390   2.39838   2.41499   2.42329
 Alpha virt. eigenvalues --    2.43110   2.51955   2.55199   2.61068   2.63682
 Alpha virt. eigenvalues --    2.64449   2.69111   2.70702   2.73313   2.74205
 Alpha virt. eigenvalues --    2.77652   2.77674   2.77920   2.82146   2.83871
 Alpha virt. eigenvalues --    2.86940   2.87295   2.92636   3.06175   3.11274
 Alpha virt. eigenvalues --    3.21166   3.31795   3.34479   3.46503   3.48168
 Alpha virt. eigenvalues --    3.60870   3.78854   3.97610   4.03509   4.12010
 Alpha virt. eigenvalues --    4.13230   4.82415   9.78639  23.51940  23.89992
 Alpha virt. eigenvalues --   23.95381  24.04759  24.07362  24.16813  25.82811
 Alpha virt. eigenvalues --   26.13965  26.64536 215.77736
          Condensed to atoms (all electrons):
               1          2          3          4          5          6
     1  C    5.778598   0.311993   0.270527  -1.307651   0.270533   0.311994
     2  C    0.311993   6.178134   0.700396  -0.319577  -1.169547   0.328407
     3  C    0.270527   0.700396  11.966384  -1.318177  -4.589620  -1.169543
     4  C   -1.307651  -0.319577  -1.318177  11.213814  -1.318180  -0.319580
     5  C    0.270533  -1.169547  -4.589620  -1.318180  11.966385   0.700396
     6  C    0.311994   0.328407  -1.169543  -0.319580   0.700396   6.178132
     7  Cl   0.055059   0.090343   0.063327  -0.844196   0.063327   0.090343
     8  H    0.382949  -0.030491  -0.011694   0.022000  -0.011694  -0.030491
     9  H   -0.011400   0.354817  -0.055708   0.016195   0.060207  -0.033289
    10  H    0.033145  -0.027630   0.578492  -0.180105  -0.104566  -0.005462
    11  H    0.033145  -0.005462  -0.104566  -0.180104   0.578491  -0.027629
    12  H   -0.011400  -0.033290   0.060207   0.016195  -0.055708   0.354816
               7          8          9         10         11         12
     1  C    0.055059   0.382949  -0.011400   0.033145   0.033145  -0.011400
     2  C    0.090343  -0.030491   0.354817  -0.027630  -0.005462  -0.033290
     3  C    0.063327  -0.011694  -0.055708   0.578492  -0.104566   0.060207
     4  C   -0.844196   0.022000   0.016195  -0.180105  -0.180104   0.016195
     5  C    0.063327  -0.011694   0.060207  -0.104566   0.578491  -0.055708
     6  C    0.090343  -0.030491  -0.033289  -0.005462  -0.027629   0.354816
     7  Cl  17.155443   0.000805  -0.005056   0.018847   0.018847  -0.005056
     8  H    0.000805   0.533482  -0.006213  -0.000323  -0.000323  -0.006213
     9  H   -0.005056  -0.006213   0.528406  -0.015515   0.002320  -0.003496
    10  H    0.018847  -0.000323  -0.015515   0.533527  -0.003094   0.002320
    11  H    0.018847  -0.000323   0.002320  -0.003094   0.533527  -0.015515
    12  H   -0.005056  -0.006213  -0.003496   0.002320  -0.015515   0.528406
 Mulliken charges:
               1
     1  C   -0.117490
     2  C   -0.378093
     3  C   -0.390028
     4  C    0.519366
     5  C   -0.390026
     6  C   -0.378093
     7  Cl   0.297967
     8  H    0.158205
     9  H    0.168733
    10  H    0.170363
    11  H    0.170363
    12  H    0.168733
 Sum of Mulliken charges =  -0.00000
 Mulliken charges with hydrogens summed into heavy atoms:
               1
     1  C    0.040715
     2  C   -0.209360
     3  C   -0.219665
     4  C    0.519366
     5  C   -0.219663
     6  C   -0.209360
     7  Cl   0.297967
 Electronic spatial extent (au):  <R**2>=            896.4937
 Charge=             -0.0000 electrons
 Dipole moment (field-independent basis, Debye):
    X=              1.6905    Y=              0.0000    Z=             -0.0000  Tot=              1.6905
 Quadrupole moment (field-independent basis, Debye-Ang):
   XX=            -46.3729   YY=            -42.7367   ZZ=            -51.8360
   XY=             -0.0000   XZ=             -0.0001   YZ=             -0.0000
 Traceless Quadrupole moment (field-independent basis, Debye-Ang):
   XX=              0.6089   YY=              4.2452   ZZ=             -4.8541
   XY=             -0.0000   XZ=             -0.0001   YZ=             -0.0000
 Octapole moment (field-independent basis, Debye-Ang**2):
  XXX=              3.4444  YYY=             -0.0000  ZZZ=             -0.0001  XYY=              1.2234
  XXY=             -0.0000  XXZ=             -0.0005  XZZ=             -7.1564  YZZ=             -0.0000
  YYZ=              0.0001  XYZ=             -0.0000
 Hexadecapole moment (field-independent basis, Debye-Ang**3):
 XXXX=           -791.2076 YYYY=           -281.7509 ZZZZ=            -62.3003 XXXY=             -0.0000
 XXXZ=             -0.0007 YYYX=             -0.0000 YYYZ=             -0.0001 ZZZX=              0.0001
 ZZZY=             -0.0000 XXYY=           -182.9159 XXZZ=           -163.7942 YYZZ=            -69.2317
 XXYZ=             -0.0001 YYXZ=             -0.0001 ZZXY=             -0.0000
 N-N= 3.159875351887D+02 E-N=-2.263130542245D+03  KE= 6.897959283717D+02
 ******************************Gaussian NBO Version 3.1******************************
             N A T U R A L   A T O M I C   O R B I T A L   A N D
          N A T U R A L   B O N D   O R B I T A L   A N A L Y S I S
 ******************************Gaussian NBO Version 3.1******************************
       /RESON  / : Allow strongly delocalized NBO set

 Analyzing the SCF density

 Job title: C1=CC=C(C=C1)Cl                                                 

 Storage needed:    117425 in NPA,    156001 in NBO (1258290384 available)
 GSVD:  LWork=        9049 too small for GESVD, short by       49391 words or       49391 for optimal perf.


 NATURAL POPULATIONS:  Natural atomic orbital occupancies 
                                                          
   NAO  Atom  No  lang   Type(AO)    Occupancy      Energy
 ----------------------------------------------------------
     1    C    1  S      Cor( 1S)     1.99915     -10.04315
     2    C    1  S      Val( 2S)     0.95392      -0.17563
     3    C    1  S      Ryd( 3S)     0.00136       0.79937
     4    C    1  S      Ryd( 4S)     0.00007       1.16560
     5    C    1  S      Ryd( 5S)     0.00000      22.59138
     6    C    1  px     Val( 2p)     1.17322      -0.06104
     7    C    1  px     Ryd( 4p)     0.00668       1.04970
     8    C    1  px     Ryd( 3p)     0.00016       0.50079
     9    C    1  px     Ryd( 5p)     0.00005       3.06072
    10    C    1  py     Val( 2p)     1.06121      -0.05778
    11    C    1  py     Ryd( 4p)     0.00462       0.75815
    12    C    1  py     Ryd( 3p)     0.00050       0.37571
    13    C    1  py     Ryd( 5p)     0.00014       3.07011
    14    C    1  pz     Val( 2p)     1.00209      -0.11938
    15    C    1  pz     Ryd( 4p)     0.00116       0.50386
    16    C    1  pz     Ryd( 3p)     0.00024       0.29585
    17    C    1  pz     Ryd( 5p)     0.00002       2.67850
    18    C    1  dxy    Ryd( 3d)     0.00066       2.57238
    19    C    1  dxz    Ryd( 3d)     0.00039       1.59757
    20    C    1  dyz    Ryd( 3d)     0.00048       1.66333
    21    C    1  dx2y2  Ryd( 3d)     0.00085       2.47187
    22    C    1  dz2    Ryd( 3d)     0.00040       2.05103
 
    23    C    2  S      Cor( 1S)     1.99915     -10.04721
    24    C    2  S      Val( 2S)     0.95394      -0.17757
    25    C    2  S      Ryd( 3S)     0.00143       0.75718
    26    C    2  S      Ryd( 4S)     0.00009       0.98191
    27    C    2  S      Ryd( 5S)     0.00000      22.77682
    28    C    2  px     Val( 2p)     1.08024      -0.05738
    29    C    2  px     Ryd( 4p)     0.00503       0.85705
    30    C    2  px     Ryd( 3p)     0.00038       0.37390
    31    C    2  px     Ryd( 5p)     0.00012       3.07498
    32    C    2  py     Val( 2p)     1.14802      -0.06315
    33    C    2  py     Ryd( 4p)     0.00636       0.98857
    34    C    2  py     Ryd( 3p)     0.00022       0.43273
    35    C    2  py     Ryd( 5p)     0.00008       3.09226
    36    C    2  pz     Val( 2p)     0.99009      -0.12098
    37    C    2  pz     Ryd( 4p)     0.00088       0.51637
    38    C    2  pz     Ryd( 3p)     0.00032       0.29077
    39    C    2  pz     Ryd( 5p)     0.00001       2.66813
    40    C    2  dxy    Ryd( 3d)     0.00077       2.49358
    41    C    2  dxz    Ryd( 3d)     0.00051       1.64442
    42    C    2  dyz    Ryd( 3d)     0.00041       1.61250
    43    C    2  dx2y2  Ryd( 3d)     0.00069       2.54552
    44    C    2  dz2    Ryd( 3d)     0.00040       2.04041
 
    45    C    3  S      Cor( 1S)     1.99898     -10.04371
    46    C    3  S      Val( 2S)     0.94910      -0.17260
    47    C    3  S      Ryd( 3S)     0.00190       0.81349
    48    C    3  S      Ryd( 4S)     0.00023       0.99353
    49    C    3  S      Ryd( 5S)     0.00001      22.79877
    50    C    3  px     Val( 2p)     1.09869      -0.06900
    51    C    3  px     Ryd( 4p)     0.00617       0.84928
    52    C    3  px     Ryd( 3p)     0.00031       0.39319
    53    C    3  px     Ryd( 5p)     0.00011       3.10752
    54    C    3  py     Val( 2p)     1.15184      -0.07575
    55    C    3  py     Ryd( 4p)     0.00527       0.98072
    56    C    3  py     Ryd( 3p)     0.00021       0.39932
    57    C    3  py     Ryd( 5p)     0.00009       3.11422
    58    C    3  pz     Val( 2p)     1.00269      -0.12311
    59    C    3  pz     Ryd( 4p)     0.00114       0.50901
    60    C    3  pz     Ryd( 3p)     0.00050       0.27562
    61    C    3  pz     Ryd( 5p)     0.00001       2.69785
    62    C    3  dxy    Ryd( 3d)     0.00080       2.48120
    63    C    3  dxz    Ryd( 3d)     0.00047       1.63939
    64    C    3  dyz    Ryd( 3d)     0.00044       1.61400
    65    C    3  dx2y2  Ryd( 3d)     0.00071       2.54829
    66    C    3  dz2    Ryd( 3d)     0.00040       2.03727
 
    67    C    4  S      Cor( 1S)     1.99861     -10.11259
    68    C    4  S      Val( 2S)     0.93103      -0.22146
    69    C    4  S      Ryd( 4S)     0.00079       0.83019
    70    C    4  S      Ryd( 3S)     0.00018       0.47300
    71    C    4  S      Ryd( 5S)     0.00001      23.25159
    72    C    4  px     Val( 2p)     0.93104      -0.16386
    73    C    4  px     Ryd( 4p)     0.00772       0.96550
    74    C    4  px     Ryd( 3p)     0.00026       0.46472
    75    C    4  px     Ryd( 5p)     0.00041       2.99661
    76    C    4  py     Val( 2p)     1.10573      -0.09245
    77    C    4  py     Ryd( 4p)     0.00642       0.81042
    78    C    4  py     Ryd( 3p)     0.00016       0.36866
    79    C    4  py     Ryd( 5p)     0.00021       3.28878
    80    C    4  pz     Val( 2p)     1.07009      -0.15166
    81    C    4  pz     Ryd( 4p)     0.00112       0.58616
    82    C    4  pz     Ryd( 3p)     0.00039       0.27072
    83    C    4  pz     Ryd( 5p)     0.00001       2.67642
    84    C    4  dxy    Ryd( 3d)     0.00122       2.44970
    85    C    4  dxz    Ryd( 3d)     0.00154       1.48254
    86    C    4  dyz    Ryd( 3d)     0.00064       1.63214
    87    C    4  dx2y2  Ryd( 3d)     0.00200       2.20819
    88    C    4  dz2    Ryd( 3d)     0.00087       1.98649
 
    89    C    5  S      Cor( 1S)     1.99898     -10.04371
    90    C    5  S      Val( 2S)     0.94910      -0.17260
    91    C    5  S      Ryd( 3S)     0.00190       0.81349
    92    C    5  S      Ryd( 4S)     0.00023       0.99353
    93    C    5  S      Ryd( 5S)     0.00001      22.79877
    94    C    5  px     Val( 2p)     1.09869      -0.06900
    95    C    5  px     Ryd( 4p)     0.00617       0.84928
    96    C    5  px     Ryd( 3p)     0.00031       0.39318
    97    C    5  px     Ryd( 5p)     0.00011       3.10752
    98    C    5  py     Val( 2p)     1.15184      -0.07575
    99    C    5  py     Ryd( 4p)     0.00527       0.98072
   100    C    5  py     Ryd( 3p)     0.00021       0.39932
   101    C    5  py     Ryd( 5p)     0.00009       3.11422
   102    C    5  pz     Val( 2p)     1.00269      -0.12311
   103    C    5  pz     Ryd( 4p)     0.00114       0.50901
   104    C    5  pz     Ryd( 3p)     0.00050       0.27562
   105    C    5  pz     Ryd( 5p)     0.00001       2.69785
   106    C    5  dxy    Ryd( 3d)     0.00080       2.48120
   107    C    5  dxz    Ryd( 3d)     0.00047       1.63938
   108    C    5  dyz    Ryd( 3d)     0.00044       1.61400
   109    C    5  dx2y2  Ryd( 3d)     0.00071       2.54829
   110    C    5  dz2    Ryd( 3d)     0.00040       2.03727
 
   111    C    6  S      Cor( 1S)     1.99915     -10.04721
   112    C    6  S      Val( 2S)     0.95394      -0.17757
   113    C    6  S      Ryd( 3S)     0.00143       0.75718
   114    C    6  S      Ryd( 4S)     0.00009       0.98191
   115    C    6  S      Ryd( 5S)     0.00000      22.77682
   116    C    6  px     Val( 2p)     1.08024      -0.05738
   117    C    6  px     Ryd( 4p)     0.00503       0.85705
   118    C    6  px     Ryd( 3p)     0.00038       0.37390
   119    C    6  px     Ryd( 5p)     0.00012       3.07498
   120    C    6  py     Val( 2p)     1.14802      -0.06315
   121    C    6  py     Ryd( 4p)     0.00636       0.98857
   122    C    6  py     Ryd( 3p)     0.00022       0.43273
   123    C    6  py     Ryd( 5p)     0.00008       3.09226
   124    C    6  pz     Val( 2p)     0.99009      -0.12098
   125    C    6  pz     Ryd( 4p)     0.00088       0.51637
   126    C    6  pz     Ryd( 3p)     0.00032       0.29077
   127    C    6  pz     Ryd( 5p)     0.00001       2.66813
   128    C    6  dxy    Ryd( 3d)     0.00077       2.49358
   129    C    6  dxz    Ryd( 3d)     0.00051       1.64442
   130    C    6  dyz    Ryd( 3d)     0.00041       1.61250
   131    C    6  dx2y2  Ryd( 3d)     0.00069       2.54552
   132    C    6  dz2    Ryd( 3d)     0.00040       2.04041
 
   133   Cl    7  S      Cor( 1S)     2.00000    -100.21941
   134   Cl    7  S      Cor( 2S)     1.99968     -10.47469
   135   Cl    7  S      Val( 3S)     1.82248      -1.00783
   136   Cl    7  S      Ryd( 4S)     0.00239       0.70102
   137   Cl    7  S      Ryd( 5S)     0.00006       1.18036
   138   Cl    7  S      Ryd( 6S)     0.00000      17.18578
   139   Cl    7  S      Ryd( 7S)     0.00000     207.83743
   140   Cl    7  px     Cor( 2p)     1.99990      -7.23012
   141   Cl    7  px     Val( 3p)     1.24640      -0.27491
   142   Cl    7  px     Ryd( 4p)     0.00405       0.36256
   143   Cl    7  px     Ryd( 5p)     0.00015       0.64240
   144   Cl    7  px     Ryd( 6p)     0.00003       4.11613
   145   Cl    7  px     Ryd( 7p)     0.00000      24.36749
   146   Cl    7  py     Cor( 2p)     1.99999      -7.22221
   147   Cl    7  py     Val( 3p)     1.96807      -0.32573
   148   Cl    7  py     Ryd( 4p)     0.00231       0.38746
   149   Cl    7  py     Ryd( 5p)     0.00009       0.73124
   150   Cl    7  py     Ryd( 6p)     0.00001       3.43685
   151   Cl    7  py     Ryd( 7p)     0.00000      24.38203
   152   Cl    7  pz     Cor( 2p)     1.99999      -7.22262
   153   Cl    7  pz     Val( 3p)     1.92069      -0.32434
   154   Cl    7  pz     Ryd( 4p)     0.00232       0.38433
   155   Cl    7  pz     Ryd( 5p)     0.00011       0.66666
   156   Cl    7  pz     Ryd( 6p)     0.00000       3.22214
   157   Cl    7  pz     Ryd( 7p)     0.00000      24.36582
   158   Cl    7  dxy    Ryd( 3d)     0.00134       1.13037
   159   Cl    7  dxz    Ryd( 3d)     0.00277       0.93948
   160   Cl    7  dyz    Ryd( 3d)     0.00004       0.86383
   161   Cl    7  dx2y2  Ryd( 3d)     0.00457       1.23372
   162   Cl    7  dz2    Ryd( 3d)     0.00146       0.98576
 
   163    H    8  S      Val( 1S)     0.79074       0.04292
   164    H    8  S      Ryd( 3S)     0.00077       0.66254
   165    H    8  S      Ryd( 4S)     0.00018       2.06020
   166    H    8  S      Ryd( 2S)     0.00003       0.22300
   167    H    8  px     Ryd( 2p)     0.00045       2.68656
   168    H    8  py     Ryd( 2p)     0.00012       1.95847
   169    H    8  pz     Ryd( 2p)     0.00019       1.58406
 
   170    H    9  S      Val( 1S)     0.78843       0.04165
   171    H    9  S      Ryd( 3S)     0.00074       0.59932
   172    H    9  S      Ryd( 4S)     0.00019       2.13800
   173    H    9  S      Ryd( 2S)     0.00002       0.20390
   174    H    9  px     Ryd( 2p)     0.00020       2.13593
   175    H    9  py     Ryd( 2p)     0.00037       2.50060
   176    H    9  pz     Ryd( 2p)     0.00019       1.58184
 
   177    H   10  S      Val( 1S)     0.77898       0.04116
   178    H   10  S      Ryd( 2S)     0.00089       0.68130
   179    H   10  S      Ryd( 3S)     0.00023       0.68146
   180    H   10  S      Ryd( 4S)     0.00016       1.62379
   181    H   10  px     Ryd( 2p)     0.00022       2.14373
   182    H   10  py     Ryd( 2p)     0.00037       2.50301
   183    H   10  pz     Ryd( 2p)     0.00019       1.58693
 
   184    H   11  S      Val( 1S)     0.77898       0.04116
   185    H   11  S      Ryd( 2S)     0.00089       0.68130
   186    H   11  S      Ryd( 3S)     0.00023       0.68146
   187    H   11  S      Ryd( 4S)     0.00016       1.62379
   188    H   11  px     Ryd( 2p)     0.00022       2.14373
   189    H   11  py     Ryd( 2p)     0.00037       2.50301
   190    H   11  pz     Ryd( 2p)     0.00019       1.58693
 
   191    H   12  S      Val( 1S)     0.78843       0.04165
   192    H   12  S      Ryd( 3S)     0.00074       0.59932
   193    H   12  S      Ryd( 4S)     0.00019       2.13800
   194    H   12  S      Ryd( 2S)     0.00002       0.20390
   195    H   12  px     Ryd( 2p)     0.00020       2.13593
   196    H   12  py     Ryd( 2p)     0.00037       2.50060
   197    H   12  pz     Ryd( 2p)     0.00019       1.58184

 WARNING:  1 low occupancy (<1.9990e) core orbital  found on  C    3
           1 low occupancy (<1.9990e) core orbital  found on  C    4
           1 low occupancy (<1.9990e) core orbital  found on  C    5

 WARNING:  Population inversion found on atom  C    1
           Population inversion found on atom  C    2
           Population inversion found on atom  C    3
           Population inversion found on atom  C    4
           Population inversion found on atom  C    5
           Population inversion found on atom  C    6
           Population inversion found on atom  H    8
           Population inversion found on atom  H    9
           Population inversion found on atom  H   12


 Summary of Natural Population Analysis:                  
                                                          
                                       Natural Population 
                Natural  -----------------------------------------------
    Atom  No    Charge         Core      Valence    Rydberg      Total
 -----------------------------------------------------------------------
      C    1   -0.20736      1.99915     4.19044    0.01777     6.20736
      C    2   -0.18915      1.99915     4.17230    0.01770     6.18915
      C    3   -0.22009      1.99898     4.20232    0.01878     6.22009
      C    4   -0.06043      1.99861     4.03788    0.02394     6.06043
      C    5   -0.22009      1.99898     4.20232    0.01878     6.22009
      C    6   -0.18915      1.99915     4.17230    0.01770     6.18915
     Cl    7    0.02108      9.99956     6.95764    0.02172    16.97892
      H    8    0.20752      0.00000     0.79074    0.00174     0.79248
      H    9    0.20986      0.00000     0.78843    0.00172     0.79014
      H   10    0.21897      0.00000     0.77898    0.00206     0.78103
      H   11    0.21897      0.00000     0.77898    0.00206     0.78103
      H   12    0.20986      0.00000     0.78843    0.00172     0.79014
 =======================================================================
   * Total *   -0.00000     21.99358    35.86074    0.14568    58.00000

                                 Natural Population      
 --------------------------------------------------------
   Core                      21.99358 ( 99.9708% of  22)
   Valence                   35.86074 ( 99.6132% of  36)
   Natural Minimal Basis     57.85432 ( 99.7488% of  58)
   Natural Rydberg Basis      0.14568 (  0.2512% of  58)
 --------------------------------------------------------

    Atom  No          Natural Electron Configuration
 ----------------------------------------------------------------------------
      C    1      [core]2S( 0.95)2p( 3.24)4p( 0.01)
      C    2      [core]2S( 0.95)2p( 3.22)4p( 0.01)
      C    3      [core]2S( 0.95)2p( 3.25)4p( 0.01)
      C    4      [core]2S( 0.93)2p( 3.11)3d( 0.01)4p( 0.02)
      C    5      [core]2S( 0.95)2p( 3.25)4p( 0.01)
      C    6      [core]2S( 0.95)2p( 3.22)4p( 0.01)
     Cl    7      [core]3S( 1.82)3p( 5.14)3d( 0.01)4p( 0.01)
      H    8            1S( 0.79)
      H    9            1S( 0.79)
      H   10            1S( 0.78)
      H   11            1S( 0.78)
      H   12            1S( 0.79)


 NATURAL BOND ORBITAL ANALYSIS:

                       Occupancies       Lewis Structure    Low   High
           Occ.    -------------------  -----------------   occ   occ
  Cycle   Thresh.   Lewis   Non-Lewis     CR  BD  3C  LP    (L)   (NL)   Dev
 =============================================================================
   1(1)    1.90    54.70528   3.29472     11  12   0   6     3      3    0.43
   2(2)    1.90    54.70528   3.29472     11  12   0   6     3      3    0.43
   3(1)    1.80    54.70528   3.29472     11  12   0   6     3      3    0.43
   4(2)    1.80    54.70528   3.29472     11  12   0   6     3      3    0.43
   5(1)    1.70    54.70528   3.29472     11  12   0   6     3      3    0.43
   6(2)    1.70    54.70528   3.29472     11  12   0   6     3      3    0.43
   7(1)    1.60    56.63344   1.36656     11  15   0   3     0      3    0.43
   8(2)    1.60    56.63344   1.36656     11  15   0   3     0      3    0.43
   9(1)    1.50    56.63344   1.36656     11  15   0   3     0      3    0.43
  10(2)    1.50    56.63344   1.36656     11  15   0   3     0      3    0.43
  11(1)    1.60    56.63344   1.36656     11  15   0   3     0      3    0.43
 -----------------------------------------------------------------------------

 Structure accepted: RESONANCE keyword permits strongly delocalized structure

 WARNING:  1 low occupancy (<1.9990e) core orbital  found on  C    3
           1 low occupancy (<1.9990e) core orbital  found on  C    4
           1 low occupancy (<1.9990e) core orbital  found on  C    5

 --------------------------------------------------------
   Core                     21.99360 ( 99.971% of  22)
   Valence Lewis            34.63984 ( 96.222% of  36)
  ==================       ============================
   Total Lewis              56.63344 ( 97.644% of  58)
  -----------------------------------------------------
   Valence non-Lewis         1.27612 (  2.200% of  58)
   Rydberg non-Lewis         0.09044 (  0.156% of  58)
  ==================       ============================
   Total non-Lewis           1.36656 (  2.356% of  58)
 --------------------------------------------------------


       (Occupancy)   Bond orbital/ Coefficients/ Hybrids
 ---------------------------------------------------------------------------------
     1. (1.97996) BD ( 1) C   1 - C   2  
                ( 49.91%)   0.7064* C   1 s( 35.73%)p 1.80( 64.22%)d 0.00(  0.04%)
                                            0.0000  0.5976 -0.0137 -0.0005 -0.0001
                                           -0.3766 -0.0237  0.0083 -0.0004 -0.7059
                                            0.0380  0.0064 -0.0009  0.0000  0.0000
                                           -0.0000  0.0000  0.0159 -0.0000 -0.0000
                                           -0.0065 -0.0122
                ( 50.09%)   0.7078* C   2 s( 35.84%)p 1.79( 64.12%)d 0.00(  0.04%)
                                            0.0000  0.5985 -0.0150  0.0001 -0.0000
                                            0.4226 -0.0442  0.0020  0.0004  0.6786
                                            0.0025  0.0102  0.0004 -0.0000  0.0000
                                           -0.0000 -0.0000  0.0134 -0.0000 -0.0000
                                           -0.0106 -0.0120
     2. (1.66040) BD ( 2) C   1 - C   2  
                ( 50.45%)   0.7103* C   1 s(  0.00%)p 1.00( 99.96%)d 0.00(  0.04%)
                                           -0.0000 -0.0000  0.0000  0.0000  0.0000
                                            0.0000  0.0000  0.0000  0.0000  0.0000
                                            0.0000  0.0000 -0.0000  0.9995  0.0174
                                            0.0142 -0.0022 -0.0000 -0.0187 -0.0091
                                           -0.0000  0.0000
                ( 49.55%)   0.7039* C   2 s(  0.00%)p 1.00( 99.96%)d 0.00(  0.04%)
                                            0.0000 -0.0000 -0.0000 -0.0000 -0.0000
                                            0.0000  0.0000 -0.0000 -0.0000  0.0000
                                            0.0000 -0.0000  0.0000  0.9996  0.0150
                                           -0.0149 -0.0020  0.0000 -0.0009  0.0209
                                           -0.0000 -0.0000
     3. (1.97996) BD ( 1) C   1 - C   6  
                ( 49.91%)   0.7064* C   1 s( 35.73%)p 1.80( 64.22%)d 0.00(  0.04%)
                                            0.0000  0.5976 -0.0137 -0.0005 -0.0001
                                           -0.3766 -0.0237  0.0083 -0.0004  0.7059
                                           -0.0380 -0.0064  0.0009  0.0000  0.0000
                                           -0.0000  0.0000 -0.0159 -0.0000  0.0000
                                           -0.0065 -0.0122
                ( 50.09%)   0.7078* C   6 s( 35.84%)p 1.79( 64.12%)d 0.00(  0.04%)
                                            0.0000  0.5985 -0.0150  0.0001 -0.0000
                                            0.4226 -0.0442  0.0020  0.0004 -0.6786
                                           -0.0025 -0.0102 -0.0004 -0.0000  0.0000
                                           -0.0000 -0.0000 -0.0134 -0.0000  0.0000
                                           -0.0106 -0.0120
     4. (1.98032) BD ( 1) C   1 - H   8  
                ( 60.46%)   0.7776* C   1 s( 28.55%)p 2.50( 71.41%)d 0.00(  0.04%)
                                           -0.0004  0.5338  0.0237  0.0013  0.0003
                                            0.8448  0.0189  0.0012  0.0016  0.0000
                                           -0.0000  0.0000  0.0000 -0.0000 -0.0000
                                            0.0000 -0.0000 -0.0000 -0.0000  0.0000
                                            0.0191 -0.0084
                ( 39.54%)   0.6288* H   8 s( 99.95%)p 0.00(  0.05%)
                                            0.9998  0.0014  0.0010 -0.0001 -0.0218
                                            0.0000  0.0000
     5. (1.97281) BD ( 1) C   2 - C   3  
                ( 49.50%)   0.7035* C   2 s( 35.49%)p 1.82( 64.47%)d 0.00(  0.04%)
                                            0.0001  0.5956 -0.0130 -0.0015 -0.0000
                                           -0.8011  0.0199 -0.0127 -0.0010 -0.0255
                                            0.0407  0.0043 -0.0002  0.0000 -0.0000
                                            0.0000  0.0000 -0.0027 -0.0000  0.0000
                                            0.0167 -0.0121
                ( 50.50%)   0.7107* C   3 s( 35.98%)p 1.78( 63.98%)d 0.00(  0.05%)
                                           -0.0002  0.5996 -0.0165 -0.0068 -0.0002
                                            0.7984 -0.0167 -0.0093  0.0012 -0.0218
                                            0.0392 -0.0038 -0.0006 -0.0000  0.0000
                                            0.0000 -0.0000  0.0037 -0.0000 -0.0000
                                            0.0169 -0.0124
     6. (1.97985) BD ( 1) C   2 - H   9  
                ( 60.55%)   0.7782* C   2 s( 28.68%)p 2.49( 71.28%)d 0.00(  0.04%)
                                            0.0004 -0.5350 -0.0234 -0.0011 -0.0000
                                           -0.4200 -0.0084  0.0003 -0.0008  0.7322
                                            0.0167 -0.0013  0.0015  0.0000  0.0000
                                           -0.0000  0.0000  0.0164 -0.0000 -0.0000
                                            0.0095  0.0086
                ( 39.45%)   0.6281* H   9 s( 99.95%)p 0.00(  0.05%)
                                           -0.9998 -0.0014 -0.0010 -0.0001  0.0109
                                           -0.0193  0.0000
     7. (1.97944) BD ( 1) C   3 - C   4  
                ( 49.17%)   0.7012* C   3 s( 35.30%)p 1.83( 64.65%)d 0.00(  0.04%)
                                            0.0000  0.5940 -0.0144  0.0059  0.0008
                                           -0.4269  0.0399  0.0015 -0.0005  0.6801
                                            0.0017 -0.0112 -0.0003 -0.0000 -0.0000
                                            0.0000 -0.0000 -0.0143  0.0000 -0.0000
                                           -0.0105 -0.0113
                ( 50.83%)   0.7130* C   4 s( 38.27%)p 1.61( 61.70%)d 0.00(  0.04%)
                                            0.0000  0.6186 -0.0034  0.0040 -0.0001
                                            0.3417  0.0171 -0.0066  0.0070 -0.7067
                                            0.0164  0.0038 -0.0075  0.0000 -0.0000
                                           -0.0000  0.0000 -0.0139  0.0000  0.0000
                                           -0.0074 -0.0113
     8. (1.67872) BD ( 2) C   3 - C   4  
                ( 47.39%)   0.6884* C   3 s(  0.00%)p 1.00( 99.95%)d 0.00(  0.05%)
                                            0.0000  0.0000  0.0000  0.0000  0.0000
                                            0.0000  0.0000  0.0000  0.0000  0.0000
                                            0.0000  0.0000  0.0000  0.9995  0.0088
                                            0.0193 -0.0015  0.0000  0.0005  0.0215
                                            0.0000 -0.0000
                ( 52.61%)   0.7253* C   4 s(  0.00%)p 1.00( 99.98%)d 0.00(  0.02%)
                                            0.0000  0.0000  0.0000  0.0000 -0.0000
                                           -0.0000 -0.0000 -0.0000 -0.0000 -0.0000
                                            0.0000 -0.0000 -0.0000  0.9997  0.0081
                                            0.0181 -0.0007 -0.0000  0.0078 -0.0102
                                            0.0000  0.0000
     9. (1.97881) BD ( 1) C   3 - H  10  
                ( 61.03%)   0.7812* C   3 s( 28.74%)p 2.48( 71.21%)d 0.00(  0.04%)
                                            0.0004 -0.5356 -0.0237 -0.0018  0.0006
                                            0.4214  0.0135 -0.0001  0.0002  0.7309
                                            0.0118 -0.0010  0.0013 -0.0000  0.0000
                                            0.0000 -0.0000 -0.0159  0.0000  0.0000
                                            0.0090  0.0091
                ( 38.97%)   0.6243* H  10 s( 99.95%)p 0.00(  0.05%)
                                           -0.9998 -0.0015 -0.0004 -0.0011 -0.0113
                                           -0.0186  0.0000
    10. (1.97944) BD ( 1) C   4 - C   5  
                ( 50.83%)   0.7130* C   4 s( 38.27%)p 1.61( 61.70%)d 0.00(  0.04%)
                                            0.0000  0.6186 -0.0034  0.0040 -0.0001
                                            0.3417  0.0171 -0.0066  0.0070  0.7067
                                           -0.0164 -0.0038  0.0075  0.0000 -0.0000
                                           -0.0000  0.0000  0.0139  0.0000  0.0000
                                           -0.0074 -0.0113
                ( 49.17%)   0.7012* C   5 s( 35.30%)p 1.83( 64.65%)d 0.00(  0.04%)
                                            0.0000  0.5940 -0.0144  0.0059  0.0008
                                           -0.4269  0.0399  0.0015 -0.0005 -0.6801
                                           -0.0017  0.0112  0.0003 -0.0000 -0.0000
                                            0.0000 -0.0000  0.0143  0.0000  0.0000
                                           -0.0105 -0.0113
    11. (1.98950) BD ( 1) C   4 -Cl   7  
                ( 45.95%)   0.6779* C   4 s( 23.33%)p 3.28( 76.46%)d 0.01(  0.21%)
                                           -0.0001  0.4828  0.0076 -0.0100  0.0000
                                           -0.8742  0.0054  0.0116  0.0159 -0.0000
                                           -0.0000  0.0000  0.0000 -0.0000  0.0000
                                            0.0000  0.0000  0.0000  0.0000 -0.0000
                                            0.0392 -0.0239
                ( 54.05%)   0.7352*Cl   7 s( 18.86%)p 4.28( 80.63%)d 0.03(  0.51%)
                                            0.0000  0.0001  0.4321  0.0428  0.0006
                                           -0.0001 -0.0000  0.0001  0.8963 -0.0536
                                            0.0098 -0.0008  0.0001  0.0000  0.0000
                                           -0.0000  0.0000 -0.0000 -0.0000  0.0000
                                            0.0000 -0.0000  0.0000 -0.0000 -0.0000
                                            0.0000  0.0000 -0.0000  0.0623 -0.0351
    12. (1.97281) BD ( 1) C   5 - C   6  
                ( 50.50%)   0.7107* C   5 s( 35.98%)p 1.78( 63.98%)d 0.00(  0.05%)
                                           -0.0002  0.5996 -0.0165 -0.0068 -0.0002
                                            0.7984 -0.0167 -0.0093  0.0012  0.0218
                                           -0.0392  0.0038  0.0006 -0.0000  0.0000
                                            0.0000 -0.0000 -0.0037 -0.0000  0.0000
                                            0.0169 -0.0124
                ( 49.50%)   0.7035* C   6 s( 35.49%)p 1.82( 64.47%)d 0.00(  0.04%)
                                            0.0001  0.5956 -0.0130 -0.0015 -0.0000
                                           -0.8011  0.0199 -0.0127 -0.0010  0.0255
                                           -0.0407 -0.0043  0.0002  0.0000 -0.0000
                                            0.0000  0.0000  0.0027 -0.0000 -0.0000
                                            0.0167 -0.0121
    13. (1.66694) BD ( 2) C   5 - C   6  
                ( 50.47%)   0.7104* C   5 s(  0.00%)p 1.00( 99.95%)d 0.00(  0.05%)
                                           -0.0000 -0.0000  0.0000 -0.0000  0.0000
                                            0.0000  0.0000  0.0000  0.0000 -0.0000
                                           -0.0000 -0.0000 -0.0000  0.9995  0.0163
                                            0.0161 -0.0016 -0.0000  0.0173 -0.0123
                                            0.0000 -0.0000
                ( 49.53%)   0.7038* C   6 s(  0.00%)p 1.00( 99.95%)d 0.00(  0.05%)
                                           -0.0000 -0.0000  0.0000  0.0000  0.0000
                                            0.0000  0.0000 -0.0000  0.0000 -0.0000
                                            0.0000  0.0000  0.0000  0.9994  0.0184
                                           -0.0176 -0.0013 -0.0000 -0.0181 -0.0112
                                           -0.0000  0.0000
    14. (1.97881) BD ( 1) C   5 - H  11  
                ( 61.03%)   0.7812* C   5 s( 28.74%)p 2.48( 71.21%)d 0.00(  0.04%)
                                           -0.0004  0.5356  0.0237  0.0018 -0.0006
                                           -0.4214 -0.0135  0.0001 -0.0002  0.7309
                                            0.0118 -0.0010  0.0013  0.0000 -0.0000
                                           -0.0000  0.0000 -0.0159 -0.0000  0.0000
                                           -0.0090 -0.0091
                ( 38.97%)   0.6243* H  11 s( 99.95%)p 0.00(  0.05%)
                                            0.9998  0.0015  0.0004  0.0011  0.0113
                                           -0.0186 -0.0000
    15. (1.97985) BD ( 1) C   6 - H  12  
                ( 60.55%)   0.7782* C   6 s( 28.68%)p 2.49( 71.28%)d 0.00(  0.04%)
                                           -0.0004  0.5350  0.0234  0.0011  0.0000
                                            0.4200  0.0084 -0.0003  0.0008  0.7322
                                            0.0167 -0.0013  0.0015 -0.0000 -0.0000
                                           -0.0000 -0.0000  0.0164 -0.0000 -0.0000
                                           -0.0095 -0.0086
                ( 39.45%)   0.6281* H  12 s( 99.95%)p 0.00(  0.05%)
                                            0.9998  0.0014  0.0010  0.0001 -0.0109
                                           -0.0193  0.0000
    16. (1.99916) CR ( 1) C   1           s(100.00%)p 0.00(  0.00%)
                                            1.0000  0.0002  0.0000  0.0000  0.0000
                                            0.0004  0.0000 -0.0000  0.0000  0.0000
                                           -0.0000 -0.0000  0.0000 -0.0000 -0.0000
                                            0.0000 -0.0000 -0.0000 -0.0000 -0.0000
                                            0.0000 -0.0000
    17. (1.99915) CR ( 1) C   2           s(100.00%)p 0.00(  0.00%)
                                            1.0000  0.0001  0.0000  0.0000  0.0000
                                            0.0002  0.0000  0.0000  0.0000 -0.0003
                                           -0.0000 -0.0000 -0.0000 -0.0000 -0.0000
                                            0.0000  0.0000 -0.0000  0.0000 -0.0000
                                           -0.0000 -0.0000
    18. (1.99898) CR ( 1) C   3           s(100.00%)p 0.00(  0.00%)
                                            1.0000  0.0003  0.0000 -0.0000 -0.0000
                                            0.0000 -0.0000 -0.0000  0.0000 -0.0003
                                            0.0000 -0.0000 -0.0000 -0.0000 -0.0000
                                           -0.0000  0.0000  0.0000 -0.0000 -0.0000
                                            0.0000 -0.0000
    19. (1.99861) CR ( 1) C   4           s(100.00%)
                                            1.0000 -0.0000  0.0000 -0.0000  0.0000
                                           -0.0001 -0.0000  0.0000  0.0000 -0.0000
                                            0.0000  0.0000 -0.0000 -0.0000 -0.0000
                                           -0.0000  0.0000  0.0000 -0.0000  0.0000
                                            0.0000 -0.0000
    20. (1.99898) CR ( 1) C   5           s(100.00%)p 0.00(  0.00%)
                                            1.0000  0.0003  0.0000 -0.0000 -0.0000
                                            0.0000 -0.0000 -0.0000  0.0000  0.0003
                                           -0.0000  0.0000  0.0000  0.0000  0.0000
                                            0.0000 -0.0000 -0.0000 -0.0000  0.0000
                                            0.0000 -0.0000
    21. (1.99915) CR ( 1) C   6           s(100.00%)p 0.00(  0.00%)
                                            1.0000  0.0001  0.0000  0.0000  0.0000
                                            0.0002  0.0000  0.0000  0.0000  0.0003
                                            0.0000  0.0000  0.0000  0.0000  0.0000
                                           -0.0000 -0.0000  0.0000 -0.0000 -0.0000
                                           -0.0000 -0.0000
    22. (2.00000) CR ( 1)Cl   7           s(100.00%)
                                            1.0000 -0.0000  0.0000 -0.0000 -0.0000
                                            0.0000  0.0000 -0.0000 -0.0000  0.0000
                                           -0.0000 -0.0000 -0.0000 -0.0000 -0.0000
                                            0.0000 -0.0000 -0.0000 -0.0000 -0.0000
                                           -0.0000 -0.0000 -0.0000  0.0000  0.0000
                                           -0.0000 -0.0000  0.0000 -0.0000  0.0000
    23. (1.99968) CR ( 2)Cl   7           s(100.00%)p 0.00(  0.00%)
                                           -0.0000  1.0000  0.0002 -0.0000 -0.0000
                                            0.0000  0.0000 -0.0000 -0.0002  0.0000
                                           -0.0000 -0.0000 -0.0000 -0.0000 -0.0000
                                            0.0000  0.0000 -0.0000 -0.0000 -0.0000
                                           -0.0000  0.0000 -0.0000  0.0000 -0.0000
                                           -0.0000 -0.0000  0.0000 -0.0000  0.0000
    24. (1.99990) CR ( 3)Cl   7           s(  0.00%)p 1.00(100.00%)
                                           -0.0000 -0.0000  0.0001 -0.0000 -0.0000
                                            0.0000  0.0000  1.0000 -0.0002  0.0000
                                           -0.0000 -0.0000 -0.0000 -0.0000 -0.0000
                                            0.0000  0.0000 -0.0000 -0.0000 -0.0000
                                           -0.0000  0.0000 -0.0000  0.0000  0.0000
                                           -0.0000 -0.0000  0.0000 -0.0000  0.0000
    25. (1.99999) CR ( 4)Cl   7           s(  0.00%)p 1.00(100.00%)
                                           -0.0000 -0.0000  0.0000 -0.0000 -0.0000
                                            0.0000 -0.0000 -0.0000 -0.0000  0.0000
                                           -0.0000 -0.0000 -0.0000  1.0000  0.0001
                                            0.0000 -0.0000 -0.0000  0.0000 -0.0000
                                            0.0000  0.0000 -0.0000 -0.0000  0.0000
                                            0.0000  0.0000  0.0000 -0.0000  0.0000
    26. (1.99999) CR ( 5)Cl   7           s(  0.00%)p 1.00(100.00%)
                                           -0.0000 -0.0000  0.0000 -0.0000 -0.0000
                                            0.0000 -0.0000 -0.0000 -0.0000  0.0000
                                           -0.0000 -0.0000 -0.0000 -0.0000  0.0000
                                            0.0000  0.0000  0.0000 -0.0000  1.0000
                                           -0.0001 -0.0000  0.0000 -0.0000  0.0000
                                            0.0000 -0.0000 -0.0000 -0.0000  0.0000
    27. (1.99134) LP ( 1)Cl   7           s( 81.28%)p 0.23( 18.71%)d 0.00(  0.01%)
                                           -0.0000 -0.0003  0.9015 -0.0114 -0.0000
                                            0.0000  0.0000 -0.0002 -0.4322  0.0156
                                            0.0024 -0.0011 -0.0007 -0.0000 -0.0000
                                            0.0000  0.0000 -0.0000 -0.0000 -0.0000
                                           -0.0000  0.0000  0.0000  0.0000 -0.0000
                                           -0.0000 -0.0000  0.0000 -0.0108  0.0054
    28. (1.96893) LP ( 2)Cl   7           s(  0.00%)p 1.00( 99.98%)d 0.00(  0.02%)
                                           -0.0000 -0.0000  0.0000 -0.0000 -0.0000
                                            0.0000 -0.0000 -0.0000 -0.0000 -0.0000
                                            0.0000 -0.0000 -0.0000 -0.0001  0.9998
                                            0.0151 -0.0038 -0.0001  0.0001 -0.0000
                                            0.0000 -0.0000 -0.0000 -0.0000  0.0000
                                            0.0141  0.0000  0.0000 -0.0000 -0.0000
    29. (1.92194) LP ( 3)Cl   7           s(  0.00%)p 1.00( 99.97%)d 0.00(  0.03%)
                                            0.0000  0.0000 -0.0000  0.0000  0.0000
                                           -0.0000  0.0000  0.0000 -0.0000 -0.0000
                                            0.0000  0.0000  0.0000 -0.0000 -0.0000
                                           -0.0000 -0.0000 -0.0000  0.0000  0.0001
                                            0.9997  0.0180 -0.0002  0.0000 -0.0004
                                           -0.0000  0.0180  0.0000 -0.0000  0.0000
    30. (0.00597) RY*( 1) C   1           s(  0.99%)p94.29( 93.57%)d 5.48(  5.43%)
                                            0.0000 -0.0165  0.0962 -0.0173  0.0095
                                            0.0348 -0.9646  0.0281 -0.0579 -0.0000
                                           -0.0000  0.0000 -0.0000 -0.0000  0.0000
                                            0.0000  0.0000 -0.0000  0.0000 -0.0000
                                           -0.2317  0.0261
    31. (0.00220) RY*( 2) C   1           s(  0.00%)p 1.00( 99.14%)d 0.01(  0.86%)
                                           -0.0000 -0.0000  0.0000 -0.0000 -0.0000
                                            0.0000 -0.0000 -0.0000 -0.0000  0.0465
                                            0.9414 -0.2532 -0.1969 -0.0000 -0.0000
                                            0.0000 -0.0000 -0.0930 -0.0000  0.0000
                                           -0.0000  0.0000
    32. (0.00085) RY*( 3) C   1           s(  0.00%)p 1.00( 87.26%)d 0.15( 12.74%)
                                            0.0000 -0.0000  0.0000  0.0000  0.0000
                                           -0.0000  0.0000  0.0000  0.0000  0.0000
                                            0.0000  0.0000 -0.0000 -0.0104  0.9123
                                            0.1517  0.1311  0.0000  0.3299  0.1363
                                            0.0000 -0.0000
    33. (0.00056) RY*( 4) C   1           s(  0.00%)p 1.00(  1.66%)d59.26( 98.34%)
                                           -0.0000  0.0000 -0.0000  0.0000  0.0000
                                            0.0000 -0.0000 -0.0000 -0.0000 -0.0000
                                            0.0000 -0.0000  0.0000  0.0106 -0.1254
                                           -0.0209 -0.0180  0.0000 -0.0455  0.9906
                                           -0.0000  0.0000
    34. (0.00038) RY*( 5) C   1           s(  0.00%)p 1.00( 83.84%)d 0.19( 16.16%)
                                           -0.0000 -0.0000 -0.0000  0.0000  0.0000
                                            0.0000 -0.0000 -0.0000 -0.0000  0.0281
                                            0.2041  0.8432 -0.2914 -0.0000 -0.0000
                                           -0.0000 -0.0000  0.4020 -0.0000 -0.0000
                                            0.0000 -0.0000
    35. (0.00026) RY*( 6) C   1           s( 92.67%)p 0.06(  5.89%)d 0.02(  1.44%)
                                           -0.0000  0.0033  0.9406 -0.1866 -0.0842
                                           -0.0296  0.1066  0.0902  0.1962  0.0000
                                            0.0000  0.0000 -0.0000  0.0000 -0.0000
                                           -0.0000 -0.0000  0.0000 -0.0000  0.0000
                                           -0.0938 -0.0749
    36. (0.00011) RY*( 7) C   1           s( 38.89%)p 0.28( 10.80%)d 1.29( 50.32%)
                                            0.0000 -0.0107 -0.0485  0.6170 -0.0756
                                            0.0085  0.0446  0.0765  0.3163  0.0000
                                            0.0000 -0.0000  0.0000 -0.0000 -0.0000
                                           -0.0000 -0.0000  0.0000 -0.0000 -0.0000
                                           -0.3894 -0.5929
    37. (0.00007) RY*( 8) C   1           s(  0.00%)p 1.00( 34.79%)d 1.87( 65.21%)
    38. (0.00003) RY*( 9) C   1           s( 14.76%)p 5.47( 80.79%)d 0.30(  4.44%)
    39. (0.00004) RY*(10) C   1           s( 25.91%)p 0.33(  8.57%)d 2.53( 65.52%)
    40. (0.00000) RY*(11) C   1           s(  0.00%)p 1.00( 99.73%)d 0.00(  0.27%)
    41. (0.00000) RY*(12) C   1           s(  0.00%)p 1.00( 99.80%)d 0.00(  0.20%)
    42. (0.00000) RY*(13) C   1           s(  9.49%)p 8.92( 84.60%)d 0.62(  5.91%)
    43. (0.00000) RY*(14) C   1           s(  0.00%)p 1.00( 11.60%)d 7.62( 88.40%)
    44. (0.00001) RY*(15) C   1           s(  0.00%)p 1.00( 82.29%)d 0.22( 17.71%)
    45. (0.00000) RY*(16) C   1           s( 97.67%)p 0.01(  1.40%)d 0.01(  0.92%)
    46. (0.00000) RY*(17) C   1           s( 19.60%)p 0.74( 14.47%)d 3.36( 65.92%)
    47. (0.00602) RY*( 1) C   2           s(  0.76%)p99.99( 94.34%)d 6.43(  4.89%)
                                           -0.0000  0.0184 -0.0367  0.0770  0.0025
                                           -0.0209  0.4614  0.0496  0.0429  0.0311
                                           -0.8486 -0.0429 -0.0534  0.0000 -0.0000
                                           -0.0000 -0.0000 -0.1880  0.0000  0.0000
                                           -0.1133 -0.0276
    48. (0.00226) RY*( 2) C   2           s(  0.45%)p99.99( 98.76%)d 1.75(  0.79%)
                                            0.0000 -0.0002  0.0547  0.0385  0.0065
                                           -0.0414 -0.8357 -0.1264  0.1875 -0.0218
                                           -0.4575 -0.1189  0.1117  0.0000  0.0000
                                            0.0000 -0.0000 -0.0255 -0.0000 -0.0000
                                            0.0850 -0.0051
    49. (0.00077) RY*( 3) C   2           s(  0.00%)p 1.00( 47.04%)d 1.13( 52.96%)
                                            0.0000  0.0000  0.0000  0.0000  0.0000
                                            0.0000  0.0000  0.0000  0.0000  0.0000
                                            0.0000 -0.0000 -0.0000 -0.0018  0.6453
                                           -0.2123  0.0945 -0.0000 -0.4900 -0.5381
                                            0.0000  0.0000
    50. (0.00050) RY*( 4) C   2           s(  0.00%)p 1.00( 38.81%)d 1.58( 61.19%)
                                            0.0000 -0.0000 -0.0001 -0.0000 -0.0000
                                            0.0000  0.0000 -0.0000 -0.0000 -0.0000
                                            0.0000 -0.0000  0.0000 -0.0108  0.6151
                                           -0.0709  0.0679 -0.0000  0.7792  0.0680
                                            0.0000 -0.0000
    51. (0.00040) RY*( 5) C   2           s( 92.84%)p 0.04(  4.00%)d 0.03(  3.17%)
                                           -0.0000  0.0054  0.9625 -0.0442 -0.0093
                                           -0.0097  0.0772  0.1029  0.0688  0.0277
                                           -0.0167 -0.0733 -0.1102 -0.0000  0.0000
                                            0.0000  0.0000  0.0842  0.0001  0.0000
                                            0.1378 -0.0747
    52. (0.00027) RY*( 6) C   2           s(  1.43%)p54.02( 77.33%)d14.84( 21.24%)
                                           -0.0000 -0.0006  0.0232  0.1146  0.0253
                                            0.0230  0.1275 -0.7380 -0.2251  0.0143
                                            0.0568 -0.3902 -0.0742 -0.0000 -0.0000
                                            0.0000 -0.0000 -0.2656 -0.0000  0.0000
                                            0.3765  0.0123
    53. (0.00011) RY*( 7) C   2           s( 33.05%)p 0.26(  8.45%)d 1.77( 58.49%)
                                            0.0000 -0.0080 -0.1532  0.5464 -0.0921
                                            0.0072  0.0289  0.1017  0.1008 -0.0116
                                           -0.0179 -0.0547 -0.2443 -0.0000  0.0000
                                            0.0000  0.0000  0.4242 -0.0000 -0.0000
                                            0.3142 -0.5534
    54. (0.00007) RY*( 8) C   2           s(  4.44%)p12.25( 54.36%)d 9.29( 41.21%)
    55. (0.00005) RY*( 9) C   2           s(  8.07%)p 8.32( 67.20%)d 3.06( 24.72%)
    56. (0.00000) RY*(10) C   2           s(  5.90%)p11.85( 69.94%)d 4.10( 24.16%)
    57. (0.00000) RY*(11) C   2           s(  0.00%)p 1.00( 99.13%)d 0.01(  0.87%)
    58. (0.00000) RY*(12) C   2           s(  0.00%)p 1.00( 99.71%)d 0.00(  0.29%)
    59. (0.00001) RY*(13) C   2           s( 52.90%)p 0.47( 24.96%)d 0.42( 22.14%)
    60. (0.00000) RY*(14) C   2           s( 93.54%)p 0.02(  1.99%)d 0.05(  4.47%)
    61. (0.00000) RY*(15) C   2           s(  0.00%)p 1.00( 15.35%)d 5.51( 84.65%)
    62. (0.00001) RY*(16) C   2           s(  4.01%)p19.90( 79.85%)d 4.02( 16.14%)
    63. (0.00001) RY*(17) C   2           s(  2.60%)p 7.31( 18.97%)d30.22( 78.44%)
    64. (0.00587) RY*( 1) C   3           s(  0.57%)p99.99( 95.68%)d 6.62(  3.75%)
                                            0.0000  0.0159  0.0543  0.0496  0.0030
                                            0.0066 -0.7437 -0.0299  0.0055  0.0389
                                           -0.6300  0.0507 -0.0426  0.0000 -0.0000
                                            0.0000  0.0000  0.1717  0.0000 -0.0000
                                           -0.0851 -0.0288
    65. (0.00279) RY*( 2) C   3           s(  1.34%)p72.46( 96.77%)d 1.42(  1.89%)
                                           -0.0000 -0.0075  0.1074  0.0375  0.0191
                                           -0.0367 -0.6356  0.1411  0.1053  0.0167
                                            0.7236 -0.0859 -0.0019  0.0000 -0.0000
                                           -0.0000 -0.0000 -0.1174 -0.0000  0.0000
                                           -0.0536  0.0478
    66. (0.00106) RY*( 3) C   3           s(  0.00%)p 1.00( 79.89%)d 0.25( 20.11%)
                                           -0.0000 -0.0000 -0.0001  0.0000 -0.0000
                                           -0.0000 -0.0000 -0.0000  0.0000 -0.0000
                                            0.0000 -0.0000 -0.0000  0.0005  0.8892
                                           -0.0255  0.0865  0.0000  0.2641 -0.3624
                                            0.0000 -0.0000
    67. (0.00095) RY*( 4) C   3           s( 86.57%)p 0.10(  8.74%)d 0.05(  4.70%)
                                            0.0000  0.0079  0.9157 -0.1636  0.0199
                                            0.0251  0.1141  0.1850 -0.1416  0.0208
                                           -0.0516  0.1278 -0.0030 -0.0000  0.0001
                                           -0.0000  0.0000 -0.0465  0.0000 -0.0000
                                           -0.2106  0.0216
    68. (0.00052) RY*( 5) C   3           s(  0.00%)p 1.00( 19.99%)d 4.00( 80.01%)
                                           -0.0000 -0.0000  0.0000  0.0000  0.0000
                                            0.0000  0.0000  0.0000 -0.0000 -0.0000
                                           -0.0000 -0.0000  0.0000  0.0123 -0.3451
                                           -0.2709 -0.0848 -0.0000  0.8682 -0.2153
                                            0.0000 -0.0000
    69. (0.00023) RY*( 6) C   3           s(  0.00%)p 1.00( 75.62%)d 0.32( 24.38%)
                                            0.0000 -0.0000  0.0000 -0.0001  0.0000
                                           -0.0000 -0.0000 -0.0000  0.0000  0.0000
                                            0.0000  0.0000  0.0000 -0.0043 -0.1862
                                            0.8460 -0.0763  0.0000  0.0611 -0.4900
                                            0.0000  0.0000
    70. (0.00022) RY*( 7) C   3           s( 31.27%)p 1.47( 46.10%)d 0.72( 22.63%)
                                           -0.0000 -0.0004  0.2767  0.4859  0.0014
                                           -0.0086 -0.0584 -0.5916 -0.2628  0.0063
                                            0.0505 -0.0009  0.1894 -0.0000  0.0000
                                            0.0000  0.0000 -0.1109 -0.0000 -0.0000
                                            0.4621  0.0228
    71. (0.00019) RY*( 8) C   3           s( 25.93%)p 0.88( 22.74%)d 1.98( 51.33%)
                                            0.0000 -0.0048 -0.0434  0.5026 -0.0688
                                            0.0171  0.0326  0.3086 -0.1429 -0.0171
                                           -0.1315 -0.1838 -0.2429 -0.0000 -0.0000
                                            0.0001 -0.0000 -0.5739 -0.0000 -0.0000
                                           -0.1891 -0.3849
    72. (0.00011) RY*( 9) C   3           s(  2.91%)p32.64( 95.14%)d 0.67(  1.95%)
                                           -0.0000 -0.0052  0.1532  0.0590 -0.0465
                                           -0.0001  0.0622 -0.4008  0.5344  0.0040
                                            0.0494  0.0613 -0.7037 -0.0000  0.0000
                                            0.0000 -0.0000  0.0611  0.0000  0.0000
                                           -0.0515 -0.1145
    73. (0.00006) RY*(10) C   3           s(  1.95%)p29.74( 58.03%)d20.51( 40.01%)
    74. (0.00005) RY*(11) C   3           s(  9.31%)p 2.04( 18.98%)d 7.70( 71.71%)
    75. (0.00000) RY*(12) C   3           s(  0.00%)p 1.00( 99.63%)d 0.00(  0.37%)
    76. (0.00001) RY*(13) C   3           s( 31.77%)p 1.26( 39.99%)d 0.89( 28.24%)
    77. (0.00000) RY*(14) C   3           s(  6.87%)p12.73( 87.42%)d 0.83(  5.72%)
    78. (0.00000) RY*(15) C   3           s(  0.00%)p 1.00( 24.92%)d 3.01( 75.08%)
    79. (0.00000) RY*(16) C   3           s( 96.27%)p 0.02(  1.70%)d 0.02(  2.03%)
    80. (0.00000) RY*(17) C   3           s(  5.22%)p 5.53( 28.88%)d12.61( 65.89%)
    81. (0.00755) RY*( 1) C   4           s(  0.75%)p99.99( 93.62%)d 7.50(  5.63%)
                                            0.0000 -0.0197  0.0806  0.0170  0.0182
                                           -0.0156  0.9665  0.0046  0.0440 -0.0000
                                            0.0000 -0.0000  0.0000  0.0000 -0.0000
                                           -0.0000 -0.0000 -0.0000  0.0000 -0.0000
                                           -0.2269  0.0691
    82. (0.00671) RY*( 2) C   4           s(  0.00%)p 1.00( 94.61%)d 0.06(  5.39%)
                                           -0.0000  0.0000 -0.0000  0.0000 -0.0000
                                           -0.0000 -0.0000 -0.0000 -0.0000  0.0276
                                            0.9678 -0.0396 -0.0844 -0.0000  0.0000
                                            0.0000 -0.0000 -0.2321 -0.0000 -0.0000
                                            0.0000 -0.0000
    83. (0.00247) RY*( 3) C   4           s(  0.00%)p 1.00( 36.80%)d 1.72( 63.20%)
                                           -0.0000  0.0000  0.0000  0.0000 -0.0000
                                            0.0000 -0.0000  0.0000  0.0000  0.0000
                                            0.0000  0.0000 -0.0000 -0.0027 -0.6029
                                            0.0515  0.0440 -0.0000  0.7931 -0.0542
                                           -0.0000  0.0000
    84. (0.00086) RY*( 4) C   4           s( 69.95%)p 0.06(  4.08%)d 0.37( 25.97%)
                                           -0.0000  0.0137  0.8157  0.1827 -0.0217
                                           -0.0138 -0.1966  0.0422  0.0139  0.0000
                                           -0.0000  0.0000 -0.0000  0.0000 -0.0000
                                           -0.0000 -0.0000 -0.0000 -0.0000  0.0000
                                           -0.4846  0.1577
    85. (0.00074) RY*( 5) C   4           s(  0.00%)p 1.00(  0.08%)d99.99( 99.92%)
                                            0.0000 -0.0000 -0.0000 -0.0000  0.0000
                                            0.0000  0.0000  0.0000 -0.0000 -0.0000
                                            0.0000  0.0000  0.0000  0.0098 -0.0243
                                            0.0096  0.0056  0.0000  0.0489  0.9984
                                            0.0000 -0.0000
    86. (0.00059) RY*( 6) C   4           s(  0.00%)p 1.00( 13.14%)d 6.61( 86.86%)
                                            0.0000  0.0000  0.0000  0.0000 -0.0000
                                           -0.0000 -0.0000  0.0000  0.0000 -0.0156
                                            0.2200 -0.2752  0.0839 -0.0000  0.0000
                                           -0.0000  0.0000  0.9320  0.0000 -0.0000
                                           -0.0000  0.0000
    87. (0.00025) RY*( 7) C   4           s( 36.66%)p 0.30( 11.01%)d 1.43( 52.34%)
                                           -0.0000 -0.0129  0.5365 -0.2781  0.0357
                                            0.0405  0.1401  0.2842 -0.0894  0.0000
                                            0.0000  0.0000 -0.0000 -0.0000  0.0001
                                            0.0000  0.0000  0.0000  0.0000 -0.0000
                                            0.6935 -0.2059
    88. (0.00014) RY*( 8) C   4           s(  0.00%)p 1.00( 93.47%)d 0.07(  6.53%)
                                           -0.0000  0.0000 -0.0000  0.0000 -0.0000
                                           -0.0000 -0.0000 -0.0000 -0.0000  0.0066
                                            0.0289  0.6789 -0.6876  0.0000 -0.0000
                                           -0.0000 -0.0000  0.2556 -0.0000 -0.0000
                                           -0.0000  0.0000
    89. (0.00014) RY*( 9) C   4           s( 16.78%)p 1.97( 32.98%)d 2.99( 50.24%)
                                           -0.0000  0.0056 -0.0390  0.3778  0.1533
                                            0.0080 -0.0016  0.2726  0.5053 -0.0000
                                            0.0000 -0.0000  0.0000 -0.0000  0.0000
                                            0.0000 -0.0000  0.0000 -0.0000 -0.0000
                                            0.3156  0.6347
    90. (0.00012) RY*(10) C   4           s(  0.00%)p 1.00( 78.54%)d 0.27( 21.46%)
                                           -0.0000  0.0000 -0.0000  0.0000 -0.0000
                                           -0.0000 -0.0000 -0.0000 -0.0000  0.0000
                                           -0.0000  0.0000 -0.0000 -0.0185  0.6730
                                            0.5188  0.2511 -0.0000  0.4631 -0.0125
                                           -0.0001  0.0000
    91. (0.00004) RY*(11) C   4           s( 14.11%)p 4.88( 68.90%)d 1.20( 16.99%)
    92. (0.00002) RY*(12) C   4           s( 17.09%)p 2.54( 43.38%)d 2.31( 39.53%)
    93. (0.00000) RY*(13) C   4           s( 50.37%)p 0.88( 44.08%)d 0.11(  5.54%)
    94. (0.00001) RY*(14) C   4           s(  0.00%)p 1.00( 98.82%)d 0.01(  1.18%)
    95. (0.00000) RY*(15) C   4           s( 94.43%)p 0.02(  2.05%)d 0.04(  3.52%)
    96. (0.00000) RY*(16) C   4           s(  0.00%)p 1.00( 86.96%)d 0.15( 13.04%)
    97. (0.00000) RY*(17) C   4           s(  0.00%)p 1.00( 97.63%)d 0.02(  2.37%)
    98. (0.00587) RY*( 1) C   5           s(  0.57%)p99.99( 95.68%)d 6.62(  3.75%)
                                           -0.0000  0.0159  0.0543  0.0496  0.0030
                                            0.0066 -0.7437 -0.0299  0.0055 -0.0389
                                            0.6300 -0.0507  0.0426  0.0000 -0.0000
                                            0.0000  0.0000 -0.1717  0.0000  0.0000
                                           -0.0851 -0.0288
    99. (0.00279) RY*( 2) C   5           s(  1.34%)p72.46( 96.77%)d 1.42(  1.89%)
                                           -0.0000 -0.0075  0.1074  0.0375  0.0191
                                           -0.0367 -0.6356  0.1411  0.1053 -0.0167
                                           -0.7236  0.0859  0.0019  0.0000 -0.0000
                                           -0.0000 -0.0000  0.1174  0.0000 -0.0000
                                           -0.0536  0.0478
   100. (0.00095) RY*( 3) C   5           s( 86.57%)p 0.10(  8.74%)d 0.05(  4.70%)
                                           -0.0000  0.0079  0.9157 -0.1636  0.0199
                                            0.0251  0.1141  0.1850 -0.1416 -0.0208
                                            0.0516 -0.1278  0.0030  0.0000 -0.0004
                                           -0.0000 -0.0000  0.0465 -0.0001 -0.0001
                                           -0.2106  0.0216
   101. (0.00092) RY*( 4) C   5           s(  0.00%)p 1.00( 87.00%)d 0.15( 13.00%)
                                           -0.0000  0.0000  0.0004 -0.0001  0.0000
                                            0.0000  0.0000  0.0001 -0.0001 -0.0000
                                            0.0000 -0.0001  0.0000 -0.0136  0.9274
                                            0.0172  0.0971  0.0000  0.1407  0.3319
                                           -0.0001  0.0000
   102. (0.00056) RY*( 5) C   5           s(  0.00%)p 1.00( 10.97%)d 8.12( 89.03%)
                                           -0.0000 -0.0000  0.0000 -0.0000  0.0000
                                            0.0000  0.0000  0.0000 -0.0000  0.0000
                                            0.0000  0.0000 -0.0000 -0.0047 -0.2275
                                           -0.2283 -0.0758  0.0000  0.8983  0.2888
                                            0.0000 -0.0000
   103. (0.00024) RY*( 6) C   5           s(  0.00%)p 1.00( 77.53%)d 0.29( 22.47%)
                                            0.0000  0.0000  0.0000  0.0001 -0.0000
                                            0.0000 -0.0000 -0.0000 -0.0000  0.0000
                                            0.0000  0.0000 -0.0000  0.0054  0.1801
                                           -0.8587  0.0730  0.0001 -0.0141 -0.4739
                                            0.0000 -0.0000
   104. (0.00022) RY*( 7) C   5           s( 31.27%)p 1.47( 46.10%)d 0.72( 22.63%)
                                           -0.0000 -0.0004  0.2767  0.4859  0.0014
                                           -0.0086 -0.0584 -0.5916 -0.2628 -0.0063
                                           -0.0505  0.0009 -0.1894 -0.0000 -0.0000
                                            0.0001 -0.0000  0.1109 -0.0000  0.0001
                                            0.4621  0.0228
   105. (0.00019) RY*( 8) C   5           s( 25.93%)p 0.88( 22.74%)d 1.98( 51.33%)
                                            0.0000 -0.0048 -0.0434  0.5026 -0.0688
                                            0.0171  0.0326  0.3086 -0.1429  0.0171
                                            0.1315  0.1838  0.2429 -0.0000 -0.0000
                                            0.0001 -0.0000  0.5739 -0.0000  0.0000
                                           -0.1891 -0.3849
   106. (0.00011) RY*( 9) C   5           s(  2.91%)p32.64( 95.14%)d 0.67(  1.95%)
                                           -0.0000 -0.0052  0.1532  0.0590 -0.0465
                                           -0.0001  0.0622 -0.4008  0.5344 -0.0040
                                           -0.0494 -0.0613  0.7037 -0.0000  0.0000
                                            0.0000 -0.0000 -0.0611  0.0000 -0.0000
                                           -0.0515 -0.1145
   107. (0.00006) RY*(10) C   5           s(  5.07%)p 9.46( 47.91%)d 9.28( 47.02%)
   108. (0.00005) RY*(11) C   5           s(  6.20%)p 4.70( 29.10%)d10.44( 64.71%)
   109. (0.00000) RY*(12) C   5           s(  0.00%)p 1.00( 99.63%)d 0.00(  0.37%)
   110. (0.00001) RY*(13) C   5           s( 38.14%)p 0.79( 29.94%)d 0.84( 31.92%)
   111. (0.00000) RY*(14) C   5           s(  6.40%)p13.50( 86.41%)d 1.12(  7.19%)
   112. (0.00000) RY*(15) C   5           s(  0.00%)p 1.00( 24.92%)d 3.01( 75.08%)
   113. (0.00000) RY*(16) C   5           s( 95.10%)p 0.02(  2.24%)d 0.03(  2.66%)
   114. (0.00001) RY*(17) C   5           s(  0.49%)p80.30( 39.40%)d99.99( 60.11%)
   115. (0.00602) RY*( 1) C   6           s(  0.76%)p99.99( 94.34%)d 6.43(  4.89%)
                                           -0.0000  0.0184 -0.0367  0.0770  0.0025
                                           -0.0209  0.4614  0.0496  0.0429 -0.0311
                                            0.8486  0.0429  0.0534  0.0000 -0.0000
                                           -0.0000 -0.0000  0.1880  0.0000 -0.0000
                                           -0.1133 -0.0276
   116. (0.00226) RY*( 2) C   6           s(  0.45%)p99.99( 98.76%)d 1.75(  0.79%)
                                           -0.0000 -0.0002  0.0546  0.0385  0.0065
                                           -0.0414 -0.8357 -0.1264  0.1875  0.0218
                                            0.4575  0.1189 -0.1117  0.0000  0.0000
                                            0.0000 -0.0000  0.0255 -0.0000  0.0000
                                            0.0850 -0.0051
   117. (0.00070) RY*( 3) C   6           s(  0.00%)p 1.00( 40.67%)d 1.46( 59.33%)
                                           -0.0000  0.0000  0.0000  0.0000  0.0000
                                           -0.0000  0.0000  0.0000  0.0000 -0.0000
                                           -0.0000  0.0000  0.0000 -0.0184  0.5966
                                           -0.2063  0.0890  0.0000 -0.5472  0.5421
                                            0.0000  0.0000
   118. (0.00056) RY*( 4) C   6           s(  0.00%)p 1.00( 45.22%)d 1.21( 54.78%)
                                            0.0000 -0.0000 -0.0000 -0.0000 -0.0000
                                            0.0000  0.0000 -0.0000 -0.0000  0.0000
                                           -0.0000  0.0000 -0.0000 -0.0005  0.6627
                                           -0.0860  0.0752  0.0000  0.7396 -0.0277
                                            0.0000 -0.0000
   119. (0.00040) RY*( 5) C   6           s( 92.84%)p 0.04(  4.00%)d 0.03(  3.17%)
                                           -0.0000  0.0054  0.9625 -0.0442 -0.0093
                                           -0.0097  0.0772  0.1029  0.0688 -0.0277
                                            0.0167  0.0733  0.1102  0.0000 -0.0000
                                            0.0000 -0.0000 -0.0842  0.0000 -0.0000
                                            0.1378 -0.0747
   120. (0.00027) RY*( 6) C   6           s(  1.43%)p54.02( 77.33%)d14.84( 21.24%)
                                            0.0000 -0.0006  0.0232  0.1146  0.0253
                                            0.0230  0.1275 -0.7380 -0.2251 -0.0143
                                           -0.0568  0.3902  0.0742 -0.0000 -0.0000
                                            0.0000 -0.0000  0.2656 -0.0000 -0.0000
                                            0.3765  0.0123
   121. (0.00011) RY*( 7) C   6           s( 33.05%)p 0.26(  8.45%)d 1.77( 58.49%)
                                            0.0000 -0.0080 -0.1532  0.5464 -0.0921
                                            0.0072  0.0289  0.1017  0.1008  0.0116
                                            0.0179  0.0547  0.2443 -0.0000  0.0000
                                            0.0000 -0.0000 -0.4242 -0.0000  0.0000
                                            0.3142 -0.5534
   122. (0.00007) RY*( 8) C   6           s(  4.44%)p12.25( 54.36%)d 9.29( 41.21%)
   123. (0.00005) RY*( 9) C   6           s(  8.07%)p 8.32( 67.20%)d 3.06( 24.72%)
   124. (0.00000) RY*(10) C   6           s(  4.45%)p16.78( 74.70%)d 4.68( 20.85%)
   125. (0.00000) RY*(11) C   6           s(  0.00%)p 1.00( 98.34%)d 0.02(  1.66%)
   126. (0.00001) RY*(12) C   6           s(  2.23%)p35.57( 79.34%)d 8.26( 18.42%)
   127. (0.00001) RY*(13) C   6           s( 56.06%)p 0.39( 21.87%)d 0.39( 22.08%)
   128. (0.00000) RY*(14) C   6           s( 93.05%)p 0.02(  2.30%)d 0.05(  4.65%)
   129. (0.00000) RY*(15) C   6           s(  0.00%)p 1.00( 16.08%)d 5.22( 83.92%)
   130. (0.00000) RY*(16) C   6           s(  0.00%)p 1.00( 99.74%)d 0.00(  0.26%)
   131. (0.00001) RY*(17) C   6           s(  3.16%)p 5.54( 17.49%)d25.12( 79.35%)
   132. (0.00395) RY*( 1)Cl   7           s(  0.00%)p 1.00( 45.65%)d 1.19( 54.35%)
                                            0.0000  0.0000  0.0000  0.0000 -0.0000
                                           -0.0000  0.0000  0.0000  0.0000  0.0000
                                           -0.0000  0.0000 -0.0000 -0.0000 -0.0000
                                            0.0000  0.0000  0.0000  0.0000  0.0000
                                           -0.0015 -0.6538 -0.1677 -0.0304 -0.0082
                                           -0.0000  0.7372  0.0000 -0.0000  0.0000
   133. (0.00280) RY*( 2)Cl   7           s(  0.00%)p 1.00( 66.71%)d 0.50( 33.29%)
                                           -0.0000 -0.0000  0.0000  0.0000 -0.0000
                                           -0.0000  0.0000 -0.0000  0.0000 -0.0000
                                           -0.0000 -0.0000 -0.0000 -0.0000 -0.0039
                                            0.8137  0.0539 -0.0449  0.0121 -0.0000
                                            0.0000  0.0000  0.0000 -0.0000  0.0000
                                           -0.5770 -0.0000 -0.0000  0.0000 -0.0000
   134. (0.00088) RY*( 3)Cl   7           s(  5.67%)p12.44( 70.56%)d 4.19( 23.77%)
                                            0.0000 -0.0000 -0.0159 -0.0999  0.2153
                                            0.0099 -0.0002  0.0000 -0.0743 -0.8299
                                           -0.1031 -0.0167  0.0187 -0.0000 -0.0000
                                           -0.0000  0.0000  0.0000  0.0000  0.0000
                                           -0.0000 -0.0000 -0.0000  0.0000  0.0000
                                            0.0000  0.0000  0.0000  0.3668 -0.3212
   135. (0.00013) RY*( 4)Cl   7           s( 57.94%)p 0.21( 12.14%)d 0.52( 29.92%)
                                            0.0000 -0.0000 -0.0096  0.7328  0.2046
                                            0.0208  0.0025  0.0000 -0.0447 -0.0760
                                            0.2261  0.2453 -0.0484 -0.0000 -0.0000
                                            0.0000 -0.0000 -0.0000  0.0000  0.0000
                                           -0.0000 -0.0000  0.0000  0.0000 -0.0000
                                            0.0000 -0.0000  0.0000  0.3459  0.4237
   136. (0.00007) RY*( 5)Cl   7           s(  0.00%)p 1.00( 83.65%)d 0.20( 16.35%)
   137. (0.00004) RY*( 6)Cl   7           s(  0.00%)p 0.00(  0.00%)d 1.00(100.00%)
   138. (0.00005) RY*( 7)Cl   7           s( 26.62%)p 1.76( 46.91%)d 0.99( 26.47%)
   139. (0.00001) RY*( 8)Cl   7           s(  0.00%)p 1.00( 59.45%)d 0.68( 40.55%)
   140. (0.00002) RY*( 9)Cl   7           s( 16.33%)p 3.73( 60.83%)d 1.40( 22.84%)
   141. (0.00001) RY*(10)Cl   7           s( 40.85%)p 0.29( 11.74%)d 1.16( 47.41%)
   142. (0.00000) RY*(11)Cl   7           s(  0.00%)p 1.00( 99.90%)d 0.00(  0.10%)
   143. (0.00000) RY*(12)Cl   7           s(  0.00%)p 1.00(100.00%)d 0.00(  0.00%)
   144. (0.00000) RY*(13)Cl   7           s( 97.38%)p 0.02(  1.89%)d 0.01(  0.73%)
   145. (0.00000) RY*(14)Cl   7           s(  0.00%)p 1.00( 95.29%)d 0.05(  4.71%)
   146. (0.00000) RY*(15)Cl   7           s(  0.00%)p 1.00( 99.74%)d 0.00(  0.26%)
   147. (0.00000) RY*(16)Cl   7           s(  0.00%)p 1.00( 99.90%)d 0.00(  0.10%)
   148. (0.00001) RY*(17)Cl   7           s(  0.00%)p 1.00( 49.75%)d 1.01( 50.25%)
   149. (0.00000) RY*(18)Cl   7           s( 34.50%)p 1.61( 55.51%)d 0.29(  9.99%)
   150. (0.00000) RY*(19)Cl   7           s(  0.39%)p99.99( 99.34%)d 0.68(  0.27%)
   151. (0.00001) RY*(20)Cl   7           s( 20.19%)p 2.07( 41.73%)d 1.89( 38.08%)
   152. (0.00000) RY*(21)Cl   7           s(100.00%)p 0.00(  0.00%)d 0.00(  0.00%)
   153. (0.00078) RY*( 1) H   8           s( 98.57%)p 0.01(  1.43%)
                                           -0.0040  0.9928 -0.0076 -0.0002 -0.1198
                                           -0.0000 -0.0000
   154. (0.00020) RY*( 2) H   8           s( 91.01%)p 0.10(  8.99%)
                                            0.0055  0.0435  0.9530  0.0008  0.2999
                                           -0.0000  0.0000
   155. (0.00019) RY*( 3) H   8           s(  0.00%)p 1.00(100.00%)
                                           -0.0000  0.0000 -0.0000  0.0000  0.0000
                                            0.0000  1.0000
   156. (0.00012) RY*( 4) H   8           s(  0.00%)p 1.00(100.00%)
                                           -0.0000  0.0000  0.0000 -0.0000 -0.0000
                                            1.0000 -0.0000
   157. (0.00003) RY*( 5) H   8           s(100.00%)p 0.00(  0.00%)
   158. (0.00003) RY*( 6) H   8           s( 10.47%)p 8.55( 89.53%)
   159. (0.00076) RY*( 1) H   9           s( 98.34%)p 0.02(  1.66%)
                                           -0.0041  0.9916 -0.0078 -0.0007 -0.0380
                                            0.1233  0.0000
   160. (0.00020) RY*( 2) H   9           s( 90.00%)p 0.11( 10.00%)
                                            0.0051  0.0378  0.9479 -0.0077  0.2728
                                           -0.1599 -0.0000
   161. (0.00019) RY*( 3) H   9           s(  0.00%)p 1.00(100.00%)
                                            0.0000 -0.0000  0.0000  0.0000  0.0000
                                            0.0000  1.0000
   162. (0.00011) RY*( 4) H   9           s(  4.04%)p23.77( 95.96%)
                                            0.0009  0.0347  0.1495  0.1297 -0.8278
                                           -0.5238  0.0000
   163. (0.00003) RY*( 5) H   9           s( 10.29%)p 8.71( 89.71%)
   164. (0.00002) RY*( 6) H   9           s( 97.38%)p 0.03(  2.62%)
   165. (0.00090) RY*( 1) H  10           s( 98.49%)p 0.02(  1.51%)
                                           -0.0040  0.9924 -0.0032 -0.0059  0.0902
                                            0.0832  0.0000
   166. (0.00025) RY*( 2) H  10           s( 86.85%)p 0.15( 13.15%)
                                            0.0031  0.0115  0.9318  0.0059  0.1914
                                           -0.3081 -0.0000
   167. (0.00018) RY*( 3) H  10           s( 82.26%)p 0.22( 17.74%)
                                            0.0050  0.0494  0.0548  0.9039 -0.4149
                                           -0.0726 -0.0000
   168. (0.00019) RY*( 4) H  10           s(  0.00%)p 1.00(100.00%)
                                           -0.0000 -0.0000  0.0000  0.0000  0.0000
                                            0.0000  1.0000
   169. (0.00012) RY*( 5) H  10           s( 20.12%)p 3.97( 79.88%)
                                           -0.0015  0.0203  0.3246 -0.3089 -0.7203
                                            0.5292 -0.0000
   170. (0.00003) RY*( 6) H  10           s( 12.33%)p 7.11( 87.67%)
   171. (0.00090) RY*( 1) H  11           s( 98.49%)p 0.02(  1.51%)
                                           -0.0040  0.9924 -0.0032 -0.0059  0.0902
                                           -0.0832  0.0000
   172. (0.00025) RY*( 2) H  11           s( 86.85%)p 0.15( 13.15%)
                                            0.0031  0.0115  0.9318  0.0059  0.1914
                                            0.3081 -0.0000
   173. (0.00018) RY*( 3) H  11           s( 82.26%)p 0.22( 17.74%)
                                            0.0050  0.0494  0.0548  0.9039 -0.4149
                                            0.0726 -0.0000
   174. (0.00019) RY*( 4) H  11           s(  0.00%)p 1.00(100.00%)
                                            0.0000 -0.0000  0.0000  0.0000  0.0000
                                           -0.0000  1.0000
   175. (0.00012) RY*( 5) H  11           s( 20.12%)p 3.97( 79.88%)
                                           -0.0015  0.0203  0.3246 -0.3089 -0.7203
                                           -0.5292 -0.0000
   176. (0.00003) RY*( 6) H  11           s( 12.33%)p 7.11( 87.67%)
   177. (0.00076) RY*( 1) H  12           s( 98.34%)p 0.02(  1.66%)
                                           -0.0041  0.9916 -0.0078 -0.0007 -0.0380
                                           -0.1233 -0.0000
   178. (0.00020) RY*( 2) H  12           s( 90.00%)p 0.11( 10.00%)
                                            0.0051  0.0378  0.9479 -0.0077  0.2728
                                            0.1599 -0.0000
   179. (0.00019) RY*( 3) H  12           s(  0.00%)p 1.00(100.00%)
                                            0.0000  0.0000  0.0000 -0.0000  0.0000
                                           -0.0000  1.0000
   180. (0.00011) RY*( 4) H  12           s(  4.04%)p23.77( 95.96%)
                                            0.0009  0.0347  0.1495  0.1297 -0.8278
                                            0.5238  0.0000
   181. (0.00003) RY*( 5) H  12           s( 10.29%)p 8.71( 89.71%)
   182. (0.00002) RY*( 6) H  12           s( 97.38%)p 0.03(  2.62%)
   183. (0.01586) BD*( 1) C   1 - C   2  
                ( 50.09%)   0.7078* C   1 s( 35.73%)p 1.80( 64.22%)d 0.00(  0.04%)
                                            0.0000  0.5976 -0.0137 -0.0005 -0.0001
                                           -0.3766 -0.0237  0.0083 -0.0004 -0.7059
                                            0.0380  0.0064 -0.0009  0.0000  0.0000
                                           -0.0000  0.0000  0.0159 -0.0000 -0.0000
                                           -0.0065 -0.0122
                ( 49.91%)  -0.7064* C   2 s( 35.84%)p 1.79( 64.12%)d 0.00(  0.04%)
                                            0.0000  0.5985 -0.0150  0.0001 -0.0000
                                            0.4226 -0.0442  0.0020  0.0004  0.6786
                                            0.0025  0.0102  0.0004 -0.0000  0.0000
                                           -0.0000 -0.0000  0.0134 -0.0000 -0.0000
                                           -0.0106 -0.0120
   184. (0.33351) BD*( 2) C   1 - C   2  
                ( 49.55%)   0.7039* C   1 s(  0.00%)p 1.00( 99.96%)d 0.00(  0.04%)
                                            0.0000  0.0000 -0.0000 -0.0000 -0.0000
                                           -0.0000 -0.0000 -0.0000 -0.0000 -0.0000
                                           -0.0000 -0.0000  0.0000 -0.9995 -0.0174
                                           -0.0142  0.0022  0.0000  0.0187  0.0091
                                            0.0000 -0.0000
                ( 50.45%)  -0.7103* C   2 s(  0.00%)p 1.00( 99.96%)d 0.00(  0.04%)
                                           -0.0000  0.0000  0.0000  0.0000  0.0000
                                           -0.0000 -0.0000  0.0000  0.0000 -0.0000
                                           -0.0000  0.0000 -0.0000 -0.9996 -0.0150
                                            0.0149  0.0020 -0.0000  0.0009 -0.0209
                                            0.0000  0.0000
   185. (0.01586) BD*( 1) C   1 - C   6  
                ( 50.09%)   0.7078* C   1 s( 35.73%)p 1.80( 64.22%)d 0.00(  0.04%)
                                            0.0000  0.5976 -0.0137 -0.0005 -0.0001
                                           -0.3766 -0.0237  0.0083 -0.0004  0.7059
                                           -0.0380 -0.0064  0.0009  0.0000  0.0000
                                           -0.0000  0.0000 -0.0159 -0.0000  0.0000
                                           -0.0065 -0.0122
                ( 49.91%)  -0.7064* C   6 s( 35.84%)p 1.79( 64.12%)d 0.00(  0.04%)
                                            0.0000  0.5985 -0.0150  0.0001 -0.0000
                                            0.4226 -0.0442  0.0020  0.0004 -0.6786
                                           -0.0025 -0.0102 -0.0004 -0.0000  0.0000
                                           -0.0000 -0.0000 -0.0134 -0.0000  0.0000
                                           -0.0106 -0.0120
   186. (0.01345) BD*( 1) C   1 - H   8  
                ( 39.54%)   0.6288* C   1 s( 28.55%)p 2.50( 71.41%)d 0.00(  0.04%)
                                            0.0004 -0.5338 -0.0237 -0.0013 -0.0003
                                           -0.8448 -0.0189 -0.0012 -0.0016 -0.0000
                                            0.0000 -0.0000 -0.0000  0.0000  0.0000
                                           -0.0000  0.0000  0.0000  0.0000 -0.0000
                                           -0.0191  0.0084
                ( 60.46%)  -0.7776* H   8 s( 99.95%)p 0.00(  0.05%)
                                           -0.9998 -0.0014 -0.0010  0.0001  0.0218
                                           -0.0000 -0.0000
   187. (0.01662) BD*( 1) C   2 - C   3  
                ( 50.50%)   0.7107* C   2 s( 35.49%)p 1.82( 64.47%)d 0.00(  0.04%)
                                            0.0001  0.5956 -0.0130 -0.0015 -0.0000
                                           -0.8011  0.0199 -0.0127 -0.0010 -0.0255
                                            0.0407  0.0043 -0.0002  0.0000 -0.0000
                                            0.0000  0.0000 -0.0027 -0.0000  0.0000
                                            0.0167 -0.0121
                ( 49.50%)  -0.7035* C   3 s( 35.98%)p 1.78( 63.98%)d 0.00(  0.05%)
                                           -0.0002  0.5996 -0.0165 -0.0068 -0.0002
                                            0.7984 -0.0167 -0.0093  0.0012 -0.0218
                                            0.0392 -0.0038 -0.0006 -0.0000  0.0000
                                            0.0000 -0.0000  0.0037 -0.0000 -0.0000
                                            0.0169 -0.0124
   188. (0.01294) BD*( 1) C   2 - H   9  
                ( 39.45%)   0.6281* C   2 s( 28.68%)p 2.49( 71.28%)d 0.00(  0.04%)
                                           -0.0004  0.5350  0.0234  0.0011  0.0000
                                            0.4200  0.0084 -0.0003  0.0008 -0.7322
                                           -0.0167  0.0013 -0.0015 -0.0000 -0.0000
                                            0.0000 -0.0000 -0.0164  0.0000  0.0000
                                           -0.0095 -0.0086
                ( 60.55%)  -0.7782* H   9 s( 99.95%)p 0.00(  0.05%)
                                            0.9998  0.0014  0.0010  0.0001 -0.0109
                                            0.0193 -0.0000
   189. (0.02927) BD*( 1) C   3 - C   4  
                ( 50.83%)   0.7130* C   3 s( 35.30%)p 1.83( 64.65%)d 0.00(  0.04%)
                                            0.0000  0.5940 -0.0144  0.0059  0.0008
                                           -0.4269  0.0399  0.0015 -0.0005  0.6801
                                            0.0017 -0.0112 -0.0003 -0.0000 -0.0000
                                            0.0000 -0.0000 -0.0143  0.0000 -0.0000
                                           -0.0105 -0.0113
                ( 49.17%)  -0.7012* C   4 s( 38.27%)p 1.61( 61.70%)d 0.00(  0.04%)
                                            0.0000  0.6186 -0.0034  0.0040 -0.0001
                                            0.3417  0.0171 -0.0066  0.0070 -0.7067
                                            0.0164  0.0038 -0.0075  0.0000 -0.0000
                                           -0.0000  0.0000 -0.0139  0.0000  0.0000
                                           -0.0074 -0.0113
   190. (0.39518) BD*( 2) C   3 - C   4  
                ( 52.61%)   0.7253* C   3 s(  0.00%)p 1.00( 99.95%)d 0.00(  0.05%)
                                            0.0000  0.0000  0.0000  0.0000  0.0000
                                            0.0000  0.0000  0.0000  0.0000  0.0000
                                            0.0000  0.0000  0.0000  0.9995  0.0088
                                            0.0193 -0.0015  0.0000  0.0005  0.0215
                                            0.0000 -0.0000
                ( 47.39%)  -0.6884* C   4 s(  0.00%)p 1.00( 99.98%)d 0.00(  0.02%)
                                            0.0000  0.0000  0.0000  0.0000 -0.0000
                                           -0.0000 -0.0000 -0.0000 -0.0000 -0.0000
                                            0.0000 -0.0000 -0.0000  0.9997  0.0081
                                            0.0181 -0.0007 -0.0000  0.0078 -0.0102
                                            0.0000  0.0000
   191. (0.01339) BD*( 1) C   3 - H  10  
                ( 38.97%)   0.6243* C   3 s( 28.74%)p 2.48( 71.21%)d 0.00(  0.04%)
                                           -0.0004  0.5356  0.0237  0.0018 -0.0006
                                           -0.4214 -0.0135  0.0001 -0.0002 -0.7309
                                           -0.0118  0.0010 -0.0013  0.0000 -0.0000
                                           -0.0000  0.0000  0.0159 -0.0000 -0.0000
                                           -0.0090 -0.0091
                ( 61.03%)  -0.7812* H  10 s( 99.95%)p 0.00(  0.05%)
                                            0.9998  0.0015  0.0004  0.0011  0.0113
                                            0.0186 -0.0000
   192. (0.02927) BD*( 1) C   4 - C   5  
                ( 49.17%)   0.7012* C   4 s( 38.27%)p 1.61( 61.70%)d 0.00(  0.04%)
                                           -0.0000 -0.6186  0.0034 -0.0040  0.0001
                                           -0.3417 -0.0171  0.0066 -0.0070 -0.7067
                                            0.0164  0.0038 -0.0075 -0.0000  0.0000
                                            0.0000 -0.0000 -0.0139 -0.0000 -0.0000
                                            0.0074  0.0113
                ( 50.83%)  -0.7130* C   5 s( 35.30%)p 1.83( 64.65%)d 0.00(  0.04%)
                                           -0.0000 -0.5940  0.0144 -0.0059 -0.0008
                                            0.4269 -0.0399 -0.0015  0.0005  0.6801
                                            0.0017 -0.0112 -0.0003  0.0000  0.0000
                                           -0.0000  0.0000 -0.0143 -0.0000 -0.0000
                                            0.0105  0.0113
   193. (0.03027) BD*( 1) C   4 -Cl   7  
                ( 54.05%)   0.7352* C   4 s( 23.33%)p 3.28( 76.46%)d 0.01(  0.21%)
                                           -0.0001  0.4828  0.0076 -0.0100  0.0000
                                           -0.8742  0.0054  0.0116  0.0159 -0.0000
                                           -0.0000  0.0000  0.0000 -0.0000  0.0000
                                            0.0000  0.0000  0.0000  0.0000 -0.0000
                                            0.0392 -0.0239
                ( 45.95%)  -0.6779*Cl   7 s( 18.86%)p 4.28( 80.63%)d 0.03(  0.51%)
                                            0.0000  0.0001  0.4321  0.0428  0.0006
                                           -0.0001 -0.0000  0.0001  0.8963 -0.0536
                                            0.0098 -0.0008  0.0001  0.0000  0.0000
                                           -0.0000  0.0000 -0.0000 -0.0000  0.0000
                                            0.0000 -0.0000  0.0000 -0.0000 -0.0000
                                            0.0000  0.0000 -0.0000  0.0623 -0.0351
   194. (0.01662) BD*( 1) C   5 - C   6  
                ( 49.50%)   0.7035* C   5 s( 35.98%)p 1.78( 63.98%)d 0.00(  0.05%)
                                            0.0002 -0.5996  0.0165  0.0068  0.0002
                                           -0.7984  0.0167  0.0093 -0.0012 -0.0218
                                            0.0392 -0.0038 -0.0006  0.0000 -0.0000
                                           -0.0000  0.0000  0.0037  0.0000 -0.0000
                                           -0.0169  0.0124
                ( 50.50%)  -0.7107* C   6 s( 35.49%)p 1.82( 64.47%)d 0.00(  0.04%)
                                           -0.0001 -0.5956  0.0130  0.0015  0.0000
                                            0.8011 -0.0199  0.0127  0.0010 -0.0255
                                            0.0407  0.0043 -0.0002 -0.0000  0.0000
                                           -0.0000 -0.0000 -0.0027  0.0000  0.0000
                                           -0.0167  0.0121
   195. (0.32756) BD*( 2) C   5 - C   6  
                ( 49.53%)   0.7038* C   5 s(  0.00%)p 1.00( 99.95%)d 0.00(  0.05%)
                                            0.0000  0.0000 -0.0000  0.0000 -0.0000
                                           -0.0000 -0.0000 -0.0000 -0.0000  0.0000
                                            0.0000  0.0000  0.0000 -0.9995 -0.0163
                                           -0.0161  0.0016  0.0000 -0.0173  0.0123
                                           -0.0000  0.0000
                ( 50.47%)  -0.7104* C   6 s(  0.00%)p 1.00( 99.95%)d 0.00(  0.05%)
                                            0.0000  0.0000 -0.0000 -0.0000 -0.0000
                                           -0.0000 -0.0000  0.0000 -0.0000  0.0000
                                           -0.0000 -0.0000 -0.0000 -0.9994 -0.0184
                                            0.0176  0.0013  0.0000  0.0181  0.0112
                                            0.0000 -0.0000
   196. (0.01339) BD*( 1) C   5 - H  11  
                ( 38.97%)   0.6243* C   5 s( 28.74%)p 2.48( 71.21%)d 0.00(  0.04%)
                                            0.0004 -0.5356 -0.0237 -0.0018  0.0006
                                            0.4214  0.0135 -0.0001  0.0002 -0.7309
                                           -0.0118  0.0010 -0.0013 -0.0000  0.0000
                                            0.0000 -0.0000  0.0159  0.0000 -0.0000
                                            0.0090  0.0091
                ( 61.03%)  -0.7812* H  11 s( 99.95%)p 0.00(  0.05%)
                                           -0.9998 -0.0015 -0.0004 -0.0011 -0.0113
                                            0.0186  0.0000
   197. (0.01294) BD*( 1) C   6 - H  12  
                ( 39.45%)   0.6281* C   6 s( 28.68%)p 2.49( 71.28%)d 0.00(  0.04%)
                                            0.0004 -0.5350 -0.0234 -0.0011 -0.0000
                                           -0.4200 -0.0084  0.0003 -0.0008 -0.7322
                                           -0.0167  0.0013 -0.0015  0.0000  0.0000
                                            0.0000  0.0000 -0.0164  0.0000  0.0000
                                            0.0095  0.0086
                ( 60.55%)  -0.7782* H  12 s( 99.95%)p 0.00(  0.05%)
                                           -0.9998 -0.0014 -0.0010 -0.0001  0.0109
                                            0.0193 -0.0000


 NHO Directionality and "Bond Bending" (deviations from line of nuclear centers)

         [Thresholds for printing:  angular deviation  >  1.0 degree]
                                    hybrid p-character > 25.0%
                                    orbital occupancy  >  0.10e

                                Line of Centers        Hybrid 1              Hybrid 2
                                ---------------  -------------------   ------------------
                NBO               Theta   Phi    Theta   Phi    Dev    Theta   Phi    Dev
 ========================================================================================
     1. BD (   1) C   1 - C   2    90.0  240.1     --     --    --      90.0   61.2   1.1
     2. BD (   2) C   1 - C   2    90.0  240.1     0.0    0.0  90.0      0.0    0.0  90.0
     3. BD (   1) C   1 - C   6    90.0  119.9     --     --    --      90.0  298.8   1.1
     5. BD (   1) C   2 - C   3    90.0  180.0    90.0  178.6   1.4      --     --    --
     7. BD (   1) C   3 - C   4    90.0  119.8     --     --    --      90.0  297.4   2.4
     8. BD (   2) C   3 - C   4    90.0  119.8     0.0    0.0  90.0      0.0    0.0  90.0
    10. BD (   1) C   4 - C   5    90.0   60.2    90.0   62.6   2.4      --     --    --
    12. BD (   1) C   5 - C   6    90.0    0.0     --     --    --      90.0  181.4   1.4
    13. BD (   2) C   5 - C   6    90.0    0.0     0.0    0.0  90.0      0.0    0.0  90.0
    28. LP (   2)Cl   7             --     --     90.0   90.0   --       --     --    --
    29. LP (   3)Cl   7             --     --      0.0    0.0   --       --     --    --
   184. BD*(   2) C   1 - C   2    90.0  240.1     0.0    0.0  90.0      0.0    0.0  90.0
   190. BD*(   2) C   3 - C   4    90.0  119.8     0.0    0.0  90.0      0.0    0.0  90.0
   195. BD*(   2) C   5 - C   6    90.0    0.0     0.0    0.0  90.0      0.0    0.0  90.0


 Second Order Perturbation Theory Analysis of Fock Matrix in NBO Basis

     Threshold for printing:   0.50 kcal/mol
                                                                              E(2)  E(j)-E(i) F(i,j)
         Donor NBO (i)                     Acceptor NBO (j)                 kcal/mol   a.u.    a.u. 
 ===================================================================================================

 within unit  1
   1. BD (   1) C   1 - C   2        / 65. RY*(   2) C   3                    2.24    1.72    0.056
   1. BD (   1) C   1 - C   2        /115. RY*(   1) C   6                    0.96    1.79    0.037
   1. BD (   1) C   1 - C   2        /116. RY*(   2) C   6                    1.44    1.98    0.048
   1. BD (   1) C   1 - C   2        /185. BD*(   1) C   1 - C   6            2.64    1.27    0.052
   1. BD (   1) C   1 - C   2        /186. BD*(   1) C   1 - H   8            0.90    1.14    0.029
   1. BD (   1) C   1 - C   2        /187. BD*(   1) C   2 - C   3            2.54    1.27    0.051
   1. BD (   1) C   1 - C   2        /188. BD*(   1) C   2 - H   9            0.93    1.14    0.029
   1. BD (   1) C   1 - C   2        /191. BD*(   1) C   3 - H  10            2.37    1.13    0.046
   1. BD (   1) C   1 - C   2        /197. BD*(   1) C   6 - H  12            2.36    1.14    0.046
   2. BD (   2) C   1 - C   2        / 68. RY*(   5) C   3                    0.79    1.61    0.035
   2. BD (   2) C   1 - C   2        /117. RY*(   3) C   6                    1.18    1.36    0.039
   2. BD (   2) C   1 - C   2        /190. BD*(   2) C   3 - C   4           21.72    0.26    0.069
   2. BD (   2) C   1 - C   2        /195. BD*(   2) C   5 - C   6           20.85    0.28    0.068
   3. BD (   1) C   1 - C   6        / 47. RY*(   1) C   2                    0.96    1.79    0.037
   3. BD (   1) C   1 - C   6        / 48. RY*(   2) C   2                    1.44    1.98    0.048
   3. BD (   1) C   1 - C   6        / 99. RY*(   2) C   5                    2.24    1.72    0.056
   3. BD (   1) C   1 - C   6        /183. BD*(   1) C   1 - C   2            2.64    1.27    0.052
   3. BD (   1) C   1 - C   6        /186. BD*(   1) C   1 - H   8            0.90    1.14    0.029
   3. BD (   1) C   1 - C   6        /188. BD*(   1) C   2 - H   9            2.36    1.14    0.046
   3. BD (   1) C   1 - C   6        /194. BD*(   1) C   5 - C   6            2.54    1.27    0.051
   3. BD (   1) C   1 - C   6        /196. BD*(   1) C   5 - H  11            2.37    1.13    0.046
   3. BD (   1) C   1 - C   6        /197. BD*(   1) C   6 - H  12            0.93    1.14    0.029
   4. BD (   1) C   1 - H   8        / 47. RY*(   1) C   2                    1.44    1.60    0.043
   4. BD (   1) C   1 - H   8        /115. RY*(   1) C   6                    1.44    1.60    0.043
   4. BD (   1) C   1 - H   8        /183. BD*(   1) C   1 - C   2            0.56    1.09    0.022
   4. BD (   1) C   1 - H   8        /185. BD*(   1) C   1 - C   6            0.56    1.09    0.022
   4. BD (   1) C   1 - H   8        /187. BD*(   1) C   2 - C   3            3.73    1.09    0.057
   4. BD (   1) C   1 - H   8        /188. BD*(   1) C   2 - H   9            0.51    0.96    0.020
   4. BD (   1) C   1 - H   8        /194. BD*(   1) C   5 - C   6            3.73    1.09    0.057
   4. BD (   1) C   1 - H   8        /197. BD*(   1) C   6 - H  12            0.51    0.96    0.020
   5. BD (   1) C   2 - C   3        / 30. RY*(   1) C   1                    1.00    1.80    0.038
   5. BD (   1) C   2 - C   3        / 31. RY*(   2) C   1                    1.45    1.97    0.048
   5. BD (   1) C   2 - C   3        / 81. RY*(   1) C   4                    0.56    1.72    0.028
   5. BD (   1) C   2 - C   3        / 82. RY*(   2) C   4                    1.21    1.61    0.040
   5. BD (   1) C   2 - C   3        /183. BD*(   1) C   1 - C   2            2.54    1.28    0.051
   5. BD (   1) C   2 - C   3        /186. BD*(   1) C   1 - H   8            2.30    1.14    0.046
   5. BD (   1) C   2 - C   3        /188. BD*(   1) C   2 - H   9            0.83    1.14    0.028
   5. BD (   1) C   2 - C   3        /189. BD*(   1) C   3 - C   4            3.46    1.26    0.059
   5. BD (   1) C   2 - C   3        /191. BD*(   1) C   3 - H  10            1.03    1.13    0.031
   5. BD (   1) C   2 - C   3        /193. BD*(   1) C   4 -Cl   7            4.89    0.87    0.058
   6. BD (   1) C   2 - H   9        / 30. RY*(   1) C   1                    1.39    1.62    0.042
   6. BD (   1) C   2 - H   9        / 64. RY*(   1) C   3                    1.34    1.55    0.041
   6. BD (   1) C   2 - H   9        /183. BD*(   1) C   1 - C   2            0.59    1.09    0.023
   6. BD (   1) C   2 - H   9        /185. BD*(   1) C   1 - C   6            3.70    1.09    0.057
   6. BD (   1) C   2 - H   9        /186. BD*(   1) C   1 - H   8            0.51    0.96    0.020
   6. BD (   1) C   2 - H   9        /187. BD*(   1) C   2 - C   3            0.57    1.09    0.022
   6. BD (   1) C   2 - H   9        /189. BD*(   1) C   3 - C   4            3.49    1.08    0.055
   7. BD (   1) C   3 - C   4        / 47. RY*(   1) C   2                    1.01    1.81    0.038
   7. BD (   1) C   3 - C   4        / 48. RY*(   2) C   2                    1.45    2.01    0.048
   7. BD (   1) C   3 - C   4        / 98. RY*(   1) C   5                    1.42    1.76    0.045
   7. BD (   1) C   3 - C   4        / 99. RY*(   2) C   5                    0.52    1.74    0.027
   7. BD (   1) C   3 - C   4        /133. RY*(   2)Cl   7                    0.51    1.33    0.023
   7. BD (   1) C   3 - C   4        /187. BD*(   1) C   2 - C   3            2.91    1.30    0.055
   7. BD (   1) C   3 - C   4        /188. BD*(   1) C   2 - H   9            1.95    1.16    0.043
   7. BD (   1) C   3 - C   4        /191. BD*(   1) C   3 - H  10            1.17    1.16    0.033
   7. BD (   1) C   3 - C   4        /192. BD*(   1) C   4 - C   5            3.86    1.29    0.063
   7. BD (   1) C   3 - C   4        /196. BD*(   1) C   5 - H  11            2.27    1.16    0.046
   8. BD (   2) C   3 - C   4        / 50. RY*(   4) C   2                    1.14    1.43    0.039
   8. BD (   2) C   3 - C   4        /101. RY*(   4) C   5                    2.24    0.87    0.043
   8. BD (   2) C   3 - C   4        /132. RY*(   1)Cl   7                    2.31    0.94    0.045
   8. BD (   2) C   3 - C   4        /184. BD*(   2) C   1 - C   2           18.46    0.30    0.066
   8. BD (   2) C   3 - C   4        /195. BD*(   2) C   5 - C   6           19.43    0.30    0.068
   9. BD (   1) C   3 - H  10        / 47. RY*(   1) C   2                    1.32    1.61    0.041
   9. BD (   1) C   3 - H  10        / 81. RY*(   1) C   4                    1.39    1.54    0.041
   9. BD (   1) C   3 - H  10        /183. BD*(   1) C   1 - C   2            3.59    1.10    0.056
   9. BD (   1) C   3 - H  10        /187. BD*(   1) C   2 - C   3            0.71    1.09    0.025
   9. BD (   1) C   3 - H  10        /188. BD*(   1) C   2 - H   9            0.52    0.96    0.020
   9. BD (   1) C   3 - H  10        /189. BD*(   1) C   3 - C   4            0.85    1.08    0.027
   9. BD (   1) C   3 - H  10        /192. BD*(   1) C   4 - C   5            4.30    1.08    0.061
  10. BD (   1) C   4 - C   5        / 64. RY*(   1) C   3                    1.42    1.76    0.045
  10. BD (   1) C   4 - C   5        / 65. RY*(   2) C   3                    0.52    1.74    0.027
  10. BD (   1) C   4 - C   5        /115. RY*(   1) C   6                    1.01    1.81    0.038
  10. BD (   1) C   4 - C   5        /116. RY*(   2) C   6                    1.45    2.01    0.048
  10. BD (   1) C   4 - C   5        /133. RY*(   2)Cl   7                    0.51    1.33    0.023
  10. BD (   1) C   4 - C   5        /189. BD*(   1) C   3 - C   4            3.86    1.29    0.063
  10. BD (   1) C   4 - C   5        /191. BD*(   1) C   3 - H  10            2.27    1.16    0.046
  10. BD (   1) C   4 - C   5        /194. BD*(   1) C   5 - C   6            2.91    1.30    0.055
  10. BD (   1) C   4 - C   5        /196. BD*(   1) C   5 - H  11            1.17    1.16    0.033
  10. BD (   1) C   4 - C   5        /197. BD*(   1) C   6 - H  12            1.95    1.16    0.043
  11. BD (   1) C   4 -Cl   7        / 64. RY*(   1) C   3                    0.87    1.77    0.035
  11. BD (   1) C   4 -Cl   7        / 81. RY*(   1) C   4                    0.56    1.76    0.028
  11. BD (   1) C   4 -Cl   7        / 98. RY*(   1) C   5                    0.87    1.77    0.035
  11. BD (   1) C   4 -Cl   7        /187. BD*(   1) C   2 - C   3            2.15    1.31    0.048
  11. BD (   1) C   4 -Cl   7        /194. BD*(   1) C   5 - C   6            2.15    1.31    0.048
  12. BD (   1) C   5 - C   6        / 30. RY*(   1) C   1                    1.00    1.80    0.038
  12. BD (   1) C   5 - C   6        / 31. RY*(   2) C   1                    1.45    1.97    0.048
  12. BD (   1) C   5 - C   6        / 81. RY*(   1) C   4                    0.56    1.72    0.028
  12. BD (   1) C   5 - C   6        / 82. RY*(   2) C   4                    1.21    1.61    0.040
  12. BD (   1) C   5 - C   6        /185. BD*(   1) C   1 - C   6            2.54    1.28    0.051
  12. BD (   1) C   5 - C   6        /186. BD*(   1) C   1 - H   8            2.30    1.14    0.046
  12. BD (   1) C   5 - C   6        /192. BD*(   1) C   4 - C   5            3.46    1.26    0.059
  12. BD (   1) C   5 - C   6        /193. BD*(   1) C   4 -Cl   7            4.89    0.87    0.058
  12. BD (   1) C   5 - C   6        /196. BD*(   1) C   5 - H  11            1.03    1.13    0.031
  12. BD (   1) C   5 - C   6        /197. BD*(   1) C   6 - H  12            0.83    1.14    0.028
  13. BD (   2) C   5 - C   6        / 32. RY*(   3) C   1                    1.07    0.76    0.028
  13. BD (   2) C   5 - C   6        / 83. RY*(   3) C   4                    0.59    1.43    0.028
  13. BD (   2) C   5 - C   6        /101. RY*(   4) C   5                    0.53    0.85    0.021
  13. BD (   2) C   5 - C   6        /184. BD*(   2) C   1 - C   2           19.79    0.28    0.067
  13. BD (   2) C   5 - C   6        /190. BD*(   2) C   3 - C   4           20.73    0.27    0.067
  14. BD (   1) C   5 - H  11        / 81. RY*(   1) C   4                    1.39    1.54    0.041
  14. BD (   1) C   5 - H  11        /115. RY*(   1) C   6                    1.32    1.61    0.041
  14. BD (   1) C   5 - H  11        /185. BD*(   1) C   1 - C   6            3.59    1.10    0.056
  14. BD (   1) C   5 - H  11        /189. BD*(   1) C   3 - C   4            4.30    1.08    0.061
  14. BD (   1) C   5 - H  11        /192. BD*(   1) C   4 - C   5            0.85    1.08    0.027
  14. BD (   1) C   5 - H  11        /194. BD*(   1) C   5 - C   6            0.71    1.09    0.025
  14. BD (   1) C   5 - H  11        /197. BD*(   1) C   6 - H  12            0.52    0.96    0.020
  15. BD (   1) C   6 - H  12        / 30. RY*(   1) C   1                    1.39    1.62    0.042
  15. BD (   1) C   6 - H  12        / 98. RY*(   1) C   5                    1.34    1.55    0.041
  15. BD (   1) C   6 - H  12        /183. BD*(   1) C   1 - C   2            3.70    1.09    0.057
  15. BD (   1) C   6 - H  12        /185. BD*(   1) C   1 - C   6            0.59    1.09    0.023
  15. BD (   1) C   6 - H  12        /186. BD*(   1) C   1 - H   8            0.51    0.96    0.020
  15. BD (   1) C   6 - H  12        /192. BD*(   1) C   4 - C   5            3.49    1.08    0.055
  15. BD (   1) C   6 - H  12        /194. BD*(   1) C   5 - C   6            0.57    1.09    0.022
  16. CR (   1) C   1                / 48. RY*(   2) C   2                    1.43   11.32    0.114
  16. CR (   1) C   1                /116. RY*(   2) C   6                    1.43   11.32    0.114
  16. CR (   1) C   1                /187. BD*(   1) C   2 - C   3            0.68   10.61    0.076
  16. CR (   1) C   1                /194. BD*(   1) C   5 - C   6            0.68   10.61    0.076
  17. CR (   1) C   2                / 31. RY*(   2) C   1                    1.52   11.31    0.117
  17. CR (   1) C   2                / 64. RY*(   1) C   3                    0.59   11.07    0.072
  17. CR (   1) C   2                / 65. RY*(   2) C   3                    0.90   11.06    0.089
  17. CR (   1) C   2                / 67. RY*(   4) C   3                    0.67   10.94    0.077
  17. CR (   1) C   2                /185. BD*(   1) C   1 - C   6            0.70   10.61    0.077
  17. CR (   1) C   2                /189. BD*(   1) C   3 - C   4            0.71   10.60    0.078
  18. CR (   1) C   3                / 48. RY*(   2) C   2                    1.56   11.32    0.119
  18. CR (   1) C   3                / 81. RY*(   1) C   4                    0.51   11.05    0.067
  18. CR (   1) C   3                / 82. RY*(   2) C   4                    2.31   10.94    0.142
  18. CR (   1) C   3                /183. BD*(   1) C   1 - C   2            0.71   10.61    0.078
  18. CR (   1) C   3                /192. BD*(   1) C   4 - C   5            0.94   10.60    0.090
  18. CR (   1) C   3                /193. BD*(   1) C   4 -Cl   7            0.97   10.21    0.089
  19. CR (   1) C   4                / 65. RY*(   2) C   3                    1.91   11.12    0.130
  19. CR (   1) C   4                / 99. RY*(   2) C   5                    1.91   11.12    0.130
  19. CR (   1) C   4                /187. BD*(   1) C   2 - C   3            0.65   10.68    0.074
  19. CR (   1) C   4                /189. BD*(   1) C   3 - C   4            0.74   10.67    0.080
  19. CR (   1) C   4                /192. BD*(   1) C   4 - C   5            0.74   10.67    0.080
  19. CR (   1) C   4                /193. BD*(   1) C   4 -Cl   7            2.29   10.28    0.138
  19. CR (   1) C   4                /194. BD*(   1) C   5 - C   6            0.65   10.68    0.074
  20. CR (   1) C   5                / 81. RY*(   1) C   4                    0.51   11.05    0.067
  20. CR (   1) C   5                / 82. RY*(   2) C   4                    2.31   10.94    0.142
  20. CR (   1) C   5                /116. RY*(   2) C   6                    1.56   11.32    0.119
  20. CR (   1) C   5                /185. BD*(   1) C   1 - C   6            0.71   10.61    0.078
  20. CR (   1) C   5                /189. BD*(   1) C   3 - C   4            0.94   10.60    0.090
  20. CR (   1) C   5                /193. BD*(   1) C   4 -Cl   7            0.97   10.21    0.089
  21. CR (   1) C   6                / 31. RY*(   2) C   1                    1.52   11.31    0.117
  21. CR (   1) C   6                / 98. RY*(   1) C   5                    0.59   11.07    0.072
  21. CR (   1) C   6                / 99. RY*(   2) C   5                    0.90   11.06    0.089
  21. CR (   1) C   6                /100. RY*(   3) C   5                    0.67   10.94    0.077
  21. CR (   1) C   6                /183. BD*(   1) C   1 - C   2            0.70   10.61    0.077
  21. CR (   1) C   6                /192. BD*(   1) C   4 - C   5            0.71   10.60    0.078
  23. CR (   2)Cl   7                / 81. RY*(   1) C   4                    2.35   11.48    0.147
  23. CR (   2)Cl   7                / 84. RY*(   4) C   4                    0.78   11.50    0.085
  23. CR (   2)Cl   7                /189. BD*(   1) C   3 - C   4            0.77   11.03    0.083
  23. CR (   2)Cl   7                /192. BD*(   1) C   4 - C   5            0.77   11.03    0.083
  27. LP (   1)Cl   7                / 81. RY*(   1) C   4                    3.79    1.94    0.077
  27. LP (   1)Cl   7                / 84. RY*(   4) C   4                    0.63    1.96    0.031
  27. LP (   1)Cl   7                /189. BD*(   1) C   3 - C   4            1.83    1.49    0.047
  27. LP (   1)Cl   7                /192. BD*(   1) C   4 - C   5            1.83    1.49    0.047
  28. LP (   2)Cl   7                / 82. RY*(   2) C   4                    1.29    1.22    0.036
  28. LP (   2)Cl   7                /189. BD*(   1) C   3 - C   4            4.64    0.88    0.057
  28. LP (   2)Cl   7                /192. BD*(   1) C   4 - C   5            4.64    0.88    0.057
  29. LP (   3)Cl   7                / 83. RY*(   3) C   4                    1.07    1.49    0.036
  29. LP (   3)Cl   7                /190. BD*(   2) C   3 - C   4           14.05    0.33    0.066
 184. BD*(   2) C   1 - C   2        / 32. RY*(   3) C   1                    2.97    0.48    0.082
 184. BD*(   2) C   1 - C   2        / 40. RY*(  11) C   1                    0.55    0.35    0.030
 184. BD*(   2) C   1 - C   2        / 49. RY*(   3) C   2                    1.48    0.99    0.083
 184. BD*(   2) C   1 - C   2        / 57. RY*(  11) C   2                    0.71    0.39    0.036
 190. BD*(   2) C   3 - C   4        / 50. RY*(   4) C   2                    0.54    1.15    0.050
 190. BD*(   2) C   3 - C   4        / 66. RY*(   3) C   3                    3.49    0.69    0.098
 190. BD*(   2) C   3 - C   4        / 83. RY*(   3) C   4                    0.97    1.16    0.067
 190. BD*(   2) C   3 - C   4        /101. RY*(   4) C   5                    0.89    0.58    0.046
 190. BD*(   2) C   3 - C   4        /132. RY*(   1)Cl   7                    1.01    0.66    0.051
 190. BD*(   2) C   3 - C   4        /184. BD*(   2) C   1 - C   2          199.47    0.02    0.084
 190. BD*(   2) C   3 - C   4        /195. BD*(   2) C   5 - C   6          206.07    0.01    0.080
 195. BD*(   2) C   5 - C   6        /101. RY*(   4) C   5                    1.43    0.57    0.063
 195. BD*(   2) C   5 - C   6        /102. RY*(   5) C   5                    0.60    1.47    0.065
 195. BD*(   2) C   5 - C   6        /118. RY*(   4) C   6                    1.57    1.05    0.089
 195. BD*(   2) C   5 - C   6        /125. RY*(  11) C   6                    0.50    0.37    0.030


 Natural Bond Orbitals (Summary):

                                                            Principal Delocalizations
           NBO                        Occupancy    Energy   (geminal,vicinal,remote)
 ====================================================================================
 Molecular unit  1  (C6H5Cl)
     1. BD (   1) C   1 - C   2          1.97996    -0.70840  185(g),187(g),191(v),197(v)
                                                    65(v),116(v),115(v),188(g)
                                                    186(g)
     2. BD (   2) C   1 - C   2          1.66040    -0.26139  190(v),195(v),117(v),68(v)
     3. BD (   1) C   1 - C   6          1.97996    -0.70840  183(g),194(g),196(v),188(v)
                                                    99(v),48(v),47(v),197(g)
                                                    186(g)
     4. BD (   1) C   1 - H   8          1.98032    -0.52487  187(v),194(v),47(v),115(v)
                                                    183(g),185(g),188(v),197(v)
     5. BD (   1) C   2 - C   3          1.97281    -0.70892  193(v),189(g),183(g),186(v)
                                                    31(v),82(v),191(g),30(v)
                                                    188(g),81(v)
     6. BD (   1) C   2 - H   9          1.97985    -0.52816  185(v),189(v),30(v),64(v)
                                                    183(g),187(g),186(v)
     7. BD (   1) C   3 - C   4          1.97944    -0.73243  192(g),187(g),196(v),188(v)
                                                    48(v),98(v),191(g),47(v)
                                                    99(v),133(v)
     8. BD (   2) C   3 - C   4          1.67872    -0.27833  195(v),184(v),132(v),101(v)
                                                    50(v)
     9. BD (   1) C   3 - H  10          1.97881    -0.52891  192(v),183(v),81(v),47(v)
                                                    189(g),187(g),188(v)
    10. BD (   1) C   4 - C   5          1.97944    -0.73243  189(g),194(g),191(v),197(v)
                                                    116(v),64(v),196(g),115(v)
                                                    65(v),133(v)
    11. BD (   1) C   4 -Cl   7          1.98950    -0.75019  187(v),194(v),64(v),98(v)
                                                    81(g)
    12. BD (   1) C   5 - C   6          1.97281    -0.70892  193(v),192(g),185(g),186(v)
                                                    31(v),82(v),196(g),30(v)
                                                    197(g),81(v)
    13. BD (   2) C   5 - C   6          1.66694    -0.26347  190(v),184(v),32(v),83(v)
                                                    101(g)
    14. BD (   1) C   5 - H  11          1.97881    -0.52891  189(v),185(v),81(v),115(v)
                                                    192(g),194(g),197(v)
    15. BD (   1) C   6 - H  12          1.97985    -0.52816  183(v),192(v),30(v),98(v)
                                                    185(g),194(g),186(v)
    16. CR (   1) C   1                  1.99916   -10.04342  48(v),116(v),187(v),194(v)
    17. CR (   1) C   2                  1.99915   -10.04744  31(v),65(v),189(v),185(v)
                                                    67(v),64(v)
    18. CR (   1) C   3                  1.99898   -10.04424  82(v),48(v),193(v),192(v)
                                                    183(v),81(v)
    19. CR (   1) C   4                  1.99861   -10.11259  193(g),65(v),99(v),189(g)
                                                    192(g),187(v),194(v)
    20. CR (   1) C   5                  1.99898   -10.04424  82(v),116(v),193(v),189(v)
                                                    185(v),81(v)
    21. CR (   1) C   6                  1.99915   -10.04744  31(v),99(v),192(v),183(v)
                                                    100(v),98(v)
    22. CR (   1)Cl   7                  2.00000  -100.21941   
    23. CR (   2)Cl   7                  1.99968   -10.47552  81(v),84(v),189(v),192(v)
    24. CR (   3)Cl   7                  1.99990    -7.23006   
    25. CR (   4)Cl   7                  1.99999    -7.22223   
    26. CR (   5)Cl   7                  1.99999    -7.22259   
    27. LP (   1)Cl   7                  1.99134    -0.93521  81(v),189(v),192(v),84(v)
    28. LP (   2)Cl   7                  1.96893    -0.32571  189(v),192(v),82(v)
    29. LP (   3)Cl   7                  1.92194    -0.32461  190(v),83(v)
    30. RY*(   1) C   1                  0.00597     1.08723   
    31. RY*(   2) C   1                  0.00220     1.26025   
    32. RY*(   3) C   1                  0.00085     0.49588   
    33. RY*(   4) C   1                  0.00056     1.64122   
    34. RY*(   5) C   1                  0.00038     0.86154   
    35. RY*(   6) C   1                  0.00026     1.23380   
    36. RY*(   7) C   1                  0.00011     2.55933   
    37. RY*(   8) C   1                  0.00007     2.96075   
    38. RY*(   9) C   1                  0.00003     0.73174   
    39. RY*(  10) C   1                  0.00004     1.83769   
    40. RY*(  11) C   1                  0.00000     0.36616   
    41. RY*(  12) C   1                  0.00000     2.74186   
    42. RY*(  13) C   1                  0.00000     2.70359   
    43. RY*(  14) C   1                  0.00000     1.49487   
    44. RY*(  15) C   1                  0.00001     1.67791   
    45. RY*(  16) C   1                  0.00000    21.92848   
    46. RY*(  17) C   1                  0.00000     1.60783   
    47. RY*(   1) C   2                  0.00602     1.07704   
    48. RY*(   2) C   2                  0.00226     1.27515   
    49. RY*(   3) C   2                  0.00077     1.00660   
    50. RY*(   4) C   2                  0.00050     1.15042   
    51. RY*(   5) C   2                  0.00040     0.87013   
    52. RY*(   6) C   2                  0.00027     0.95901   
    53. RY*(   7) C   2                  0.00011     2.52689   
    54. RY*(   8) C   2                  0.00007     2.34750   
    55. RY*(   9) C   2                  0.00005     2.38116   
    56. RY*(  10) C   2                  0.00000     1.58486   
    57. RY*(  11) C   2                  0.00000     0.40560   
    58. RY*(  12) C   2                  0.00000     2.73271   
    59. RY*(  13) C   2                  0.00001     1.06786   
    60. RY*(  14) C   2                  0.00000    21.05535   
    61. RY*(  15) C   2                  0.00000     1.43741   
    62. RY*(  16) C   2                  0.00001     2.23153   
    63. RY*(  17) C   2                  0.00001     3.02221   
    64. RY*(   1) C   3                  0.00587     1.02464   
    65. RY*(   2) C   3                  0.00279     1.01127   
    66. RY*(   3) C   3                  0.00106     0.69350   
    67. RY*(   4) C   3                  0.00095     0.89159   
    68. RY*(   5) C   3                  0.00052     1.35206   
    69. RY*(   6) C   3                  0.00023     0.70426   
    70. RY*(   7) C   3                  0.00022     1.49264   
    71. RY*(   8) C   3                  0.00019     2.28022   
    72. RY*(   9) C   3                  0.00011     2.67055   
    73. RY*(  10) C   3                  0.00006     2.11684   
    74. RY*(  11) C   3                  0.00005     2.13063   
    75. RY*(  12) C   3                  0.00000     2.75028   
    76. RY*(  13) C   3                  0.00001     1.32398   
    77. RY*(  14) C   3                  0.00000     2.40368   
    78. RY*(  15) C   3                  0.00000     1.23566   
    79. RY*(  16) C   3                  0.00000    21.56298   
    80. RY*(  17) C   3                  0.00000     1.59073   
    81. RY*(   1) C   4                  0.00755     1.00897   
    82. RY*(   2) C   4                  0.00671     0.89857   
    83. RY*(   3) C   4                  0.00247     1.16762   
    84. RY*(   4) C   4                  0.00086     1.02936   
    85. RY*(   5) C   4                  0.00074     1.63104   
    86. RY*(   6) C   4                  0.00059     2.25743   
    87. RY*(   7) C   4                  0.00025     1.56107   
    88. RY*(   8) C   4                  0.00014     1.88569   
    89. RY*(   9) C   4                  0.00014     3.17521   
    90. RY*(  10) C   4                  0.00012     0.54059   
    91. RY*(  11) C   4                  0.00004     1.64663   
    92. RY*(  12) C   4                  0.00002     1.29102   
    93. RY*(  13) C   4                  0.00000     1.59974   
    94. RY*(  14) C   4                  0.00001     1.86767   
    95. RY*(  15) C   4                  0.00000    21.85866   
    96. RY*(  16) C   4                  0.00000     0.64469   
    97. RY*(  17) C   4                  0.00000     2.66414   
    98. RY*(   1) C   5                  0.00587     1.02464   
    99. RY*(   2) C   5                  0.00279     1.01127   
   100. RY*(   3) C   5                  0.00095     0.89159   
   101. RY*(   4) C   5                  0.00092     0.58809   
   102. RY*(   5) C   5                  0.00056     1.48751   
   103. RY*(   6) C   5                  0.00024     0.67519   
   104. RY*(   7) C   5                  0.00022     1.49264   
   105. RY*(   8) C   5                  0.00019     2.28022   
   106. RY*(   9) C   5                  0.00011     2.67055   
   107. RY*(  10) C   5                  0.00006     2.53391   
   108. RY*(  11) C   5                  0.00005     1.71356   
   109. RY*(  12) C   5                  0.00000     2.75044   
   110. RY*(  13) C   5                  0.00001     1.07136   
   111. RY*(  14) C   5                  0.00000     2.47442   
   112. RY*(  15) C   5                  0.00000     1.23550   
   113. RY*(  16) C   5                  0.00000    21.77089   
   114. RY*(  17) C   5                  0.00001     1.56471   
   115. RY*(   1) C   6                  0.00602     1.07704   
   116. RY*(   2) C   6                  0.00226     1.27515   
   117. RY*(   3) C   6                  0.00070     1.09411   
   118. RY*(   4) C   6                  0.00056     1.06294   
   119. RY*(   5) C   6                  0.00040     0.87013   
   120. RY*(   6) C   6                  0.00027     0.95901   
   121. RY*(   7) C   6                  0.00011     2.52689   
   122. RY*(   8) C   6                  0.00007     2.34750   
   123. RY*(   9) C   6                  0.00005     2.38115   
   124. RY*(  10) C   6                  0.00000     1.61201   
   125. RY*(  11) C   6                  0.00000     0.38895   
   126. RY*(  12) C   6                  0.00001     2.24653   
   127. RY*(  13) C   6                  0.00001     1.07539   
   128. RY*(  14) C   6                  0.00000    21.00950   
   129. RY*(  15) C   6                  0.00000     1.45321   
   130. RY*(  16) C   6                  0.00000     2.73386   
   131. RY*(  17) C   6                  0.00001     3.01838   
   132. RY*(   1)Cl   7                  0.00395     0.65953   
   133. RY*(   2)Cl   7                  0.00280     0.59452   
   134. RY*(   3)Cl   7                  0.00088     0.56299   
   135. RY*(   4)Cl   7                  0.00013     1.49606   
   136. RY*(   5)Cl   7                  0.00007     0.78604   
   137. RY*(   6)Cl   7                  0.00004     0.86383   
   138. RY*(   7)Cl   7                  0.00005     1.65588   
   139. RY*(   8)Cl   7                  0.00001     0.71954   
   140. RY*(   9)Cl   7                  0.00002     1.70837   
   141. RY*(  10)Cl   7                  0.00001     0.82499   
   142. RY*(  11)Cl   7                  0.00000     3.46073   
   143. RY*(  12)Cl   7                  0.00000    24.26862   
   144. RY*(  13)Cl   7                  0.00000    16.81148   
   145. RY*(  14)Cl   7                  0.00000     0.52703   
   146. RY*(  15)Cl   7                  0.00000     3.24467   
   147. RY*(  16)Cl   7                  0.00000    24.42789   
   148. RY*(  17)Cl   7                  0.00001     0.95804   
   149. RY*(  18)Cl   7                  0.00000     2.04132   
   150. RY*(  19)Cl   7                  0.00000    24.70560   
   151. RY*(  20)Cl   7                  0.00001     0.96644   
   152. RY*(  21)Cl   7                  0.00000   207.81825   
   153. RY*(   1) H   8                  0.00078     0.68979   
   154. RY*(   2) H   8                  0.00020     2.27193   
   155. RY*(   3) H   8                  0.00019     1.58406   
   156. RY*(   4) H   8                  0.00012     1.95847   
   157. RY*(   5) H   8                  0.00003     0.22236   
   158. RY*(   6) H   8                  0.00003     2.44566   
   159. RY*(   1) H   9                  0.00076     0.63699   
   160. RY*(   2) H   9                  0.00020     2.30271   
   161. RY*(   3) H   9                  0.00019     1.58184   
   162. RY*(   4) H   9                  0.00011     1.94959   
   163. RY*(   5) H   9                  0.00003     2.41914   
   164. RY*(   6) H   9                  0.00002     0.26677   
   165. RY*(   1) H  10                  0.00090     0.70852   
   166. RY*(   2) H  10                  0.00025     0.91532   
   167. RY*(   3) H  10                  0.00018     1.96004   
   168. RY*(   4) H  10                  0.00019     1.58693   
   169. RY*(   5) H  10                  0.00012     1.62612   
   170. RY*(   6) H  10                  0.00003     2.42062   
   171. RY*(   1) H  11                  0.00090     0.70852   
   172. RY*(   2) H  11                  0.00025     0.91532   
   173. RY*(   3) H  11                  0.00018     1.96004   
   174. RY*(   4) H  11                  0.00019     1.58693   
   175. RY*(   5) H  11                  0.00012     1.62612   
   176. RY*(   6) H  11                  0.00003     2.42062   
   177. RY*(   1) H  12                  0.00076     0.63699   
   178. RY*(   2) H  12                  0.00020     2.30271   
   179. RY*(   3) H  12                  0.00019     1.58184   
   180. RY*(   4) H  12                  0.00011     1.94959   
   181. RY*(   5) H  12                  0.00003     2.41914   
   182. RY*(   6) H  12                  0.00002     0.26677   
   183. BD*(   1) C   1 - C   2          0.01586     0.56632   
   184. BD*(   2) C   1 - C   2          0.33351     0.01959  195(v),190(v),32(g),49(g)
                                                    57(g),40(g)
   185. BD*(   1) C   1 - C   6          0.01586     0.56632   
   186. BD*(   1) C   1 - H   8          0.01345     0.43277   
   187. BD*(   1) C   2 - C   3          0.01662     0.56446   
   188. BD*(   1) C   2 - H   9          0.01294     0.43123   
   189. BD*(   1) C   3 - C   4          0.02927     0.55379   
   190. BD*(   2) C   3 - C   4          0.39518     0.00356  195(v),184(v),66(g),132(v)
                                                    83(g),101(v),50(v)
   191. BD*(   1) C   3 - H  10          0.01339     0.42541   
   192. BD*(   1) C   4 - C   5          0.02927     0.55379   
   193. BD*(   1) C   4 -Cl   7          0.03027     0.16525   
   194. BD*(   1) C   5 - C   6          0.01662     0.56446   
   195. BD*(   2) C   5 - C   6          0.32756     0.01763  184(v),190(v),118(g),101(g)
                                                    102(g),125(g)
   196. BD*(   1) C   5 - H  11          0.01339     0.42541   
   197. BD*(   1) C   6 - H  12          0.01294     0.43123   
       -------------------------------
              Total Lewis   56.63344  ( 97.6439%)
        Valence non-Lewis    1.27612  (  2.2002%)
        Rydberg non-Lewis    0.09044  (  0.1559%)
       -------------------------------
            Total unit  1   58.00000  (100.0000%)
           Charge unit  1    0.00000
 Calling FoFJK, ICntrl=      2127 FMM=F ISym2X=0 I1Cent= 0 IOpClX= 0 NMat=1 NMatS=1 NMatT=0.
 ***** Axes restored to original set *****
 -------------------------------------------------------------------
 Center     Atomic                   Forces (Hartrees/Bohr)
 Number     Number              X              Y              Z
 -------------------------------------------------------------------
      1        6          -0.003204943    0.000981158   -0.000422665
      2        6           0.001464633    0.002945986   -0.000072851
      3        6          -0.002679282   -0.004444429    0.000059436
      4        6          -0.017752644    0.005433730   -0.002339798
      5        6           0.000319029    0.005166868   -0.000369684
      6        6          -0.000468821   -0.003250800    0.000204082
      7       17           0.015935366   -0.004877656    0.002099553
      8        1           0.002188290   -0.000669781    0.000288002
      9        1           0.002304358    0.000946127    0.000174526
     10        1           0.001110644    0.002628814   -0.000085857
     11        1          -0.000580396   -0.002791183    0.000156321
     12        1           0.001363765   -0.002068835    0.000308934
 -------------------------------------------------------------------
 Cartesian Forces:  Max     0.017752644 RMS     0.004574471

 GradGradGradGradGradGradGradGradGradGradGradGradGradGradGradGradGradGrad
 Berny optimization.
 FormGI is forming the generalized inverse of G from B-inverse, IUseBI=4.
 Internal  Forces:  Max     0.016796890 RMS     0.002570195
 Search for a local minimum.
 Step number   1 out of a maximum of   64
 All quantities printed in internal units (Hartrees-Bohrs-Radians)
 Mixed Optimization -- RFO/linear search
 Second derivative matrix not updated -- first step.
 ITU=  0
     Eigenvalues ---    0.02146   0.02146   0.02147   0.02147   0.02149
     Eigenvalues ---    0.02154   0.02156   0.02161   0.02165   0.16000
     Eigenvalues ---    0.16000   0.16000   0.16000   0.16000   0.22000
     Eigenvalues ---    0.22000   0.23490   0.25000   0.33488   0.35108
     Eigenvalues ---    0.35148   0.35148   0.35222   0.35222   0.42067
     Eigenvalues ---    0.42303   0.46328   0.46356   0.46479   0.46549
 RFO step:  Lambda=-1.12197154D-03 EMin= 2.14578609D-02
 Linear search not attempted -- first point.
 Iteration  1 RMS(Cart)=  0.00713847 RMS(Int)=  0.00002345
 Iteration  2 RMS(Cart)=  0.00002785 RMS(Int)=  0.00000124
 Iteration  3 RMS(Cart)=  0.00000000 RMS(Int)=  0.00000124
 Variable       Old X    -DE/DX   Delta X   Delta X   Delta X     New X
                                 (Linear)    (Quad)   (Total)
    R1        2.63724  -0.00160   0.00000  -0.00355  -0.00355   2.63369
    R2        2.63724  -0.00160   0.00000  -0.00356  -0.00355   2.63369
    R3        2.05500  -0.00231   0.00000  -0.00655  -0.00655   2.04845
    R4        2.63763  -0.00192   0.00000  -0.00414  -0.00414   2.63350
    R5        2.05436  -0.00234   0.00000  -0.00662  -0.00662   2.04773
    R6        2.63472  -0.00089   0.00000  -0.00179  -0.00179   2.63293
    R7        2.05316  -0.00233   0.00000  -0.00659  -0.00659   2.04658
    R8        2.63472  -0.00089   0.00000  -0.00179  -0.00179   2.63293
    R9        3.25203   0.01680   0.00000   0.04999   0.04999   3.30202
   R10        2.63763  -0.00192   0.00000  -0.00414  -0.00414   2.63350
   R11        2.05316  -0.00233   0.00000  -0.00659  -0.00659   2.04658
   R12        2.05436  -0.00234   0.00000  -0.00662  -0.00662   2.04773
    A1        2.09628  -0.00164   0.00000  -0.00780  -0.00780   2.08848
    A2        2.09345   0.00082   0.00000   0.00390   0.00390   2.09735
    A3        2.09346   0.00082   0.00000   0.00390   0.00390   2.09735
    A4        2.09415   0.00168   0.00000   0.00742   0.00742   2.10157
    A5        2.09479   0.00007   0.00000   0.00192   0.00192   2.09671
    A6        2.09425  -0.00174   0.00000  -0.00934  -0.00934   2.08491
    A7        2.08971  -0.00130   0.00000  -0.00553  -0.00553   2.08418
    A8        2.09103   0.00235   0.00000   0.01330   0.01330   2.10433
    A9        2.10245  -0.00105   0.00000  -0.00777  -0.00777   2.09468
   A10        2.10239   0.00088   0.00000   0.00401   0.00401   2.10639
   A11        2.09040  -0.00044   0.00000  -0.00200  -0.00200   2.08840
   A12        2.09040  -0.00044   0.00000  -0.00200  -0.00200   2.08840
   A13        2.08971  -0.00130   0.00000  -0.00552  -0.00553   2.08418
   A14        2.10245  -0.00105   0.00000  -0.00777  -0.00777   2.09468
   A15        2.09103   0.00235   0.00000   0.01330   0.01330   2.10433
   A16        2.09415   0.00168   0.00000   0.00742   0.00742   2.10157
   A17        2.09479   0.00007   0.00000   0.00192   0.00192   2.09671
   A18        2.09425  -0.00174   0.00000  -0.00934  -0.00934   2.08491
    D1        0.00002  -0.00000   0.00000  -0.00001  -0.00001   0.00000
    D2       -3.14158  -0.00000   0.00000  -0.00001  -0.00001  -3.14159
    D3       -3.14158  -0.00000   0.00000  -0.00001  -0.00001  -3.14159
    D4        0.00001  -0.00000   0.00000  -0.00001  -0.00001   0.00001
    D5       -0.00001   0.00000   0.00000   0.00001   0.00001  -0.00000
    D6        3.14158   0.00000   0.00000   0.00000   0.00000   3.14159
    D7        3.14158   0.00000   0.00000   0.00001   0.00001   3.14159
    D8       -0.00001   0.00000   0.00000   0.00000   0.00000  -0.00001
    D9        0.00000  -0.00000   0.00000   0.00000   0.00000   0.00000
   D10        3.14159   0.00000   0.00000   0.00001   0.00001  -3.14159
   D11       -3.14159  -0.00000   0.00000  -0.00000  -0.00000   3.14159
   D12       -0.00000   0.00000   0.00000   0.00000   0.00000   0.00000
   D13       -0.00002   0.00000   0.00000   0.00002   0.00002  -0.00000
   D14        3.14156   0.00000   0.00000   0.00003   0.00003   3.14159
   D15        3.14158   0.00000   0.00000   0.00001   0.00001   3.14159
   D16       -0.00003   0.00000   0.00000   0.00002   0.00002  -0.00001
   D17        0.00002  -0.00000   0.00000  -0.00002  -0.00002   0.00000
   D18       -3.14158  -0.00000   0.00000  -0.00001  -0.00001  -3.14159
   D19       -3.14156  -0.00000   0.00000  -0.00003  -0.00003  -3.14159
   D20        0.00003  -0.00000   0.00000  -0.00002  -0.00002   0.00001
   D21       -0.00001   0.00000   0.00000   0.00001   0.00001  -0.00000
   D22        3.14158   0.00000   0.00000   0.00001   0.00001  -3.14159
   D23       -3.14159  -0.00000   0.00000  -0.00001  -0.00001   3.14159
   D24       -0.00000   0.00000   0.00000   0.00000   0.00000  -0.00000
         Item               Value     Threshold  Converged?
 Maximum Force            0.016797     0.000450     NO 
 RMS     Force            0.002570     0.000300     NO 
 Maximum Displacement     0.033413     0.001800     NO 
 RMS     Displacement     0.007141     0.001200     NO 
 Predicted change in Energy=-5.630778D-04
 GradGradGradGradGradGradGradGradGradGradGradGradGradGradGradGradGradGrad

                          Input orientation:                          
 ---------------------------------------------------------------------
 Center     Atomic      Atomic             Coordinates (Angstroms)
 Number     Number       Type             X           Y           Z
 ---------------------------------------------------------------------
      1          6           0       -1.377814    0.421734   -0.181569
      2          6           0       -1.071848   -0.930839   -0.042664
      3          6           0        0.248496   -1.341121    0.131813
      4          6           0        1.262792   -0.386527    0.166414
      5          6           0        0.969029    0.968449    0.028634
      6          6           0       -0.354812    1.367524   -0.145343
      7         17           0        2.920519   -0.893940    0.384875
      8          1           0       -2.406207    0.736515   -0.317089
      9          1           0       -1.861240   -1.672694   -0.069679
     10          1           0        0.489153   -2.391488    0.240008
     11          1           0        1.765981    1.701215    0.057168
     12          1           0       -0.584050    2.421171   -0.252570
 ---------------------------------------------------------------------
                    Distance matrix (angstroms):
                    1          2          3          4          5
     1  C    0.000000
     2  C    1.393687   0.000000
     3  C    2.418833   1.393586   0.000000
     4  C    2.783375   2.406352   1.393285   0.000000
     5  C    2.418833   2.788827   2.421555   1.393285   0.000000
     6  C    1.393687   2.409805   2.788827   2.406352   1.393586
     7  Cl   4.530731   4.015363   2.720977   1.747356   2.720977
     8  H    1.083995   2.153112   3.400813   3.867370   3.400813
     9  H    2.152406   1.083614   2.145117   3.386671   3.872431
    10  H    3.402574   2.156414   1.083002   2.150302   3.400608
    11  H    3.402574   3.871814   3.400608   2.150302   1.083002
    12  H    2.152405   3.393815   3.872431   3.386671   2.145118
                    6          7          8          9         10
     6  C    0.000000
     7  Cl   4.015364   0.000000
     8  H    2.153112   5.614725   0.000000
     9  H    3.393815   4.866035   2.482435   0.000000
    10  H    3.871814   2.859226   4.298589   2.477281   0.000000
    11  H    2.156414   2.859227   4.298589   4.955410   4.291146
    12  H    1.083614   4.866036   2.482435   4.292364   4.955410
                   11         12
    11  H    0.000000
    12  H    2.477281   0.000000
 Stoichiometry    C6H5Cl
 Framework group  C1[X(C6H5Cl)]
 Deg. of freedom    30
 Full point group                 C1      NOp   1
 Largest Abelian subgroup         C1      NOp   1
 Largest concise Abelian subgroup C1      NOp   1
                         Standard orientation:                         
 ---------------------------------------------------------------------
 Center     Atomic      Atomic             Coordinates (Angstroms)
 Number     Number       Type             X           Y           Z
 ---------------------------------------------------------------------
      1          6           0        2.272073   -0.000000   -0.000002
      2          6           0        1.571662   -1.204902   -0.000000
      3          6           0        0.178088   -1.210777    0.000001
      4          6           0       -0.511303    0.000000    0.000000
      5          6           0        0.178089    1.210777    0.000001
      6          6           0        1.571662    1.204902   -0.000000
      7         17           0       -2.258658    0.000000   -0.000001
      8          1           0        3.356067   -0.000000   -0.000006
      9          1           0        2.108515   -2.146182    0.000003
     10          1           0       -0.368766   -2.145573    0.000006
     11          1           0       -0.368766    2.145573    0.000007
     12          1           0        2.108515    2.146182    0.000002
 ---------------------------------------------------------------------
 Rotational constants (GHZ):           5.7047084           1.5627434           1.2267017
 Standard basis: 6-311++G(d,p) (5D, 7F)
 There are   204 symmetry adapted cartesian basis functions of A   symmetry.
 There are   197 symmetry adapted basis functions of A   symmetry.
   197 basis functions,   314 primitive gaussians,   204 cartesian basis functions
    29 alpha electrons       29 beta electrons
       nuclear repulsion energy       315.2606960088 Hartrees.
 NAtoms=   12 NActive=   12 NUniq=   12 SFac= 1.00D+00 NAtFMM=   60 NAOKFM=F Big=F
 Integral buffers will be    131072 words long.
 Raffenetti 2 integral format.
 Two-electron integral symmetry is turned on.
 One-electron integrals computed using PRISM.
 NBasis=   197 RedAO= T EigKep=  1.12D-06  NBF=   197
 NBsUse=   197 1.00D-06 EigRej= -1.00D+00 NBFU=   197
 Initial guess from the checkpoint file:  "C1=CC=C(C=C1)Cl.chk"
 B after Tr=     0.000000    0.000000    0.000000
         Rot=    1.000000    0.000000   -0.000000    0.000000 Ang=  -0.00 deg.
 ExpMin= 3.60D-02 ExpMax= 1.06D+05 ExpMxC= 3.62D+03 IAcc=3 IRadAn=         5 AccDes= 0.00D+00
 Harris functional with IExCor=  402 and IRadAn=       5 diagonalized for initial guess.
 HarFok:  IExCor=  402 AccDes= 0.00D+00 IRadAn=         5 IDoV= 1 UseB2=F ITyADJ=14
 ICtDFT=  3500011 ScaDFX=  1.000000  1.000000  1.000000  1.000000
 FoFCou: FMM=F IPFlag=           0 FMFlag=      100000 FMFlg1=           0
         NFxFlg=           0 DoJE=T BraDBF=F KetDBF=T FulRan=T
         wScrn=  0.000000 ICntrl=       500 IOpCl=  0 I1Cent=   200000004 NGrid=           0
         NMat0=    1 NMatS0=      1 NMatT0=    0 NMatD0=    1 NMtDS0=    0 NMtDT0=    0
 Petite list used in FoFCou.
 Keep R1 ints in memory in canonical form, NReq=198470495.
 Requested convergence on RMS density matrix=1.00D-08 within 128 cycles.
 Requested convergence on MAX density matrix=1.00D-06.
 Requested convergence on             energy=1.00D-06.
 No special actions if energy rises.
 SCF Done:  E(RB3LYP) =  -691.934196142     A.U. after   11 cycles
            NFock= 11  Conv=0.58D-08     -V/T= 2.0031
 Calling FoFJK, ICntrl=      2127 FMM=F ISym2X=0 I1Cent= 0 IOpClX= 0 NMat=1 NMatS=1 NMatT=0.
 ***** Axes restored to original set *****
 -------------------------------------------------------------------
 Center     Atomic                   Forces (Hartrees/Bohr)
 Number     Number              X              Y              Z
 -------------------------------------------------------------------
      1        6          -0.000267072    0.000081727   -0.000034947
      2        6           0.000286042    0.000955017   -0.000044133
      3        6           0.001017816   -0.001612334    0.000235894
      4        6          -0.007653902    0.002342797   -0.001008679
      5        6           0.001758733    0.000762420    0.000129681
      6        6          -0.000307782   -0.000948342    0.000041024
      7       17           0.004356330   -0.001333415    0.000574021
      8        1           0.000194530   -0.000059565    0.000025478
      9        1           0.000018611   -0.000373823    0.000031401
     10        1           0.000260585    0.000188528    0.000013499
     11        1           0.000107795   -0.000301257    0.000035435
     12        1           0.000228313    0.000298248    0.000001327
 -------------------------------------------------------------------
 Cartesian Forces:  Max     0.007653902 RMS     0.001634338

 GradGradGradGradGradGradGradGradGradGradGradGradGradGradGradGradGradGrad
 Berny optimization.
 Using GEDIIS/GDIIS optimizer.
 FormGI is forming the generalized inverse of G from B-inverse, IUseBI=4.
 Internal  Forces:  Max     0.004591852 RMS     0.000769979
 Search for a local minimum.
 Step number   2 out of a maximum of   64
 All quantities printed in internal units (Hartrees-Bohrs-Radians)
 Mixed Optimization -- En-DIIS/RFO-DIIS
 Update second derivatives using D2CorX and points    1    2
 DE= -6.95D-04 DEPred=-5.63D-04 R= 1.23D+00
 TightC=F SS=  1.41D+00  RLast= 6.10D-02 DXNew= 5.0454D-01 1.8310D-01
 Trust test= 1.23D+00 RLast= 6.10D-02 DXMaxT set to 3.00D-01
 ITU=  1  0
 Use linear search instead of GDIIS.
     Eigenvalues ---    0.02146   0.02146   0.02147   0.02147   0.02149
     Eigenvalues ---    0.02154   0.02156   0.02161   0.02165   0.15172
     Eigenvalues ---    0.16000   0.16000   0.16000   0.16022   0.19901
     Eigenvalues ---    0.22000   0.22761   0.25000   0.28903   0.35106
     Eigenvalues ---    0.35148   0.35197   0.35222   0.36119   0.42052
     Eigenvalues ---    0.42963   0.46356   0.46415   0.46550   0.46593
 RFO step:  Lambda=-6.78459278D-05 EMin= 2.14579614D-02
 Quartic linear search produced a step of  0.35667.
 Iteration  1 RMS(Cart)=  0.00295573 RMS(Int)=  0.00000917
 Iteration  2 RMS(Cart)=  0.00001355 RMS(Int)=  0.00000203
 Iteration  3 RMS(Cart)=  0.00000000 RMS(Int)=  0.00000203
 Variable       Old X    -DE/DX   Delta X   Delta X   Delta X     New X
                                 (Linear)    (Quad)   (Total)
    R1        2.63369   0.00023  -0.00127   0.00174   0.00047   2.63415
    R2        2.63369   0.00023  -0.00127   0.00174   0.00047   2.63415
    R3        2.04845  -0.00021  -0.00234   0.00107  -0.00127   2.04718
    R4        2.63350  -0.00008  -0.00147   0.00096  -0.00051   2.63298
    R5        2.04773   0.00024  -0.00236   0.00281   0.00045   2.04818
    R6        2.63293  -0.00077  -0.00064  -0.00178  -0.00242   2.63051
    R7        2.04658  -0.00012  -0.00235   0.00139  -0.00096   2.04562
    R8        2.63293  -0.00077  -0.00064  -0.00178  -0.00242   2.63051
    R9        3.30202   0.00459   0.01783   0.00444   0.02227   3.32430
   R10        2.63350  -0.00008  -0.00147   0.00096  -0.00051   2.63298
   R11        2.04658  -0.00012  -0.00235   0.00139  -0.00096   2.04562
   R12        2.04773   0.00024  -0.00236   0.00281   0.00045   2.04818
    A1        2.08848   0.00005  -0.00278   0.00294   0.00015   2.08863
    A2        2.09735  -0.00003   0.00139  -0.00147  -0.00007   2.09728
    A3        2.09735  -0.00003   0.00139  -0.00147  -0.00007   2.09728
    A4        2.10157   0.00010   0.00265  -0.00112   0.00153   2.10310
    A5        2.09671   0.00025   0.00068   0.00155   0.00223   2.09894
    A6        2.08491  -0.00034  -0.00333  -0.00043  -0.00376   2.08115
    A7        2.08418  -0.00106  -0.00197  -0.00490  -0.00687   2.07731
    A8        2.10433   0.00084   0.00474   0.00221   0.00695   2.11128
    A9        2.09468   0.00023  -0.00277   0.00269  -0.00008   2.09460
   A10        2.10639   0.00188   0.00143   0.00910   0.01053   2.11693
   A11        2.08840  -0.00094  -0.00071  -0.00455  -0.00527   2.08313
   A12        2.08840  -0.00094  -0.00071  -0.00455  -0.00527   2.08313
   A13        2.08418  -0.00106  -0.00197  -0.00490  -0.00687   2.07731
   A14        2.09468   0.00023  -0.00277   0.00269  -0.00008   2.09460
   A15        2.10433   0.00084   0.00474   0.00221   0.00695   2.11128
   A16        2.10157   0.00010   0.00265  -0.00112   0.00153   2.10310
   A17        2.09671   0.00025   0.00068   0.00155   0.00223   2.09894
   A18        2.08491  -0.00034  -0.00333  -0.00043  -0.00376   2.08115
    D1        0.00000  -0.00000  -0.00001   0.00000  -0.00000  -0.00000
    D2       -3.14159  -0.00000  -0.00000  -0.00000  -0.00001   3.14159
    D3       -3.14159  -0.00000  -0.00000  -0.00000  -0.00001   3.14159
    D4        0.00001  -0.00000  -0.00000  -0.00001  -0.00001  -0.00000
    D5       -0.00000   0.00000   0.00000   0.00000   0.00000   0.00000
    D6        3.14159   0.00000   0.00000   0.00000   0.00001  -3.14159
    D7        3.14159   0.00000   0.00000   0.00000   0.00001  -3.14159
    D8       -0.00001   0.00000   0.00000   0.00001   0.00001   0.00000
    D9        0.00000  -0.00000   0.00000  -0.00000  -0.00000  -0.00000
   D10       -3.14159  -0.00000   0.00000  -0.00001  -0.00000  -3.14159
   D11        3.14159   0.00000  -0.00000   0.00000   0.00000   3.14159
   D12        0.00000  -0.00000   0.00000  -0.00000  -0.00000   0.00000
   D13       -0.00000   0.00000   0.00001   0.00000   0.00001   0.00001
   D14        3.14159   0.00000   0.00001  -0.00000   0.00001  -3.14159
   D15        3.14159   0.00000   0.00000   0.00001   0.00001  -3.14159
   D16       -0.00001   0.00000   0.00001   0.00000   0.00001   0.00001
   D17        0.00000  -0.00000  -0.00001  -0.00000  -0.00001  -0.00001
   D18       -3.14159  -0.00000  -0.00000  -0.00001  -0.00001   3.14159
   D19       -3.14159  -0.00000  -0.00001   0.00000  -0.00001   3.14159
   D20        0.00001  -0.00000  -0.00001  -0.00000  -0.00001  -0.00001
   D21       -0.00000   0.00000   0.00000  -0.00000   0.00000   0.00000
   D22       -3.14159  -0.00000   0.00000  -0.00000   0.00000  -3.14159
   D23        3.14159   0.00000  -0.00000   0.00001   0.00000   3.14159
   D24       -0.00000   0.00000   0.00000   0.00000   0.00000   0.00000
         Item               Value     Threshold  Converged?
 Maximum Force            0.004592     0.000450     NO 
 RMS     Force            0.000770     0.000300     NO 
 Maximum Displacement     0.014567     0.001800     NO 
 RMS     Displacement     0.002955     0.001200     NO 
 Predicted change in Energy=-7.945431D-05
 GradGradGradGradGradGradGradGradGradGradGradGradGradGradGradGradGradGrad

                          Input orientation:                          
 ---------------------------------------------------------------------
 Center     Atomic      Atomic             Coordinates (Angstroms)
 Number     Number       Type             X           Y           Z
 ---------------------------------------------------------------------
      1          6           0       -1.378634    0.421985   -0.181681
      2          6           0       -1.072714   -0.930851   -0.042756
      3          6           0        0.246698   -1.343180    0.131783
      4          6           0        1.255084   -0.384168    0.165397
      5          6           0        0.968716    0.971155    0.028391
      6          6           0       -0.355521    1.368019   -0.145457
      7         17           0        2.923994   -0.895004    0.385319
      8          1           0       -2.406389    0.736570   -0.317123
      9          1           0       -1.860697   -1.674562   -0.069469
     10          1           0        0.492847   -2.391704    0.240431
     11          1           0        1.769154    1.699330    0.057667
     12          1           0       -0.582537    2.422410   -0.252501
 ---------------------------------------------------------------------
                    Distance matrix (angstroms):
                    1          2          3          4          5
     1  C    0.000000
     2  C    1.393934   0.000000
     3  C    2.419870   1.393315   0.000000
     4  C    2.776115   2.400174   1.392004   0.000000
     5  C    2.419870   2.791080   2.426550   1.392004   0.000000
     6  C    1.393934   2.410336   2.791080   2.400174   1.393315
     7  Cl   4.535257   4.019728   2.726363   1.759142   2.726363
     8  H    1.083323   2.152733   3.400845   3.859438   3.400845
     9  H    2.154178   1.083852   2.142762   3.380587   3.874915
    10  H    3.405505   2.159923   1.082496   2.148683   3.402974
    11  H    3.405505   3.873520   3.402974   2.148683   1.082496
    12  H    2.154178   3.395383   3.874915   3.380587   2.142762
                    6          7          8          9         10
     6  C    0.000000
     7  Cl   4.019728   0.000000
     8  H    2.152733   5.618580   0.000000
     9  H    3.395383   4.869066   2.484485   0.000000
    10  H    3.873520   2.858598   4.301457   2.479818   0.000000
    11  H    2.159923   2.858598   4.301457   4.957330   4.289397
    12  H    1.083852   4.869066   2.484485   4.295622   4.957330
                   11         12
    11  H    0.000000
    12  H    2.479818   0.000000
 Stoichiometry    C6H5Cl
 Framework group  C1[X(C6H5Cl)]
 Deg. of freedom    30
 Full point group                 C1      NOp   1
 Largest Abelian subgroup         C1      NOp   1
 Largest concise Abelian subgroup C1      NOp   1
                         Standard orientation:                         
 ---------------------------------------------------------------------
 Center     Atomic      Atomic             Coordinates (Angstroms)
 Number     Number       Type             X           Y           Z
 ---------------------------------------------------------------------
      1          6           0        2.272837    0.000000    0.000004
      2          6           0        1.572392   -1.205168    0.000000
      3          6           0        0.179101   -1.213275   -0.000004
      4          6           0       -0.503277   -0.000000   -0.000003
      5          6           0        0.179101    1.213275   -0.000004
      6          6           0        1.572392    1.205168    0.000000
      7         17           0       -2.262419    0.000000    0.000003
      8          1           0        3.356160    0.000000    0.000009
      9          1           0        2.107331   -2.147811   -0.000000
     10          1           0       -0.372486   -2.144699   -0.000006
     11          1           0       -0.372486    2.144698   -0.000007
     12          1           0        2.107330    2.147811    0.000002
 ---------------------------------------------------------------------
 Rotational constants (GHZ):           5.6939623           1.5598519           1.2244231
 Standard basis: 6-311++G(d,p) (5D, 7F)
 There are   204 symmetry adapted cartesian basis functions of A   symmetry.
 There are   197 symmetry adapted basis functions of A   symmetry.
   197 basis functions,   314 primitive gaussians,   204 cartesian basis functions
    29 alpha electrons       29 beta electrons
       nuclear repulsion energy       314.9813105535 Hartrees.
 NAtoms=   12 NActive=   12 NUniq=   12 SFac= 1.00D+00 NAtFMM=   60 NAOKFM=F Big=F
 Integral buffers will be    131072 words long.
 Raffenetti 2 integral format.
 Two-electron integral symmetry is turned on.
 One-electron integrals computed using PRISM.
 NBasis=   197 RedAO= T EigKep=  1.13D-06  NBF=   197
 NBsUse=   197 1.00D-06 EigRej= -1.00D+00 NBFU=   197
 Initial guess from the checkpoint file:  "C1=CC=C(C=C1)Cl.chk"
 B after Tr=     0.000000   -0.000000    0.000000
         Rot=    1.000000   -0.000000    0.000000   -0.000000 Ang=  -0.00 deg.
 Keep R1 ints in memory in canonical form, NReq=198470495.
 Requested convergence on RMS density matrix=1.00D-08 within 128 cycles.
 Requested convergence on MAX density matrix=1.00D-06.
 Requested convergence on             energy=1.00D-06.
 No special actions if energy rises.
 SCF Done:  E(RB3LYP) =  -691.934286025     A.U. after   11 cycles
            NFock= 11  Conv=0.34D-08     -V/T= 2.0031
 Calling FoFJK, ICntrl=      2127 FMM=F ISym2X=0 I1Cent= 0 IOpClX= 0 NMat=1 NMatS=1 NMatT=0.
 ***** Axes restored to original set *****
 -------------------------------------------------------------------
 Center     Atomic                   Forces (Hartrees/Bohr)
 Number     Number              X              Y              Z
 -------------------------------------------------------------------
      1        6           0.000454608   -0.000139139    0.000060030
      2        6          -0.000410239    0.000073404   -0.000049936
      3        6           0.000980194   -0.000037845    0.000108516
      4        6          -0.001149722    0.000351917   -0.000151423
      5        6           0.000830867   -0.000516503    0.000129846
      6        6          -0.000380524    0.000168632   -0.000054251
      7       17           0.000392911   -0.000120262    0.000051944
      8        1          -0.000190096    0.000058186   -0.000025008
      9        1          -0.000216449    0.000018676   -0.000024841
     10        1          -0.000083549   -0.000053272   -0.000004894
     11        1          -0.000038639    0.000090669   -0.000011332
     12        1          -0.000189362    0.000105536   -0.000028650
 -------------------------------------------------------------------
 Cartesian Forces:  Max     0.001149722 RMS     0.000346634

 GradGradGradGradGradGradGradGradGradGradGradGradGradGradGradGradGradGrad
 Berny optimization.
 Using GEDIIS/GDIIS optimizer.
 FormGI is forming the generalized inverse of G from B-inverse, IUseBI=4.
 Internal  Forces:  Max     0.000490666 RMS     0.000159517
 Search for a local minimum.
 Step number   3 out of a maximum of   64
 All quantities printed in internal units (Hartrees-Bohrs-Radians)
 Mixed Optimization -- En-DIIS/RFO-DIIS
 Swapping is turned off.
 Update second derivatives using D2CorX and points    1    2    3
 DE= -8.99D-05 DEPred=-7.95D-05 R= 1.13D+00
 TightC=F SS=  1.41D+00  RLast= 3.02D-02 DXNew= 5.0454D-01 9.0641D-02
 Trust test= 1.13D+00 RLast= 3.02D-02 DXMaxT set to 3.00D-01
 ITU=  1  1  0
     Eigenvalues ---    0.02146   0.02146   0.02147   0.02147   0.02149
     Eigenvalues ---    0.02154   0.02156   0.02161   0.02165   0.15139
     Eigenvalues ---    0.16000   0.16000   0.16000   0.16163   0.17692
     Eigenvalues ---    0.22000   0.22462   0.25000   0.28623   0.35140
     Eigenvalues ---    0.35148   0.35202   0.35222   0.36288   0.42071
     Eigenvalues ---    0.42945   0.46356   0.46388   0.46550   0.47400
 En-DIIS/RFO-DIIS/Sim-DIIS IScMMF=       -3 using points:     3    2
 RFO step:  Lambda=-5.26119196D-06.
 DidBck=F Rises=F RFO-DIIS coefs:    1.09709   -0.09709
 Iteration  1 RMS(Cart)=  0.00064527 RMS(Int)=  0.00000048
 Iteration  2 RMS(Cart)=  0.00000049 RMS(Int)=  0.00000030
 Variable       Old X    -DE/DX   Delta X   Delta X   Delta X     New X
                                 (Linear)    (Quad)   (Total)
    R1        2.63415  -0.00007   0.00005  -0.00023  -0.00019   2.63397
    R2        2.63415  -0.00007   0.00005  -0.00023  -0.00019   2.63397
    R3        2.04718   0.00020  -0.00012   0.00061   0.00049   2.04767
    R4        2.63298   0.00049  -0.00005   0.00112   0.00107   2.63405
    R5        2.04818   0.00015   0.00004   0.00032   0.00036   2.04854
    R6        2.63051  -0.00027  -0.00023  -0.00048  -0.00072   2.62979
    R7        2.04562   0.00003  -0.00009   0.00007  -0.00002   2.04560
    R8        2.63051  -0.00027  -0.00023  -0.00048  -0.00072   2.62979
    R9        3.32430   0.00041   0.00216   0.00047   0.00263   3.32693
   R10        2.63298   0.00049  -0.00005   0.00112   0.00107   2.63405
   R11        2.04562   0.00003  -0.00009   0.00007  -0.00002   2.04560
   R12        2.04818   0.00015   0.00004   0.00032   0.00036   2.04854
    A1        2.08863   0.00019   0.00001   0.00090   0.00092   2.08955
    A2        2.09728  -0.00010  -0.00001  -0.00045  -0.00046   2.09682
    A3        2.09728  -0.00010  -0.00001  -0.00045  -0.00046   2.09682
    A4        2.10310  -0.00013   0.00015  -0.00058  -0.00043   2.10267
    A5        2.09894  -0.00010   0.00022  -0.00097  -0.00075   2.09819
    A6        2.08115   0.00023  -0.00037   0.00155   0.00118   2.08233
    A7        2.07731  -0.00014  -0.00067  -0.00025  -0.00092   2.07640
    A8        2.11128  -0.00003   0.00067  -0.00061   0.00007   2.11134
    A9        2.09460   0.00016  -0.00001   0.00086   0.00085   2.09545
   A10        2.11693   0.00034   0.00102   0.00075   0.00178   2.11870
   A11        2.08313  -0.00017  -0.00051  -0.00038  -0.00089   2.08224
   A12        2.08313  -0.00017  -0.00051  -0.00038  -0.00089   2.08224
   A13        2.07731  -0.00014  -0.00067  -0.00025  -0.00092   2.07640
   A14        2.09460   0.00016  -0.00001   0.00086   0.00085   2.09545
   A15        2.11128  -0.00003   0.00067  -0.00061   0.00007   2.11134
   A16        2.10310  -0.00013   0.00015  -0.00058  -0.00043   2.10267
   A17        2.09894  -0.00010   0.00022  -0.00097  -0.00075   2.09819
   A18        2.08115   0.00023  -0.00037   0.00155   0.00118   2.08233
    D1       -0.00000   0.00000  -0.00000   0.00000   0.00000  -0.00000
    D2        3.14159   0.00000  -0.00000   0.00000   0.00000   3.14159
    D3        3.14159   0.00000  -0.00000   0.00000   0.00000   3.14159
    D4       -0.00000   0.00000  -0.00000   0.00000   0.00000  -0.00000
    D5        0.00000  -0.00000   0.00000  -0.00000  -0.00000   0.00000
    D6       -3.14159  -0.00000   0.00000  -0.00000  -0.00000  -3.14159
    D7       -3.14159  -0.00000   0.00000  -0.00000  -0.00000  -3.14159
    D8        0.00000   0.00000   0.00000   0.00000   0.00000   0.00000
    D9       -0.00000   0.00000  -0.00000   0.00000   0.00000   0.00000
   D10       -3.14159  -0.00000  -0.00000  -0.00000  -0.00000   3.14159
   D11        3.14159   0.00000   0.00000   0.00000   0.00000  -3.14159
   D12        0.00000  -0.00000  -0.00000  -0.00000  -0.00000  -0.00000
   D13        0.00001  -0.00000   0.00000  -0.00001  -0.00000   0.00000
   D14       -3.14159  -0.00000   0.00000  -0.00001  -0.00001  -3.14159
   D15       -3.14159  -0.00000   0.00000  -0.00000  -0.00000  -3.14159
   D16        0.00001  -0.00000   0.00000  -0.00000  -0.00000   0.00000
   D17       -0.00001   0.00000  -0.00000   0.00001   0.00001  -0.00000
   D18        3.14159   0.00000  -0.00000   0.00000   0.00000   3.14159
   D19        3.14159   0.00000  -0.00000   0.00001   0.00001   3.14159
   D20       -0.00001   0.00000  -0.00000   0.00000   0.00000  -0.00000
   D21        0.00000  -0.00000   0.00000  -0.00000  -0.00000  -0.00000
   D22       -3.14159  -0.00000   0.00000  -0.00000  -0.00000   3.14159
   D23        3.14159   0.00000   0.00000   0.00000   0.00000  -3.14159
   D24        0.00000  -0.00000   0.00000  -0.00000  -0.00000   0.00000
         Item               Value     Threshold  Converged?
 Maximum Force            0.000491     0.000450     NO 
 RMS     Force            0.000160     0.000300     YES
 Maximum Displacement     0.002469     0.001800     NO 
 RMS     Displacement     0.000645     0.001200     YES
 Predicted change in Energy=-2.630657D-06
 GradGradGradGradGradGradGradGradGradGradGradGradGradGradGradGradGradGrad

                          Input orientation:                          
 ---------------------------------------------------------------------
 Center     Atomic      Atomic             Coordinates (Angstroms)
 Number     Number       Type             X           Y           Z
 ---------------------------------------------------------------------
      1          6           0       -1.378125    0.421830   -0.181612
      2          6           0       -1.072848   -0.931056   -0.042755
      3          6           0        0.247089   -1.343588    0.131855
      4          6           0        1.254358   -0.383946    0.165301
      5          6           0        0.969272    0.971273    0.028439
      6          6           0       -0.355514    1.368262   -0.145476
      7         17           0        2.924587   -0.895185    0.385405
      8          1           0       -2.406126    0.736490   -0.317084
      9          1           0       -1.861856   -1.673949   -0.069643
     10          1           0        0.493277   -2.392092    0.240505
     11          1           0        1.769730    1.699410    0.057719
     12          1           0       -0.583843    2.422552   -0.252653
 ---------------------------------------------------------------------
                    Distance matrix (angstroms):
                    1          2          3          4          5
     1  C    0.000000
     2  C    1.393834   0.000000
     3  C    2.419976   1.393882   0.000000
     4  C    2.774814   2.399688   1.391626   0.000000
     5  C    2.419976   2.791806   2.427102   1.391626   0.000000
     6  C    1.393834   2.410806   2.791806   2.399688   1.393882
     7  Cl   4.535347   4.020460   2.726600   1.760534   2.726600
     8  H    1.083581   2.152578   3.401150   3.858395   3.401150
     9  H    2.153793   1.084042   2.144153   3.380843   3.875837
    10  H    3.405654   2.160465   1.082484   2.148849   3.403493
    11  H    3.405654   3.874234   3.403493   2.148849   1.082484
    12  H    2.153793   3.395566   3.875837   3.380843   2.144153
                    6          7          8          9         10
     6  C    0.000000
     7  Cl   4.020460   0.000000
     8  H    2.152578   5.618929   0.000000
     9  H    3.395566   4.870687   2.483480   0.000000
    10  H    3.874234   2.858845   4.301797   2.481647   0.000000
    11  H    2.160465   2.858845   4.301797   4.958245   4.289886
    12  H    1.084042   4.870687   2.483480   4.295129   4.958245
                   11         12
    11  H    0.000000
    12  H    2.481647   0.000000
 Stoichiometry    C6H5Cl
 Framework group  C1[X(C6H5Cl)]
 Deg. of freedom    30
 Full point group                 C1      NOp   1
 Largest Abelian subgroup         C1      NOp   1
 Largest concise Abelian subgroup C1      NOp   1
                         Standard orientation:                         
 ---------------------------------------------------------------------
 Center     Atomic      Atomic             Coordinates (Angstroms)
 Number     Number       Type             X           Y           Z
 ---------------------------------------------------------------------
      1          6           0        2.272529    0.000000    0.000000
      2          6           0        1.572687   -1.205403    0.000000
      3          6           0        0.178829   -1.213551   -0.000000
      4          6           0       -0.502285    0.000000   -0.000000
      5          6           0        0.178829    1.213551   -0.000000
      6          6           0        1.572687    1.205403    0.000000
      7         17           0       -2.262818    0.000000    0.000000
      8          1           0        3.356110    0.000000    0.000002
      9          1           0        2.108858   -2.147565   -0.000001
     10          1           0       -0.372788   -2.144943   -0.000002
     11          1           0       -0.372788    2.144943   -0.000002
     12          1           0        2.108858    2.147565   -0.000000
 ---------------------------------------------------------------------
 Rotational constants (GHZ):           5.6920592           1.5595298           1.2241367
 Standard basis: 6-311++G(d,p) (5D, 7F)
 There are   204 symmetry adapted cartesian basis functions of A   symmetry.
 There are   197 symmetry adapted basis functions of A   symmetry.
   197 basis functions,   314 primitive gaussians,   204 cartesian basis functions
    29 alpha electrons       29 beta electrons
       nuclear repulsion energy       314.9384884826 Hartrees.
 NAtoms=   12 NActive=   12 NUniq=   12 SFac= 1.00D+00 NAtFMM=   60 NAOKFM=F Big=F
 Integral buffers will be    131072 words long.
 Raffenetti 2 integral format.
 Two-electron integral symmetry is turned on.
 One-electron integrals computed using PRISM.
 NBasis=   197 RedAO= T EigKep=  1.13D-06  NBF=   197
 NBsUse=   197 1.00D-06 EigRej= -1.00D+00 NBFU=   197
 Initial guess from the checkpoint file:  "C1=CC=C(C=C1)Cl.chk"
 B after Tr=     0.000000   -0.000000   -0.000000
         Rot=    1.000000   -0.000000    0.000000    0.000000 Ang=   0.00 deg.
 Keep R1 ints in memory in canonical form, NReq=198470495.
 Requested convergence on RMS density matrix=1.00D-08 within 128 cycles.
 Requested convergence on MAX density matrix=1.00D-06.
 Requested convergence on             energy=1.00D-06.
 No special actions if energy rises.
 SCF Done:  E(RB3LYP) =  -691.934289143     A.U. after    9 cycles
            NFock=  9  Conv=0.60D-08     -V/T= 2.0031
 Calling FoFJK, ICntrl=      2127 FMM=F ISym2X=0 I1Cent= 0 IOpClX= 0 NMat=1 NMatS=1 NMatT=0.
 ***** Axes restored to original set *****
 -------------------------------------------------------------------
 Center     Atomic                   Forces (Hartrees/Bohr)
 Number     Number              X              Y              Z
 -------------------------------------------------------------------
      1        6           0.000129681   -0.000039692    0.000017024
      2        6          -0.000094976   -0.000089936   -0.000003158
      3        6           0.000227630    0.000044466    0.000021112
      4        6          -0.000198021    0.000060600   -0.000026145
      5        6           0.000162621   -0.000163899    0.000030446
      6        6          -0.000027193    0.000127325   -0.000012887
      7       17          -0.000004972    0.000001524   -0.000000624
      8        1          -0.000041570    0.000012726   -0.000005434
      9        1          -0.000033741    0.000029816   -0.000006002
     10        1          -0.000048180   -0.000023424   -0.000003402
     11        1          -0.000026437    0.000046260   -0.000006529
     12        1          -0.000044843   -0.000005765   -0.000004400
 -------------------------------------------------------------------
 Cartesian Forces:  Max     0.000227630 RMS     0.000077603

 GradGradGradGradGradGradGradGradGradGradGradGradGradGradGradGradGradGrad
 Berny optimization.
 Using GEDIIS/GDIIS optimizer.
 FormGI is forming the generalized inverse of G from B-inverse, IUseBI=4.
 Internal  Forces:  Max     0.000090940 RMS     0.000036311
 Search for a local minimum.
 Step number   4 out of a maximum of   64
 All quantities printed in internal units (Hartrees-Bohrs-Radians)
 Mixed Optimization -- En-DIIS/RFO-DIIS
 Swapping is turned off.
 Update second derivatives using D2CorX and points    1    2    3    4
 DE= -3.12D-06 DEPred=-2.63D-06 R= 1.19D+00
 TightC=F SS=  1.41D+00  RLast= 4.92D-03 DXNew= 5.0454D-01 1.4766D-02
 Trust test= 1.19D+00 RLast= 4.92D-03 DXMaxT set to 3.00D-01
 ITU=  1  1  1  0
     Eigenvalues ---    0.02146   0.02146   0.02147   0.02147   0.02149
     Eigenvalues ---    0.02154   0.02156   0.02161   0.02165   0.14292
     Eigenvalues ---    0.15883   0.16000   0.16000   0.16000   0.16711
     Eigenvalues ---    0.21616   0.22000   0.25000   0.28976   0.35033
     Eigenvalues ---    0.35148   0.35222   0.35226   0.36127   0.42075
     Eigenvalues ---    0.42309   0.46241   0.46356   0.46550   0.46829
 En-DIIS/RFO-DIIS/Sim-DIIS IScMMF=       -3 using points:     4    3    2
 RFO step:  Lambda=-3.83548126D-07.
 DidBck=F Rises=F RFO-DIIS coefs:    1.35901   -0.38640    0.02739
 Iteration  1 RMS(Cart)=  0.00022283 RMS(Int)=  0.00000009
 Iteration  2 RMS(Cart)=  0.00000006 RMS(Int)=  0.00000007
 Variable       Old X    -DE/DX   Delta X   Delta X   Delta X     New X
                                 (Linear)    (Quad)   (Total)
    R1        2.63397   0.00001  -0.00008   0.00009   0.00001   2.63398
    R2        2.63397   0.00001  -0.00008   0.00009   0.00001   2.63398
    R3        2.04767   0.00004   0.00021  -0.00006   0.00015   2.04782
    R4        2.63405   0.00006   0.00040  -0.00023   0.00017   2.63422
    R5        2.04854   0.00000   0.00012  -0.00012  -0.00001   2.04854
    R6        2.62979  -0.00007  -0.00019  -0.00002  -0.00021   2.62958
    R7        2.04560   0.00001   0.00002  -0.00000   0.00002   2.04561
    R8        2.62979  -0.00007  -0.00019  -0.00002  -0.00021   2.62958
    R9        3.32693  -0.00001   0.00033  -0.00012   0.00022   3.32714
   R10        2.63405   0.00006   0.00040  -0.00023   0.00017   2.63422
   R11        2.04560   0.00001   0.00002  -0.00000   0.00002   2.04561
   R12        2.04854   0.00000   0.00012  -0.00012  -0.00001   2.04854
    A1        2.08955   0.00008   0.00033   0.00015   0.00047   2.09002
    A2        2.09682  -0.00004  -0.00016  -0.00007  -0.00024   2.09658
    A3        2.09682  -0.00004  -0.00016  -0.00007  -0.00024   2.09658
    A4        2.10267  -0.00006  -0.00020  -0.00011  -0.00031   2.10236
    A5        2.09819  -0.00002  -0.00033   0.00011  -0.00022   2.09797
    A6        2.08233   0.00008   0.00053   0.00000   0.00053   2.08286
    A7        2.07640  -0.00002  -0.00014  -0.00004  -0.00018   2.07621
    A8        2.11134  -0.00004  -0.00017  -0.00015  -0.00032   2.11103
    A9        2.09545   0.00007   0.00031   0.00019   0.00050   2.09594
   A10        2.11870   0.00009   0.00035   0.00015   0.00050   2.11921
   A11        2.08224  -0.00005  -0.00017  -0.00008  -0.00025   2.08199
   A12        2.08224  -0.00005  -0.00017  -0.00008  -0.00025   2.08199
   A13        2.07640  -0.00002  -0.00014  -0.00004  -0.00018   2.07621
   A14        2.09545   0.00007   0.00031   0.00019   0.00050   2.09594
   A15        2.11134  -0.00004  -0.00017  -0.00015  -0.00032   2.11103
   A16        2.10267  -0.00006  -0.00020  -0.00011  -0.00031   2.10236
   A17        2.09819  -0.00002  -0.00033   0.00011  -0.00022   2.09797
   A18        2.08233   0.00008   0.00053   0.00000   0.00053   2.08286
    D1       -0.00000   0.00000   0.00000  -0.00000   0.00000  -0.00000
    D2        3.14159   0.00000   0.00000  -0.00000   0.00000  -3.14159
    D3        3.14159   0.00000   0.00000   0.00000   0.00000   3.14159
    D4       -0.00000   0.00000   0.00000   0.00000   0.00000   0.00000
    D5        0.00000  -0.00000  -0.00000   0.00000  -0.00000   0.00000
    D6       -3.14159  -0.00000  -0.00000  -0.00000  -0.00000   3.14159
    D7       -3.14159  -0.00000  -0.00000  -0.00000  -0.00000  -3.14159
    D8        0.00000  -0.00000   0.00000  -0.00000  -0.00000  -0.00000
    D9       -0.00000  -0.00000   0.00000  -0.00000   0.00000   0.00000
   D10        3.14159   0.00000  -0.00000   0.00000   0.00000  -3.14159
   D11       -3.14159  -0.00000   0.00000  -0.00000  -0.00000   3.14159
   D12       -0.00000   0.00000  -0.00000   0.00000   0.00000   0.00000
   D13        0.00000  -0.00000  -0.00000   0.00000  -0.00000   0.00000
   D14       -3.14159  -0.00000  -0.00000   0.00000  -0.00000  -3.14159
   D15       -3.14159  -0.00000  -0.00000   0.00000  -0.00000   3.14159
   D16        0.00000  -0.00000  -0.00000  -0.00000  -0.00000  -0.00000
   D17       -0.00000   0.00000   0.00000  -0.00000  -0.00000  -0.00000
   D18        3.14159   0.00000   0.00000   0.00000   0.00000  -3.14159
   D19        3.14159   0.00000   0.00000  -0.00000   0.00000   3.14159
   D20       -0.00000   0.00000   0.00000   0.00000   0.00000   0.00000
   D21       -0.00000   0.00000  -0.00000   0.00000   0.00000   0.00000
   D22        3.14159   0.00000  -0.00000   0.00000   0.00000  -3.14159
   D23       -3.14159  -0.00000   0.00000  -0.00000  -0.00000   3.14159
   D24        0.00000  -0.00000  -0.00000  -0.00000  -0.00000  -0.00000
         Item               Value     Threshold  Converged?
 Maximum Force            0.000091     0.000450     YES
 RMS     Force            0.000036     0.000300     YES
 Maximum Displacement     0.000684     0.001800     YES
 RMS     Displacement     0.000223     0.001200     YES
 Predicted change in Energy=-1.911954D-07
 Optimization completed.
    -- Stationary point found.
                           ----------------------------
                           !   Optimized Parameters   !
                           ! (Angstroms and Degrees)  !
 --------------------------                            --------------------------
 ! Name  Definition              Value          Derivative Info.                !
 --------------------------------------------------------------------------------
 ! R1    R(1,2)                  1.3938         -DE/DX =    0.0                 !
 ! R2    R(1,6)                  1.3938         -DE/DX =    0.0                 !
 ! R3    R(1,8)                  1.0836         -DE/DX =    0.0                 !
 ! R4    R(2,3)                  1.3939         -DE/DX =    0.0001              !
 ! R5    R(2,9)                  1.084          -DE/DX =    0.0                 !
 ! R6    R(3,4)                  1.3916         -DE/DX =   -0.0001              !
 ! R7    R(3,10)                 1.0825         -DE/DX =    0.0                 !
 ! R8    R(4,5)                  1.3916         -DE/DX =   -0.0001              !
 ! R9    R(4,7)                  1.7605         -DE/DX =    0.0                 !
 ! R10   R(5,6)                  1.3939         -DE/DX =    0.0001              !
 ! R11   R(5,11)                 1.0825         -DE/DX =    0.0                 !
 ! R12   R(6,12)                 1.084          -DE/DX =    0.0                 !
 ! A1    A(2,1,6)              119.7222         -DE/DX =    0.0001              !
 ! A2    A(2,1,8)              120.1389         -DE/DX =    0.0                 !
 ! A3    A(6,1,8)              120.1389         -DE/DX =    0.0                 !
 ! A4    A(1,2,3)              120.4738         -DE/DX =   -0.0001              !
 ! A5    A(1,2,9)              120.2175         -DE/DX =    0.0                 !
 ! A6    A(3,2,9)              119.3086         -DE/DX =    0.0001              !
 ! A7    A(2,3,4)              118.9687         -DE/DX =    0.0                 !
 ! A8    A(2,3,10)             120.9711         -DE/DX =    0.0                 !
 ! A9    A(4,3,10)             120.0603         -DE/DX =    0.0001              !
 ! A10   A(3,4,5)              121.3928         -DE/DX =    0.0001              !
 ! A11   A(3,4,7)              119.3036         -DE/DX =    0.0                 !
 ! A12   A(5,4,7)              119.3036         -DE/DX =    0.0                 !
 ! A13   A(4,5,6)              118.9687         -DE/DX =    0.0                 !
 ! A14   A(4,5,11)             120.0603         -DE/DX =    0.0001              !
 ! A15   A(6,5,11)             120.9711         -DE/DX =    0.0                 !
 ! A16   A(1,6,5)              120.4738         -DE/DX =   -0.0001              !
 ! A17   A(1,6,12)             120.2175         -DE/DX =    0.0                 !
 ! A18   A(5,6,12)             119.3086         -DE/DX =    0.0001              !
 ! D1    D(6,1,2,3)              0.0            -DE/DX =    0.0                 !
 ! D2    D(6,1,2,9)           -180.0001         -DE/DX =    0.0                 !
 ! D3    D(8,1,2,3)            179.9999         -DE/DX =    0.0                 !
 ! D4    D(8,1,2,9)             -0.0001         -DE/DX =    0.0                 !
 ! D5    D(2,1,6,5)              0.0            -DE/DX =    0.0                 !
 ! D6    D(2,1,6,12)           180.0            -DE/DX =    0.0                 !
 ! D7    D(8,1,6,5)           -179.9999         -DE/DX =    0.0                 !
 ! D8    D(8,1,6,12)             0.0001         -DE/DX =    0.0                 !
 ! D9    D(1,2,3,4)              0.0            -DE/DX =    0.0                 !
 ! D10   D(1,2,3,10)          -180.0001         -DE/DX =    0.0                 !
 ! D11   D(9,2,3,4)            180.0            -DE/DX =    0.0                 !
 ! D12   D(9,2,3,10)             0.0            -DE/DX =    0.0                 !
 ! D13   D(2,3,4,5)              0.0            -DE/DX =    0.0                 !
 ! D14   D(2,3,4,7)           -180.0            -DE/DX =    0.0                 !
 ! D15   D(10,3,4,5)           180.0001         -DE/DX =    0.0                 !
 ! D16   D(10,3,4,7)             0.0001         -DE/DX =    0.0                 !
 ! D17   D(3,4,5,6)              0.0            -DE/DX =    0.0                 !
 ! D18   D(3,4,5,11)          -180.0001         -DE/DX =    0.0                 !
 ! D19   D(7,4,5,6)            180.0            -DE/DX =    0.0                 !
 ! D20   D(7,4,5,11)            -0.0001         -DE/DX =    0.0                 !
 ! D21   D(4,5,6,1)              0.0            -DE/DX =    0.0                 !
 ! D22   D(4,5,6,12)          -180.0            -DE/DX =    0.0                 !
 ! D23   D(11,5,6,1)           180.0001         -DE/DX =    0.0                 !
 ! D24   D(11,5,6,12)            0.0            -DE/DX =    0.0                 !
 --------------------------------------------------------------------------------
 GradGradGradGradGradGradGradGradGradGradGradGradGradGradGradGradGradGrad

                          Input orientation:                          
 ---------------------------------------------------------------------
 Center     Atomic      Atomic             Coordinates (Angstroms)
 Number     Number       Type             X           Y           Z
 ---------------------------------------------------------------------
      1          6           0       -1.378125    0.421830   -0.181612
      2          6           0       -1.072848   -0.931056   -0.042755
      3          6           0        0.247089   -1.343588    0.131855
      4          6           0        1.254358   -0.383946    0.165301
      5          6           0        0.969272    0.971273    0.028439
      6          6           0       -0.355514    1.368262   -0.145476
      7         17           0        2.924587   -0.895185    0.385405
      8          1           0       -2.406126    0.736490   -0.317084
      9          1           0       -1.861856   -1.673949   -0.069643
     10          1           0        0.493277   -2.392092    0.240505
     11          1           0        1.769730    1.699410    0.057719
     12          1           0       -0.583843    2.422552   -0.252653
 ---------------------------------------------------------------------
                    Distance matrix (angstroms):
                    1          2          3          4          5
     1  C    0.000000
     2  C    1.393834   0.000000
     3  C    2.419976   1.393882   0.000000
     4  C    2.774814   2.399688   1.391626   0.000000
     5  C    2.419976   2.791806   2.427102   1.391626   0.000000
     6  C    1.393834   2.410806   2.791806   2.399688   1.393882
     7  Cl   4.535347   4.020460   2.726600   1.760534   2.726600
     8  H    1.083581   2.152578   3.401150   3.858395   3.401150
     9  H    2.153793   1.084042   2.144153   3.380843   3.875837
    10  H    3.405654   2.160465   1.082484   2.148849   3.403493
    11  H    3.405654   3.874234   3.403493   2.148849   1.082484
    12  H    2.153793   3.395566   3.875837   3.380843   2.144153
                    6          7          8          9         10
     6  C    0.000000
     7  Cl   4.020460   0.000000
     8  H    2.152578   5.618929   0.000000
     9  H    3.395566   4.870687   2.483480   0.000000
    10  H    3.874234   2.858845   4.301797   2.481647   0.000000
    11  H    2.160465   2.858845   4.301797   4.958245   4.289886
    12  H    1.084042   4.870687   2.483480   4.295129   4.958245
                   11         12
    11  H    0.000000
    12  H    2.481647   0.000000
 Stoichiometry    C6H5Cl
 Framework group  C1[X(C6H5Cl)]
 Deg. of freedom    30
 Full point group                 C1      NOp   1
 Largest Abelian subgroup         C1      NOp   1
 Largest concise Abelian subgroup C1      NOp   1
                         Standard orientation:                         
 ---------------------------------------------------------------------
 Center     Atomic      Atomic             Coordinates (Angstroms)
 Number     Number       Type             X           Y           Z
 ---------------------------------------------------------------------
      1          6           0        2.272529    0.000000    0.000000
      2          6           0        1.572687   -1.205403    0.000000
      3          6           0        0.178829   -1.213551   -0.000000
      4          6           0       -0.502285    0.000000   -0.000000
      5          6           0        0.178829    1.213551   -0.000000
      6          6           0        1.572687    1.205403    0.000000
      7         17           0       -2.262818    0.000000    0.000000
      8          1           0        3.356110    0.000000    0.000002
      9          1           0        2.108858   -2.147565   -0.000001
     10          1           0       -0.372788   -2.144943   -0.000002
     11          1           0       -0.372788    2.144943   -0.000002
     12          1           0        2.108858    2.147565   -0.000000
 ---------------------------------------------------------------------
 Rotational constants (GHZ):           5.6920592           1.5595298           1.2241367

 **********************************************************************

            Population analysis using the SCF Density.

 **********************************************************************

 Orbital symmetries:
       Occupied  (A) (A) (A) (A) (A) (A) (A) (A) (A) (A) (A) (A)
                 (A) (A) (A) (A) (A) (A) (A) (A) (A) (A) (A) (A)
                 (A) (A) (A) (A) (A)
       Virtual   (A) (A) (A) (A) (A) (A) (A) (A) (A) (A) (A) (A)
                 (A) (A) (A) (A) (A) (A) (A) (A) (A) (A) (A) (A)
                 (A) (A) (A) (A) (A) (A) (A) (A) (A) (A) (A) (A)
                 (A) (A) (A) (A) (A) (A) (A) (A) (A) (A) (A) (A)
                 (A) (A) (A) (A) (A) (A) (A) (A) (A) (A) (A) (A)
                 (A) (A) (A) (A) (A) (A) (A) (A) (A) (A) (A) (A)
                 (A) (A) (A) (A) (A) (A) (A) (A) (A) (A) (A) (A)
                 (A) (A) (A) (A) (A) (A) (A) (A) (A) (A) (A) (A)
                 (A) (A) (A) (A) (A) (A) (A) (A) (A) (A) (A) (A)
                 (A) (A) (A) (A) (A) (A) (A) (A) (A) (A) (A) (A)
                 (A) (A) (A) (A) (A) (A) (A) (A) (A) (A) (A) (A)
                 (A) (A) (A) (A) (A) (A) (A) (A) (A) (A) (A) (A)
                 (A) (A) (A) (A) (A) (A) (A) (A) (A) (A) (A) (A)
                 (A) (A) (A) (A) (A) (A) (A) (A) (A) (A) (A) (A)
 The electronic state is 1-A.
 Alpha  occ. eigenvalues -- -101.55616 -10.24513 -10.19459 -10.19458 -10.19354
 Alpha  occ. eigenvalues --  -10.19351 -10.18974  -9.47076  -7.23531  -7.22561
 Alpha  occ. eigenvalues --   -7.22528  -0.89964  -0.84492  -0.76913  -0.74443
 Alpha  occ. eigenvalues --   -0.62976  -0.61110  -0.53621  -0.47957  -0.47699
 Alpha  occ. eigenvalues --   -0.44427  -0.44090  -0.40495  -0.37324  -0.37196
 Alpha  occ. eigenvalues --   -0.34172  -0.31977  -0.27499  -0.25749
 Alpha virt. eigenvalues --   -0.03174  -0.02992  -0.01180   0.00696   0.01070
 Alpha virt. eigenvalues --    0.01429   0.03370   0.03987   0.05367   0.05611
 Alpha virt. eigenvalues --    0.07809   0.08135   0.08436   0.08590   0.10689
 Alpha virt. eigenvalues --    0.11521   0.11556   0.11589   0.12447   0.12731
 Alpha virt. eigenvalues --    0.12747   0.13255   0.13325   0.13623   0.14072
 Alpha virt. eigenvalues --    0.14698   0.15475   0.17856   0.17913   0.18833
 Alpha virt. eigenvalues --    0.19688   0.21243   0.21502   0.22674   0.24225
 Alpha virt. eigenvalues --    0.25561   0.26174   0.27374   0.27385   0.28340
 Alpha virt. eigenvalues --    0.28414   0.30301   0.33002   0.34095   0.34699
 Alpha virt. eigenvalues --    0.34845   0.44218   0.46213   0.46240   0.47506
 Alpha virt. eigenvalues --    0.48194   0.52590   0.53296   0.54182   0.54731
 Alpha virt. eigenvalues --    0.54875   0.56240   0.57556   0.58056   0.60166
 Alpha virt. eigenvalues --    0.60183   0.60532   0.65970   0.67180   0.71107
 Alpha virt. eigenvalues --    0.71253   0.72693   0.76443   0.77431   0.82706
 Alpha virt. eigenvalues --    0.83366   0.83936   0.84292   0.86242   0.86696
 Alpha virt. eigenvalues --    0.86999   0.87355   0.87785   0.88305   0.93589
 Alpha virt. eigenvalues --    0.95346   0.98134   0.99426   1.00180   1.02989
 Alpha virt. eigenvalues --    1.06302   1.10022   1.12262   1.16324   1.19068
 Alpha virt. eigenvalues --    1.29291   1.31302   1.37749   1.46834   1.50316
 Alpha virt. eigenvalues --    1.51333   1.55425   1.55471   1.55502   1.61058
 Alpha virt. eigenvalues --    1.63695   1.63721   1.67957   1.71505   1.72734
 Alpha virt. eigenvalues --    1.76011   1.81476   1.86458   1.90865   1.90924
 Alpha virt. eigenvalues --    1.92263   1.93255   1.94116   1.98534   1.99712
 Alpha virt. eigenvalues --    2.02980   2.05065   2.06754   2.23806   2.26290
 Alpha virt. eigenvalues --    2.30651   2.32626   2.40411   2.41820   2.42216
 Alpha virt. eigenvalues --    2.43196   2.51759   2.53933   2.61066   2.63642
 Alpha virt. eigenvalues --    2.64740   2.68941   2.70484   2.73007   2.74030
 Alpha virt. eigenvalues --    2.77607   2.77671   2.77716   2.82883   2.84300
 Alpha virt. eigenvalues --    2.86851   2.87276   2.93301   3.06237   3.11694
 Alpha virt. eigenvalues --    3.19203   3.32136   3.34557   3.46999   3.48603
 Alpha virt. eigenvalues --    3.62268   3.77619   3.98113   4.03890   4.12293
 Alpha virt. eigenvalues --    4.13559   4.82585   9.77273  23.52208  23.90666
 Alpha virt. eigenvalues --   23.95958  24.05584  24.08085  24.17688  25.82569
 Alpha virt. eigenvalues --   26.12921  26.61486 215.76277
          Condensed to atoms (all electrons):
               1          2          3          4          5          6
     1  C    5.832077   0.301011   0.315424  -1.403624   0.315424   0.301011
     2  C    0.301011   6.209113   0.631122  -0.273270  -1.190994   0.326609
     3  C    0.315424   0.631122  12.209041  -1.506577  -4.545297  -1.190994
     4  C   -1.403624  -0.273270  -1.506577  11.425825  -1.506577  -0.273270
     5  C    0.315424  -1.190994  -4.545297  -1.506577  12.209041   0.631122
     6  C    0.301011   0.326609  -1.190994  -0.273270   0.631122   6.209113
     7  Cl   0.048759   0.093858   0.053853  -0.764744   0.053853   0.093858
     8  H    0.381061  -0.025733  -0.014442   0.022643  -0.014442  -0.025733
     9  H   -0.011313   0.356474  -0.056399   0.015462   0.059237  -0.033109
    10  H    0.034505  -0.023017   0.585656  -0.181372  -0.108862  -0.005161
    11  H    0.034505  -0.005161  -0.108862  -0.181372   0.585656  -0.023017
    12  H   -0.011313  -0.033109   0.059237   0.015462  -0.056399   0.356474
               7          8          9         10         11         12
     1  C    0.048759   0.381061  -0.011313   0.034505   0.034505  -0.011313
     2  C    0.093858  -0.025733   0.356474  -0.023017  -0.005161  -0.033109
     3  C    0.053853  -0.014442  -0.056399   0.585656  -0.108862   0.059237
     4  C   -0.764744   0.022643   0.015462  -0.181372  -0.181372   0.015462
     5  C    0.053853  -0.014442   0.059237  -0.108862   0.585656  -0.056399
     6  C    0.093858  -0.025733  -0.033109  -0.005161  -0.023017   0.356474
     7  Cl  17.106756   0.000675  -0.004835   0.017173   0.017173  -0.004835
     8  H    0.000675   0.530284  -0.006231  -0.000318  -0.000318  -0.006231
     9  H   -0.004835  -0.006231   0.527543  -0.015299   0.002370  -0.003428
    10  H    0.017173  -0.000318  -0.015299   0.529136  -0.003395   0.002370
    11  H    0.017173  -0.000318   0.002370  -0.003395   0.529136  -0.015299
    12  H   -0.004835  -0.006231  -0.003428   0.002370  -0.015299   0.527543
 Mulliken charges:
               1
     1  C   -0.137527
     2  C   -0.366905
     3  C   -0.431764
     4  C    0.611413
     5  C   -0.431764
     6  C   -0.366905
     7  Cl   0.288455
     8  H    0.158783
     9  H    0.169526
    10  H    0.168581
    11  H    0.168581
    12  H    0.169526
 Sum of Mulliken charges =  -0.00000
 Mulliken charges with hydrogens summed into heavy atoms:
               1
     1  C    0.021256
     2  C   -0.197379
     3  C   -0.263183
     4  C    0.611413
     5  C   -0.263183
     6  C   -0.197379
     7  Cl   0.288455
 Electronic spatial extent (au):  <R**2>=            903.3330
 Charge=              0.0000 electrons
 Dipole moment (field-independent basis, Debye):
    X=              1.8605    Y=              0.0000    Z=             -0.0000  Tot=              1.8605
 Quadrupole moment (field-independent basis, Debye-Ang):
   XX=            -46.6066   YY=            -42.6560   ZZ=            -51.8512
   XY=              0.0000   XZ=              0.0000   YZ=             -0.0000
 Traceless Quadrupole moment (field-independent basis, Debye-Ang):
   XX=              0.4313   YY=              4.3819   ZZ=             -4.8132
   XY=              0.0000   XZ=              0.0000   YZ=             -0.0000
 Octapole moment (field-independent basis, Debye-Ang**2):
  XXX=              4.8050  YYY=              0.0000  ZZZ=              0.0000  XYY=              1.1952
  XXY=              0.0000  XXZ=              0.0000  XZZ=             -6.9186  YZZ=              0.0000
  YYZ=             -0.0000  XYZ=              0.0000
 Hexadecapole moment (field-independent basis, Debye-Ang**3):
 XXXX=           -800.9495 YYYY=           -280.5922 ZZZZ=            -62.3043 XXXY=              0.0000
 XXXZ=              0.0000 YYYX=              0.0000 YYYZ=             -0.0000 ZZZX=             -0.0000
 ZZZY=             -0.0000 XXYY=           -184.6877 XXZZ=           -165.6019 YYZZ=            -68.9581
 XXYZ=              0.0000 YYXZ=             -0.0000 ZZXY=             -0.0000
 N-N= 3.149384884826D+02 E-N=-2.261030522433D+03  KE= 6.897868678861D+02
 ******************************Gaussian NBO Version 3.1******************************
             N A T U R A L   A T O M I C   O R B I T A L   A N D
          N A T U R A L   B O N D   O R B I T A L   A N A L Y S I S
 ******************************Gaussian NBO Version 3.1******************************
       /RESON  / : Allow strongly delocalized NBO set

 Analyzing the SCF density

 Job title: C1=CC=C(C=C1)Cl                                                 

 Storage needed:    117425 in NPA,    156001 in NBO (1258290384 available)
 GSVD:  LWork=        9049 too small for GESVD, short by       49391 words or       49391 for optimal perf.


 NATURAL POPULATIONS:  Natural atomic orbital occupancies 
                                                          
   NAO  Atom  No  lang   Type(AO)    Occupancy      Energy
 ----------------------------------------------------------
     1    C    1  S      Cor( 1S)     1.99915     -10.04343
     2    C    1  S      Val( 2S)     0.95245      -0.17466
     3    C    1  S      Ryd( 3S)     0.00135       0.80858
     4    C    1  S      Ryd( 4S)     0.00006       1.20977
     5    C    1  S      Ryd( 5S)     0.00000      22.54279
     6    C    1  px     Val( 2p)     1.17460      -0.06156
     7    C    1  px     Ryd( 4p)     0.00654       1.06337
     8    C    1  px     Ryd( 3p)     0.00016       0.50100
     9    C    1  px     Ryd( 5p)     0.00005       3.04644
    10    C    1  py     Val( 2p)     1.06116      -0.05889
    11    C    1  py     Ryd( 4p)     0.00460       0.76519
    12    C    1  py     Ryd( 3p)     0.00051       0.37228
    13    C    1  py     Ryd( 5p)     0.00014       3.05849
    14    C    1  pz     Val( 2p)     1.00240      -0.12057
    15    C    1  pz     Ryd( 4p)     0.00116       0.50658
    16    C    1  pz     Ryd( 3p)     0.00024       0.29403
    17    C    1  pz     Ryd( 5p)     0.00002       2.67477
    18    C    1  dxy    Ryd( 3d)     0.00067       2.58196
    19    C    1  dxz    Ryd( 3d)     0.00039       1.59994
    20    C    1  dyz    Ryd( 3d)     0.00047       1.66204
    21    C    1  dx2y2  Ryd( 3d)     0.00084       2.47498
    22    C    1  dz2    Ryd( 3d)     0.00039       2.06106
 
    23    C    2  S      Cor( 1S)     1.99915     -10.04748
    24    C    2  S      Val( 2S)     0.95201      -0.17672
    25    C    2  S      Ryd( 3S)     0.00141       0.76141
    26    C    2  S      Ryd( 4S)     0.00009       0.95510
    27    C    2  S      Ryd( 5S)     0.00000      22.78552
    28    C    2  px     Val( 2p)     1.07935      -0.05781
    29    C    2  px     Ryd( 4p)     0.00499       0.85719
    30    C    2  px     Ryd( 3p)     0.00038       0.37436
    31    C    2  px     Ryd( 5p)     0.00013       3.07065
    32    C    2  py     Val( 2p)     1.14889      -0.06334
    33    C    2  py     Ryd( 4p)     0.00633       0.99725
    34    C    2  py     Ryd( 3p)     0.00022       0.43414
    35    C    2  py     Ryd( 5p)     0.00008       3.09012
    36    C    2  pz     Val( 2p)     0.98932      -0.12210
    37    C    2  pz     Ryd( 4p)     0.00087       0.51592
    38    C    2  pz     Ryd( 3p)     0.00031       0.29034
    39    C    2  pz     Ryd( 5p)     0.00001       2.66742
    40    C    2  dxy    Ryd( 3d)     0.00076       2.49681
    41    C    2  dxz    Ryd( 3d)     0.00051       1.64425
    42    C    2  dyz    Ryd( 3d)     0.00041       1.61294
    43    C    2  dx2y2  Ryd( 3d)     0.00069       2.55186
    44    C    2  dz2    Ryd( 3d)     0.00040       2.03804
 
    45    C    3  S      Cor( 1S)     1.99896     -10.04334
    46    C    3  S      Val( 2S)     0.94871      -0.17186
    47    C    3  S      Ryd( 3S)     0.00186       0.81405
    48    C    3  S      Ryd( 4S)     0.00023       1.08054
    49    C    3  S      Ryd( 5S)     0.00001      22.71692
    50    C    3  px     Val( 2p)     1.10137      -0.07019
    51    C    3  px     Ryd( 4p)     0.00612       0.85852
    52    C    3  px     Ryd( 3p)     0.00031       0.39596
    53    C    3  px     Ryd( 5p)     0.00011       3.10669
    54    C    3  py     Val( 2p)     1.15599      -0.07916
    55    C    3  py     Ryd( 4p)     0.00531       0.96596
    56    C    3  py     Ryd( 3p)     0.00020       0.39965
    57    C    3  py     Ryd( 5p)     0.00009       3.11033
    58    C    3  pz     Val( 2p)     1.00151      -0.12390
    59    C    3  pz     Ryd( 4p)     0.00114       0.50672
    60    C    3  pz     Ryd( 3p)     0.00048       0.27425
    61    C    3  pz     Ryd( 5p)     0.00001       2.69920
    62    C    3  dxy    Ryd( 3d)     0.00082       2.48899
    63    C    3  dxz    Ryd( 3d)     0.00047       1.64056
    64    C    3  dyz    Ryd( 3d)     0.00047       1.61461
    65    C    3  dx2y2  Ryd( 3d)     0.00070       2.55248
    66    C    3  dz2    Ryd( 3d)     0.00040       2.04174
 
    67    C    4  S      Cor( 1S)     1.99858     -10.11476
    68    C    4  S      Val( 2S)     0.93491      -0.22312
    69    C    4  S      Ryd( 4S)     0.00086       0.84504
    70    C    4  S      Ryd( 3S)     0.00018       0.45915
    71    C    4  S      Ryd( 5S)     0.00001      23.27232
    72    C    4  px     Val( 2p)     0.91668      -0.15995
    73    C    4  px     Ryd( 4p)     0.00740       0.95617
    74    C    4  px     Ryd( 3p)     0.00023       0.42022
    75    C    4  px     Ryd( 5p)     0.00041       3.01855
    76    C    4  py     Val( 2p)     1.09674      -0.08702
    77    C    4  py     Ryd( 4p)     0.00657       0.80051
    78    C    4  py     Ryd( 3p)     0.00018       0.36846
    79    C    4  py     Ryd( 5p)     0.00017       3.30558
    80    C    4  pz     Val( 2p)     1.06596      -0.15082
    81    C    4  pz     Ryd( 4p)     0.00107       0.59046
    82    C    4  pz     Ryd( 3p)     0.00038       0.29825
    83    C    4  pz     Ryd( 5p)     0.00001       2.64312
    84    C    4  dxy    Ryd( 3d)     0.00118       2.44553
    85    C    4  dxz    Ryd( 3d)     0.00144       1.47480
    86    C    4  dyz    Ryd( 3d)     0.00064       1.63922
    87    C    4  dx2y2  Ryd( 3d)     0.00191       2.20510
    88    C    4  dz2    Ryd( 3d)     0.00085       1.97522
 
    89    C    5  S      Cor( 1S)     1.99896     -10.04334
    90    C    5  S      Val( 2S)     0.94871      -0.17186
    91    C    5  S      Ryd( 3S)     0.00186       0.81405
    92    C    5  S      Ryd( 4S)     0.00023       1.08054
    93    C    5  S      Ryd( 5S)     0.00001      22.71692
    94    C    5  px     Val( 2p)     1.10137      -0.07019
    95    C    5  px     Ryd( 4p)     0.00612       0.85852
    96    C    5  px     Ryd( 3p)     0.00031       0.39596
    97    C    5  px     Ryd( 5p)     0.00011       3.10669
    98    C    5  py     Val( 2p)     1.15599      -0.07916
    99    C    5  py     Ryd( 4p)     0.00531       0.96596
   100    C    5  py     Ryd( 3p)     0.00020       0.39965
   101    C    5  py     Ryd( 5p)     0.00009       3.11033
   102    C    5  pz     Val( 2p)     1.00151      -0.12390
   103    C    5  pz     Ryd( 4p)     0.00114       0.50672
   104    C    5  pz     Ryd( 3p)     0.00048       0.27425
   105    C    5  pz     Ryd( 5p)     0.00001       2.69920
   106    C    5  dxy    Ryd( 3d)     0.00082       2.48899
   107    C    5  dxz    Ryd( 3d)     0.00047       1.64056
   108    C    5  dyz    Ryd( 3d)     0.00047       1.61461
   109    C    5  dx2y2  Ryd( 3d)     0.00070       2.55248
   110    C    5  dz2    Ryd( 3d)     0.00040       2.04174
 
   111    C    6  S      Cor( 1S)     1.99915     -10.04748
   112    C    6  S      Val( 2S)     0.95201      -0.17672
   113    C    6  S      Ryd( 3S)     0.00141       0.76141
   114    C    6  S      Ryd( 4S)     0.00009       0.95510
   115    C    6  S      Ryd( 5S)     0.00000      22.78552
   116    C    6  px     Val( 2p)     1.07935      -0.05781
   117    C    6  px     Ryd( 4p)     0.00499       0.85719
   118    C    6  px     Ryd( 3p)     0.00038       0.37436
   119    C    6  px     Ryd( 5p)     0.00013       3.07065
   120    C    6  py     Val( 2p)     1.14889      -0.06334
   121    C    6  py     Ryd( 4p)     0.00633       0.99725
   122    C    6  py     Ryd( 3p)     0.00022       0.43414
   123    C    6  py     Ryd( 5p)     0.00008       3.09012
   124    C    6  pz     Val( 2p)     0.98932      -0.12210
   125    C    6  pz     Ryd( 4p)     0.00087       0.51592
   126    C    6  pz     Ryd( 3p)     0.00031       0.29034
   127    C    6  pz     Ryd( 5p)     0.00001       2.66742
   128    C    6  dxy    Ryd( 3d)     0.00076       2.49681
   129    C    6  dxz    Ryd( 3d)     0.00051       1.64425
   130    C    6  dyz    Ryd( 3d)     0.00041       1.61294
   131    C    6  dx2y2  Ryd( 3d)     0.00069       2.55186
   132    C    6  dz2    Ryd( 3d)     0.00040       2.03804
 
   133   Cl    7  S      Cor( 1S)     2.00000    -100.22211
   134   Cl    7  S      Cor( 2S)     1.99972     -10.47933
   135   Cl    7  S      Val( 3S)     1.83737      -1.00676
   136   Cl    7  S      Ryd( 4S)     0.00234       0.67883
   137   Cl    7  S      Ryd( 5S)     0.00006       1.18881
   138   Cl    7  S      Ryd( 6S)     0.00000      17.20628
   139   Cl    7  S      Ryd( 7S)     0.00000     207.81328
   140   Cl    7  px     Cor( 2p)     1.99991      -7.22839
   141   Cl    7  px     Val( 3p)     1.24414      -0.27380
   142   Cl    7  px     Ryd( 4p)     0.00388       0.35590
   143   Cl    7  px     Ryd( 5p)     0.00015       0.54107
   144   Cl    7  px     Ryd( 6p)     0.00003       4.16488
   145   Cl    7  px     Ryd( 7p)     0.00000      24.38921
   146   Cl    7  py     Cor( 2p)     1.99999      -7.22028
   147   Cl    7  py     Val( 3p)     1.97137      -0.32358
   148   Cl    7  py     Ryd( 4p)     0.00200       0.38409
   149   Cl    7  py     Ryd( 5p)     0.00008       0.63824
   150   Cl    7  py     Ryd( 6p)     0.00001       3.51777
   151   Cl    7  py     Ryd( 7p)     0.00000      24.39083
   152   Cl    7  pz     Cor( 2p)     1.99999      -7.22062
   153   Cl    7  pz     Val( 3p)     1.92936      -0.32205
   154   Cl    7  pz     Ryd( 4p)     0.00196       0.37988
   155   Cl    7  pz     Ryd( 5p)     0.00011       0.57742
   156   Cl    7  pz     Ryd( 6p)     0.00000       3.31015
   157   Cl    7  pz     Ryd( 7p)     0.00000      24.37405
   158   Cl    7  dxy    Ryd( 3d)     0.00112       1.12199
   159   Cl    7  dxz    Ryd( 3d)     0.00237       0.93314
   160   Cl    7  dyz    Ryd( 3d)     0.00004       0.86677
   161   Cl    7  dx2y2  Ryd( 3d)     0.00430       1.21155
   162   Cl    7  dz2    Ryd( 3d)     0.00139       0.97855
 
   163    H    8  S      Val( 1S)     0.78989       0.04416
   164    H    8  S      Ryd( 3S)     0.00076       0.67093
   165    H    8  S      Ryd( 4S)     0.00018       2.05739
   166    H    8  S      Ryd( 2S)     0.00002       0.20937
   167    H    8  px     Ryd( 2p)     0.00045       2.69596
   168    H    8  py     Ryd( 2p)     0.00012       1.96160
   169    H    8  pz     Ryd( 2p)     0.00019       1.58531
 
   170    H    9  S      Val( 1S)     0.78919       0.04280
   171    H    9  S      Ryd( 3S)     0.00075       0.60142
   172    H    9  S      Ryd( 4S)     0.00019       2.13754
   173    H    9  S      Ryd( 2S)     0.00002       0.20216
   174    H    9  px     Ryd( 2p)     0.00020       2.13429
   175    H    9  py     Ryd( 2p)     0.00038       2.50760
   176    H    9  pz     Ryd( 2p)     0.00019       1.58266
 
   177    H   10  S      Val( 1S)     0.77694       0.04304
   178    H   10  S      Ryd( 2S)     0.00087       0.69341
   179    H   10  S      Ryd( 3S)     0.00023       0.77480
   180    H   10  S      Ryd( 4S)     0.00017       1.51242
   181    H   10  px     Ryd( 2p)     0.00023       2.15576
   182    H   10  py     Ryd( 2p)     0.00036       2.49923
   183    H   10  pz     Ryd( 2p)     0.00018       1.58825
 
   184    H   11  S      Val( 1S)     0.77694       0.04304
   185    H   11  S      Ryd( 2S)     0.00087       0.69341
   186    H   11  S      Ryd( 3S)     0.00023       0.77480
   187    H   11  S      Ryd( 4S)     0.00017       1.51242
   188    H   11  px     Ryd( 2p)     0.00023       2.15576
   189    H   11  py     Ryd( 2p)     0.00036       2.49923
   190    H   11  pz     Ryd( 2p)     0.00018       1.58825
 
   191    H   12  S      Val( 1S)     0.78919       0.04280
   192    H   12  S      Ryd( 3S)     0.00075       0.60142
   193    H   12  S      Ryd( 4S)     0.00019       2.13754
   194    H   12  S      Ryd( 2S)     0.00002       0.20216
   195    H   12  px     Ryd( 2p)     0.00020       2.13429
   196    H   12  py     Ryd( 2p)     0.00038       2.50760
   197    H   12  pz     Ryd( 2p)     0.00019       1.58266

 WARNING:  1 low occupancy (<1.9990e) core orbital  found on  C    3
           1 low occupancy (<1.9990e) core orbital  found on  C    4
           1 low occupancy (<1.9990e) core orbital  found on  C    5

 WARNING:  Population inversion found on atom  C    1
           Population inversion found on atom  C    2
           Population inversion found on atom  C    3
           Population inversion found on atom  C    4
           Population inversion found on atom  C    5
           Population inversion found on atom  C    6
           Population inversion found on atom  H    8
           Population inversion found on atom  H    9
           Population inversion found on atom  H   12


 Summary of Natural Population Analysis:                  
                                                          
                                       Natural Population 
                Natural  -----------------------------------------------
    Atom  No    Charge         Core      Valence    Rydberg      Total
 -----------------------------------------------------------------------
      C    1   -0.20737      1.99915     4.19062    0.01760     6.20737
      C    2   -0.18632      1.99915     4.16957    0.01760     6.18632
      C    3   -0.22526      1.99896     4.20757    0.01873     6.22526
      C    4   -0.03638      1.99858     4.01430    0.02351     6.03638
      C    5   -0.22526      1.99896     4.20757    0.01873     6.22526
      C    6   -0.18632      1.99915     4.16957    0.01760     6.18632
     Cl    7   -0.00170      9.99962     6.98224    0.01984    17.00170
      H    8    0.20838      0.00000     0.78989    0.00173     0.79162
      H    9    0.20909      0.00000     0.78919    0.00172     0.79091
      H   10    0.22102      0.00000     0.77694    0.00203     0.77898
      H   11    0.22102      0.00000     0.77694    0.00203     0.77898
      H   12    0.20909      0.00000     0.78919    0.00172     0.79091
 =======================================================================
   * Total *   -0.00000     21.99357    35.86359    0.14284    58.00000

                                 Natural Population      
 --------------------------------------------------------
   Core                      21.99357 ( 99.9708% of  22)
   Valence                   35.86359 ( 99.6211% of  36)
   Natural Minimal Basis     57.85716 ( 99.7537% of  58)
   Natural Rydberg Basis      0.14284 (  0.2463% of  58)
 --------------------------------------------------------

    Atom  No          Natural Electron Configuration
 ----------------------------------------------------------------------------
      C    1      [core]2S( 0.95)2p( 3.24)4p( 0.01)
      C    2      [core]2S( 0.95)2p( 3.22)4p( 0.01)
      C    3      [core]2S( 0.95)2p( 3.26)4p( 0.01)
      C    4      [core]2S( 0.93)2p( 3.08)3d( 0.01)4p( 0.02)
      C    5      [core]2S( 0.95)2p( 3.26)4p( 0.01)
      C    6      [core]2S( 0.95)2p( 3.22)4p( 0.01)
     Cl    7      [core]3S( 1.84)3p( 5.14)3d( 0.01)4p( 0.01)
      H    8            1S( 0.79)
      H    9            1S( 0.79)
      H   10            1S( 0.78)
      H   11            1S( 0.78)
      H   12            1S( 0.79)


 NATURAL BOND ORBITAL ANALYSIS:

                       Occupancies       Lewis Structure    Low   High
           Occ.    -------------------  -----------------   occ   occ
  Cycle   Thresh.   Lewis   Non-Lewis     CR  BD  3C  LP    (L)   (NL)   Dev
 =============================================================================
   1(1)    1.90    54.70776   3.29224     11  12   0   6     3      3    0.43
   2(2)    1.90    54.70776   3.29224     11  12   0   6     3      3    0.43
   3(1)    1.80    54.70776   3.29224     11  12   0   6     3      3    0.43
   4(2)    1.80    54.70776   3.29224     11  12   0   6     3      3    0.43
   5(1)    1.70    54.70776   3.29224     11  12   0   6     3      3    0.43
   6(2)    1.70    54.70776   3.29224     11  12   0   6     3      3    0.43
   7(1)    1.60    56.64025   1.35975     11  15   0   3     0      3    0.43
   8(2)    1.60    56.64025   1.35975     11  15   0   3     0      3    0.43
   9(1)    1.50    56.64025   1.35975     11  15   0   3     0      3    0.43
  10(2)    1.50    56.64025   1.35975     11  15   0   3     0      3    0.43
  11(1)    1.60    56.64025   1.35975     11  15   0   3     0      3    0.43
 -----------------------------------------------------------------------------

 Structure accepted: RESONANCE keyword permits strongly delocalized structure

 WARNING:  1 low occupancy (<1.9990e) core orbital  found on  C    3
           1 low occupancy (<1.9990e) core orbital  found on  C    4
           1 low occupancy (<1.9990e) core orbital  found on  C    5

 --------------------------------------------------------
   Core                     21.99359 ( 99.971% of  22)
   Valence Lewis            34.64666 ( 96.241% of  36)
  ==================       ============================
   Total Lewis              56.64025 ( 97.656% of  58)
  -----------------------------------------------------
   Valence non-Lewis         1.27136 (  2.192% of  58)
   Rydberg non-Lewis         0.08839 (  0.152% of  58)
  ==================       ============================
   Total non-Lewis           1.35975 (  2.344% of  58)
 --------------------------------------------------------


       (Occupancy)   Bond orbital/ Coefficients/ Hybrids
 ---------------------------------------------------------------------------------
     1. (1.97981) BD ( 1) C   1 - C   2  
                ( 49.89%)   0.7063* C   1 s( 35.61%)p 1.81( 64.35%)d 0.00(  0.04%)
                                            0.0000  0.5966 -0.0137 -0.0005 -0.0001
                                           -0.3783 -0.0236  0.0083 -0.0003 -0.7059
                                            0.0378  0.0064 -0.0009 -0.0000 -0.0000
                                            0.0000 -0.0000  0.0160  0.0000 -0.0000
                                           -0.0064 -0.0122
                ( 50.11%)   0.7079* C   2 s( 36.05%)p 1.77( 63.91%)d 0.00(  0.04%)
                                            0.0000  0.6002 -0.0150  0.0001 -0.0000
                                            0.4227 -0.0441 -0.0020  0.0004  0.6770
                                            0.0030 -0.0103  0.0003  0.0000  0.0000
                                           -0.0000  0.0000  0.0133  0.0000  0.0000
                                           -0.0105 -0.0120
     2. (1.97981) BD ( 1) C   1 - C   6  
                ( 49.89%)   0.7063* C   1 s( 35.61%)p 1.81( 64.35%)d 0.00(  0.04%)
                                            0.0000  0.5966 -0.0137 -0.0005 -0.0001
                                           -0.3783 -0.0236  0.0083 -0.0003  0.7059
                                           -0.0378 -0.0064  0.0009 -0.0000 -0.0000
                                            0.0000 -0.0000 -0.0160  0.0000  0.0000
                                           -0.0064 -0.0122
                ( 50.11%)   0.7079* C   6 s( 36.05%)p 1.77( 63.91%)d 0.00(  0.04%)
                                            0.0000  0.6002 -0.0150  0.0001 -0.0000
                                            0.4227 -0.0441 -0.0020  0.0004 -0.6770
                                           -0.0030  0.0103 -0.0003  0.0000  0.0000
                                           -0.0000  0.0000 -0.0133  0.0000 -0.0000
                                           -0.0105 -0.0120
     3. (1.66069) BD ( 2) C   1 - C   6  
                ( 50.50%)   0.7106* C   1 s(  0.00%)p 1.00( 99.96%)d 0.00(  0.04%)
                                           -0.0000 -0.0000  0.0000  0.0000  0.0000
                                           -0.0000 -0.0000 -0.0000 -0.0000 -0.0000
                                            0.0000  0.0000 -0.0000  0.9995  0.0176
                                            0.0143 -0.0022 -0.0000 -0.0188  0.0091
                                            0.0000 -0.0000
                ( 49.50%)   0.7036* C   6 s(  0.00%)p 1.00( 99.96%)d 0.00(  0.04%)
                                            0.0000 -0.0000  0.0000  0.0000 -0.0000
                                           -0.0000 -0.0000 -0.0000  0.0000  0.0000
                                            0.0000  0.0000  0.0000  0.9996  0.0148
                                            0.0148 -0.0021  0.0000 -0.0010 -0.0208
                                            0.0000  0.0000
     4. (1.98015) BD ( 1) C   1 - H   8  
                ( 60.50%)   0.7778* C   1 s( 28.79%)p 2.47( 71.16%)d 0.00(  0.04%)
                                           -0.0004  0.5361  0.0235  0.0013  0.0003
                                            0.8434  0.0184  0.0012  0.0016 -0.0000
                                            0.0000  0.0000 -0.0000  0.0000 -0.0000
                                            0.0000  0.0000 -0.0000  0.0000 -0.0000
                                            0.0190 -0.0084
                ( 39.50%)   0.6285* H   8 s( 99.95%)p 0.00(  0.05%)
                                            0.9998  0.0014  0.0010 -0.0001 -0.0217
                                           -0.0000 -0.0000
     5. (1.97151) BD ( 1) C   2 - C   3  
                ( 49.45%)   0.7032* C   2 s( 35.48%)p 1.82( 64.47%)d 0.00(  0.04%)
                                            0.0001  0.5955 -0.0127 -0.0017 -0.0000
                                           -0.8012  0.0195  0.0125 -0.0011 -0.0269
                                            0.0402 -0.0040 -0.0000 -0.0000  0.0000
                                           -0.0000 -0.0000 -0.0024  0.0000  0.0000
                                            0.0166 -0.0122
                ( 50.55%)   0.7110* C   3 s( 35.90%)p 1.78( 64.05%)d 0.00(  0.05%)
                                           -0.0003  0.5990 -0.0162 -0.0066 -0.0002
                                            0.7987 -0.0161 -0.0094  0.0013 -0.0228
                                            0.0403 -0.0042 -0.0008  0.0000  0.0000
                                           -0.0000 -0.0000  0.0041  0.0000  0.0000
                                            0.0168 -0.0123
     6. (1.66502) BD ( 2) C   2 - C   3  
                ( 49.54%)   0.7039* C   2 s(  0.00%)p 1.00( 99.95%)d 0.00(  0.05%)
                                            0.0000  0.0000  0.0000  0.0000  0.0000
                                           -0.0000 -0.0000 -0.0000  0.0000 -0.0000
                                           -0.0000 -0.0000 -0.0000  0.9995  0.0180
                                            0.0174 -0.0014  0.0000 -0.0182  0.0111
                                            0.0000 -0.0000
                ( 50.46%)   0.7103* C   3 s(  0.00%)p 1.00( 99.95%)d 0.00(  0.05%)
                                            0.0000  0.0000  0.0000  0.0000  0.0000
                                           -0.0000 -0.0000 -0.0000 -0.0000 -0.0000
                                           -0.0000 -0.0000 -0.0000  0.9995  0.0167
                                            0.0159 -0.0016 -0.0000  0.0173  0.0128
                                           -0.0000  0.0000
     7. (1.97957) BD ( 1) C   2 - H   9  
                ( 60.51%)   0.7779* C   2 s( 28.47%)p 2.51( 71.49%)d 0.00(  0.04%)
                                            0.0004 -0.5330 -0.0233 -0.0013 -0.0001
                                           -0.4199 -0.0079 -0.0005 -0.0010  0.7337
                                            0.0164  0.0014  0.0015  0.0000  0.0000
                                            0.0000  0.0000  0.0163  0.0000 -0.0000
                                            0.0098  0.0087
                ( 39.49%)   0.6284* H   9 s( 99.95%)p 0.00(  0.05%)
                                           -0.9998 -0.0014 -0.0010 -0.0000  0.0107
                                           -0.0193 -0.0000
     8. (1.97991) BD ( 1) C   3 - C   4  
                ( 49.42%)   0.7030* C   3 s( 35.06%)p 1.85( 64.89%)d 0.00(  0.05%)
                                            0.0000  0.5919 -0.0148  0.0056  0.0007
                                           -0.4238  0.0403  0.0013 -0.0003  0.6838
                                            0.0012 -0.0108 -0.0005  0.0000  0.0000
                                           -0.0000 -0.0000 -0.0145  0.0000  0.0000
                                           -0.0108 -0.0115
                ( 50.58%)   0.7112* C   4 s( 38.80%)p 1.58( 61.16%)d 0.00(  0.04%)
                                            0.0000  0.6228 -0.0050  0.0038 -0.0001
                                            0.3338  0.0170 -0.0073  0.0061 -0.7067
                                            0.0186  0.0048 -0.0068  0.0000  0.0000
                                            0.0000 -0.0000 -0.0146  0.0000 -0.0000
                                           -0.0076 -0.0114
     9. (1.97835) BD ( 1) C   3 - H  10  
                ( 61.13%)   0.7818* C   3 s( 29.05%)p 2.44( 70.90%)d 0.00(  0.04%)
                                            0.0004 -0.5385 -0.0238 -0.0019  0.0004
                                            0.4238  0.0139 -0.0002  0.0001  0.7274
                                            0.0115 -0.0008  0.0016  0.0000  0.0000
                                            0.0000  0.0000 -0.0162 -0.0000 -0.0000
                                            0.0083  0.0091
                ( 38.87%)   0.6235* H  10 s( 99.95%)p 0.00(  0.05%)
                                           -0.9998 -0.0014 -0.0005  0.0011 -0.0117
                                           -0.0182 -0.0000
    10. (1.97991) BD ( 1) C   4 - C   5  
                ( 50.58%)   0.7112* C   4 s( 38.80%)p 1.58( 61.16%)d 0.00(  0.04%)
                                            0.0000  0.6228 -0.0050  0.0038 -0.0001
                                            0.3338  0.0170 -0.0073  0.0061  0.7067
                                           -0.0186 -0.0048  0.0068  0.0000 -0.0000
                                            0.0000 -0.0000  0.0146  0.0000  0.0000
                                           -0.0076 -0.0114
                ( 49.42%)   0.7030* C   5 s( 35.06%)p 1.85( 64.89%)d 0.00(  0.05%)
                                            0.0000  0.5919 -0.0148  0.0056  0.0007
                                           -0.4238  0.0403  0.0013 -0.0003 -0.6838
                                           -0.0012  0.0108  0.0005  0.0000  0.0000
                                           -0.0000 -0.0000  0.0145  0.0000 -0.0000
                                           -0.0108 -0.0115
    11. (1.67912) BD ( 2) C   4 - C   5  
                ( 52.48%)   0.7244* C   4 s(  0.00%)p 1.00( 99.98%)d 0.00(  0.02%)
                                            0.0000 -0.0000  0.0000  0.0000  0.0000
                                           -0.0000  0.0000  0.0000  0.0000  0.0000
                                            0.0000  0.0000 -0.0000  0.9997  0.0066
                                            0.0179  0.0010 -0.0000  0.0100  0.0102
                                           -0.0000  0.0000
                ( 47.52%)   0.6893* C   5 s(  0.00%)p 1.00( 99.95%)d 0.00(  0.05%)
                                            0.0000  0.0000  0.0000  0.0000 -0.0000
                                           -0.0000 -0.0000 -0.0000 -0.0000  0.0000
                                            0.0000  0.0000  0.0000  0.9995  0.0091
                                            0.0187 -0.0016  0.0000  0.0005 -0.0222
                                            0.0000  0.0000
    12. (1.98871) BD ( 1) C   4 -Cl   7  
                ( 45.43%)   0.6740* C   4 s( 22.30%)p 3.48( 77.50%)d 0.01(  0.20%)
                                           -0.0001  0.4720  0.0118 -0.0099  0.0000
                                           -0.8801 -0.0024  0.0097  0.0164  0.0000
                                            0.0000 -0.0000 -0.0000  0.0000 -0.0000
                                           -0.0000 -0.0000 -0.0000 -0.0000 -0.0000
                                            0.0382 -0.0233
                ( 54.57%)   0.7387*Cl   7 s( 17.49%)p 4.69( 82.02%)d 0.03(  0.48%)
                                            0.0000  0.0001  0.4161  0.0425  0.0006
                                           -0.0001 -0.0000  0.0001  0.9041 -0.0528
                                            0.0091 -0.0008  0.0001 -0.0000  0.0000
                                           -0.0000  0.0000 -0.0000  0.0000 -0.0000
                                           -0.0000  0.0000 -0.0000  0.0000  0.0000
                                            0.0000 -0.0000  0.0000  0.0605 -0.0343
    13. (1.97151) BD ( 1) C   5 - C   6  
                ( 50.55%)   0.7110* C   5 s( 35.90%)p 1.78( 64.05%)d 0.00(  0.05%)
                                           -0.0003  0.5990 -0.0162 -0.0066 -0.0002
                                            0.7987 -0.0161 -0.0094  0.0013  0.0228
                                           -0.0403  0.0042  0.0008  0.0000  0.0000
                                           -0.0000 -0.0000 -0.0041  0.0000 -0.0000
                                            0.0168 -0.0123
                ( 49.45%)   0.7032* C   6 s( 35.48%)p 1.82( 64.47%)d 0.00(  0.04%)
                                            0.0001  0.5955 -0.0127 -0.0017 -0.0000
                                           -0.8012  0.0195  0.0125 -0.0011  0.0269
                                           -0.0402  0.0040  0.0000 -0.0000 -0.0000
                                           -0.0000 -0.0000  0.0024  0.0000 -0.0000
                                            0.0166 -0.0122
    14. (1.97835) BD ( 1) C   5 - H  11  
                ( 61.13%)   0.7818* C   5 s( 29.05%)p 2.44( 70.90%)d 0.00(  0.04%)
                                           -0.0004  0.5385  0.0238  0.0019 -0.0004
                                           -0.4238 -0.0139  0.0002 -0.0001  0.7274
                                            0.0115 -0.0008  0.0016 -0.0000 -0.0000
                                            0.0000 -0.0000 -0.0162  0.0000 -0.0000
                                           -0.0083 -0.0091
                ( 38.87%)   0.6235* H  11 s( 99.95%)p 0.00(  0.05%)
                                            0.9998  0.0014  0.0005 -0.0011  0.0117
                                           -0.0182  0.0000
    15. (1.97957) BD ( 1) C   6 - H  12  
                ( 60.51%)   0.7779* C   6 s( 28.47%)p 2.51( 71.49%)d 0.00(  0.04%)
                                           -0.0004  0.5330  0.0233  0.0013  0.0001
                                            0.4199  0.0079  0.0005  0.0010  0.7337
                                            0.0164  0.0014  0.0015 -0.0000  0.0000
                                            0.0000 -0.0000  0.0163 -0.0000 -0.0000
                                           -0.0098 -0.0087
                ( 39.49%)   0.6284* H  12 s( 99.95%)p 0.00(  0.05%)
                                            0.9998  0.0014  0.0010  0.0000 -0.0107
                                           -0.0193  0.0000
    16. (1.99915) CR ( 1) C   1           s(100.00%)p 0.00(  0.00%)
                                            1.0000  0.0002  0.0000  0.0000  0.0000
                                            0.0004  0.0000 -0.0000  0.0000 -0.0000
                                            0.0000  0.0000  0.0000  0.0000  0.0000
                                            0.0000 -0.0000  0.0000  0.0000  0.0000
                                            0.0000 -0.0000
    17. (1.99916) CR ( 1) C   2           s(100.00%)p 0.00(  0.00%)
                                            1.0000  0.0001  0.0000  0.0000  0.0000
                                            0.0002  0.0000 -0.0000  0.0000 -0.0003
                                           -0.0000  0.0000 -0.0000 -0.0000 -0.0000
                                           -0.0000  0.0000 -0.0000  0.0000 -0.0000
                                           -0.0000 -0.0000
    18. (1.99896) CR ( 1) C   3           s(100.00%)p 0.00(  0.00%)
                                            1.0000  0.0003  0.0000 -0.0000 -0.0000
                                            0.0000 -0.0000 -0.0000  0.0000 -0.0003
                                            0.0000 -0.0000 -0.0000 -0.0000 -0.0000
                                           -0.0000  0.0000  0.0000 -0.0000 -0.0000
                                            0.0000 -0.0000
    19. (1.99858) CR ( 1) C   4           s(100.00%)p 0.00(  0.00%)
                                            1.0000  0.0000  0.0000 -0.0000  0.0000
                                           -0.0001 -0.0000  0.0000  0.0000  0.0000
                                            0.0000 -0.0000 -0.0000 -0.0000 -0.0000
                                           -0.0000 -0.0000 -0.0000 -0.0000 -0.0000
                                            0.0000 -0.0000
    20. (1.99896) CR ( 1) C   5           s(100.00%)p 0.00(  0.00%)
                                            1.0000  0.0003  0.0000 -0.0000 -0.0000
                                            0.0000 -0.0000 -0.0000  0.0000  0.0003
                                           -0.0000  0.0000  0.0000 -0.0000 -0.0000
                                           -0.0000  0.0000 -0.0000  0.0000  0.0000
                                            0.0000 -0.0000
    21. (1.99916) CR ( 1) C   6           s(100.00%)p 0.00(  0.00%)
                                            1.0000  0.0001  0.0000  0.0000  0.0000
                                            0.0002  0.0000 -0.0000  0.0000  0.0003
                                            0.0000 -0.0000  0.0000 -0.0000 -0.0000
                                           -0.0000  0.0000  0.0000 -0.0000  0.0000
                                           -0.0000 -0.0000
    22. (2.00000) CR ( 1)Cl   7           s(100.00%)
                                            1.0000 -0.0000  0.0000 -0.0000 -0.0000
                                            0.0000  0.0000 -0.0000 -0.0000  0.0000
                                           -0.0000 -0.0000 -0.0000  0.0000 -0.0000
                                            0.0000 -0.0000  0.0000 -0.0000  0.0000
                                            0.0000 -0.0000  0.0000 -0.0000 -0.0000
                                           -0.0000  0.0000 -0.0000 -0.0000  0.0000
    23. (1.99972) CR ( 2)Cl   7           s(100.00%)p 0.00(  0.00%)
                                           -0.0000  1.0000  0.0002 -0.0000 -0.0000
                                            0.0000  0.0000 -0.0000 -0.0002  0.0000
                                           -0.0000 -0.0000 -0.0000  0.0000 -0.0000
                                            0.0000  0.0000  0.0000 -0.0000  0.0000
                                            0.0000 -0.0000  0.0000 -0.0000 -0.0000
                                           -0.0000  0.0000 -0.0000 -0.0000  0.0000
    24. (1.99991) CR ( 3)Cl   7           s(  0.00%)p 1.00(100.00%)
                                           -0.0000 -0.0000  0.0001 -0.0000 -0.0000
                                            0.0000  0.0000  1.0000 -0.0002  0.0000
                                           -0.0000 -0.0000 -0.0000  0.0000 -0.0000
                                            0.0000 -0.0000  0.0000 -0.0000  0.0000
                                            0.0000 -0.0000  0.0000 -0.0000 -0.0000
                                           -0.0000  0.0000 -0.0000 -0.0000  0.0000
    25. (1.99999) CR ( 4)Cl   7           s(  0.00%)p 1.00(100.00%)
                                            0.0000  0.0000 -0.0000  0.0000  0.0000
                                            0.0000 -0.0000  0.0000  0.0000 -0.0000
                                            0.0000 -0.0000  0.0000  1.0000  0.0001
                                            0.0000 -0.0000 -0.0000  0.0000  0.0000
                                            0.0000  0.0000  0.0000  0.0000 -0.0000
                                            0.0000  0.0000 -0.0000  0.0000 -0.0000
    26. (1.99999) CR ( 5)Cl   7           s(  0.00%)p 1.00(100.00%)
                                            0.0000  0.0000 -0.0000  0.0000  0.0000
                                           -0.0000  0.0000  0.0000  0.0000 -0.0000
                                            0.0000  0.0000  0.0000  0.0000  0.0000
                                            0.0000 -0.0000  0.0000  0.0000  1.0000
                                           -0.0000 -0.0000  0.0000 -0.0000  0.0000
                                            0.0000 -0.0000  0.0000  0.0000 -0.0000
    27. (1.99202) LP ( 1)Cl   7           s( 82.64%)p 0.21( 17.35%)d 0.00(  0.01%)
                                           -0.0000 -0.0003  0.9090 -0.0109 -0.0000
                                            0.0000  0.0000 -0.0002 -0.4162  0.0146
                                            0.0028 -0.0011 -0.0006  0.0000  0.0000
                                            0.0000 -0.0000  0.0000  0.0000  0.0000
                                            0.0000 -0.0000  0.0000 -0.0000  0.0000
                                            0.0000  0.0000 -0.0000 -0.0094  0.0046
    28. (1.97216) LP ( 2)Cl   7           s(  0.00%)p 1.00( 99.98%)d 0.00(  0.02%)
                                            0.0000  0.0000 -0.0000 -0.0000  0.0000
                                            0.0000 -0.0000  0.0000  0.0000 -0.0000
                                            0.0000  0.0000 -0.0000 -0.0001  0.9998
                                            0.0147 -0.0036 -0.0002  0.0001 -0.0000
                                            0.0000  0.0000  0.0000  0.0000 -0.0000
                                            0.0132  0.0000 -0.0000  0.0000 -0.0000
    29. (1.93049) LP ( 3)Cl   7           s(  0.00%)p 1.00( 99.97%)d 0.00(  0.03%)
                                           -0.0000 -0.0000  0.0000 -0.0000 -0.0000
                                            0.0000 -0.0000 -0.0000  0.0000  0.0000
                                           -0.0000 -0.0000 -0.0000 -0.0000 -0.0000
                                           -0.0000  0.0000 -0.0000 -0.0000  0.0000
                                            0.9997  0.0176 -0.0000  0.0001 -0.0004
                                           -0.0000  0.0166 -0.0000  0.0000 -0.0000
    30. (0.00584) RY*( 1) C   1           s(  0.91%)p99.99( 93.60%)d 6.00(  5.49%)
                                           -0.0000 -0.0166  0.0928 -0.0126  0.0100
                                            0.0345 -0.9646  0.0276 -0.0589 -0.0000
                                            0.0000 -0.0000 -0.0000 -0.0000  0.0000
                                            0.0000 -0.0000  0.0000 -0.0000 -0.0000
                                           -0.2329  0.0252
    31. (0.00220) RY*( 2) C   1           s(  0.00%)p 1.00( 99.13%)d 0.01(  0.87%)
                                           -0.0000 -0.0000 -0.0000  0.0000  0.0000
                                            0.0000  0.0000 -0.0000 -0.0000  0.0462
                                            0.9403 -0.2588 -0.1952 -0.0000 -0.0000
                                           -0.0000 -0.0000 -0.0933 -0.0000  0.0000
                                            0.0000 -0.0000
    32. (0.00084) RY*( 3) C   1           s(  0.00%)p 1.00( 87.43%)d 0.14( 12.57%)
                                            0.0000  0.0000 -0.0000 -0.0000 -0.0000
                                            0.0000 -0.0000 -0.0000 -0.0000 -0.0000
                                            0.0000 -0.0000  0.0000 -0.0106  0.9131
                                            0.1530  0.1305 -0.0000  0.3279 -0.1347
                                            0.0000  0.0000
    33. (0.00055) RY*( 4) C   1           s(  0.00%)p 1.00(  1.62%)d60.64( 98.38%)
                                            0.0000  0.0000 -0.0000 -0.0000 -0.0000
                                            0.0000 -0.0000 -0.0000 -0.0000  0.0000
                                           -0.0000  0.0000 -0.0000 -0.0106  0.1240
                                            0.0208  0.0177  0.0000  0.0447  0.9908
                                            0.0000  0.0000
    34. (0.00038) RY*( 5) C   1           s(  0.00%)p 1.00( 84.30%)d 0.19( 15.70%)
                                           -0.0000  0.0000  0.0000 -0.0000 -0.0000
                                           -0.0000  0.0000  0.0000  0.0000  0.0282
                                            0.2071  0.8418 -0.3012  0.0000  0.0000
                                            0.0000  0.0000  0.3963  0.0000 -0.0000
                                            0.0000  0.0000
    35. (0.00027) RY*( 6) C   1           s( 92.72%)p 0.06(  5.78%)d 0.02(  1.50%)
                                           -0.0000  0.0032  0.9403 -0.1890 -0.0851
                                           -0.0292  0.1031  0.0917  0.1946 -0.0000
                                            0.0000 -0.0000  0.0000 -0.0000  0.0000
                                            0.0000  0.0000 -0.0000  0.0000  0.0000
                                           -0.0968 -0.0753
    36. (0.00011) RY*( 7) C   1           s( 37.64%)p 0.30( 11.22%)d 1.36( 51.14%)
                                           -0.0000 -0.0108 -0.0535  0.6056 -0.0814
                                            0.0086  0.0485  0.0856  0.3201  0.0000
                                           -0.0000  0.0000 -0.0000 -0.0000  0.0000
                                           -0.0000 -0.0000  0.0000 -0.0000  0.0000
                                           -0.3917 -0.5983
    37. (0.00007) RY*( 8) C   1           s(  0.00%)p 1.00( 35.08%)d 1.85( 64.92%)
    38. (0.00004) RY*( 9) C   1           s(  8.37%)p 3.87( 32.38%)d 7.08( 59.25%)
    39. (0.00002) RY*(10) C   1           s( 32.56%)p 1.70( 55.38%)d 0.37( 12.06%)
    40. (0.00000) RY*(11) C   1           s(  0.00%)p 1.00(100.00%)d 0.00(  0.00%)
    41. (0.00000) RY*(12) C   1           s(  0.00%)p 1.00( 99.81%)d 0.00(  0.19%)
    42. (0.00000) RY*(13) C   1           s( 10.42%)p 7.99( 83.21%)d 0.61(  6.37%)
    43. (0.00000) RY*(14) C   1           s(  0.00%)p 1.00( 11.18%)d 7.94( 88.82%)
    44. (0.00000) RY*(15) C   1           s(  0.00%)p 1.00( 81.55%)d 0.23( 18.45%)
    45. (0.00000) RY*(16) C   1           s( 98.09%)p 0.01(  0.96%)d 0.01(  0.95%)
    46. (0.00000) RY*(17) C   1           s( 19.28%)p 0.91( 17.56%)d 3.28( 63.16%)
    47. (0.00607) RY*( 1) C   2           s(  0.86%)p99.99( 94.22%)d 5.74(  4.92%)
                                           -0.0000  0.0187 -0.0487  0.0764  0.0024
                                           -0.0200  0.4646 -0.0475  0.0424  0.0308
                                           -0.8464  0.0422 -0.0520 -0.0000  0.0000
                                            0.0000 -0.0000 -0.1879 -0.0000 -0.0000
                                           -0.1140 -0.0303
    48. (0.00222) RY*( 2) C   2           s(  0.35%)p99.99( 98.85%)d 2.27(  0.80%)
                                           -0.0000 -0.0006  0.0447  0.0383  0.0062
                                           -0.0408 -0.8332  0.1298  0.1911 -0.0215
                                           -0.4604  0.1177  0.1142 -0.0000 -0.0000
                                            0.0000  0.0000 -0.0269 -0.0000  0.0000
                                            0.0849 -0.0051
    49. (0.00069) RY*( 3) C   2           s(  0.00%)p 1.00( 42.58%)d 1.35( 57.42%)
                                            0.0000 -0.0000  0.0000  0.0000  0.0000
                                           -0.0000 -0.0000 -0.0000  0.0000 -0.0000
                                           -0.0000 -0.0000  0.0000 -0.0180  0.6129
                                            0.2039  0.0908  0.0000 -0.5258 -0.5457
                                           -0.0000 -0.0000
    50. (0.00057) RY*( 4) C   2           s(  0.00%)p 1.00( 43.12%)d 1.32( 56.88%)
                                           -0.0000 -0.0000 -0.0000 -0.0000 -0.0000
                                           -0.0000 -0.0000 -0.0000  0.0000 -0.0000
                                           -0.0000 -0.0000  0.0000  0.0002  0.6473
                                            0.0848  0.0703 -0.0000  0.7529  0.0450
                                           -0.0000  0.0000
    51. (0.00039) RY*( 5) C   2           s( 92.92%)p 0.04(  4.16%)d 0.03(  2.91%)
                                           -0.0000  0.0057  0.9626 -0.0490 -0.0096
                                           -0.0106  0.0726 -0.1176  0.0763  0.0273
                                           -0.0338  0.0672 -0.1009  0.0000  0.0000
                                            0.0000  0.0000  0.0950  0.0000  0.0000
                                            0.1231 -0.0704
    52. (0.00026) RY*( 6) C   2           s(  1.59%)p48.93( 77.64%)d13.09( 20.77%)
                                            0.0000 -0.0003  0.0455  0.1152  0.0230
                                            0.0226  0.1290  0.7338 -0.2300  0.0146
                                            0.0550  0.3969 -0.0843  0.0000  0.0000
                                            0.0000  0.0000 -0.2499  0.0000 -0.0000
                                            0.3811  0.0018
    53. (0.00011) RY*( 7) C   2           s( 30.37%)p 0.28(  8.64%)d 2.01( 60.99%)
                                            0.0000 -0.0087 -0.1500  0.5204 -0.1014
                                            0.0074  0.0323 -0.0886  0.1292 -0.0117
                                           -0.0186  0.0189 -0.2448  0.0000 -0.0000
                                           -0.0000  0.0000  0.4310  0.0000  0.0000
                                            0.3185 -0.5681
    54. (0.00008) RY*( 8) C   2           s(  3.69%)p13.81( 50.95%)d12.30( 45.36%)
    55. (0.00005) RY*( 9) C   2           s( 10.13%)p 6.89( 69.73%)d 1.99( 20.14%)
    56. (0.00002) RY*(10) C   2           s( 32.00%)p 0.27(  8.55%)d 1.86( 59.45%)
    57. (0.00000) RY*(11) C   2           s(  0.00%)p 1.00( 98.46%)d 0.02(  1.54%)
    58. (0.00001) RY*(12) C   2           s(  2.14%)p34.78( 74.53%)d10.89( 23.33%)
    59. (0.00000) RY*(13) C   2           s( 88.83%)p 0.12( 10.80%)d 0.00(  0.38%)
    60. (0.00000) RY*(14) C   2           s(  5.65%)p13.10( 74.05%)d 3.59( 20.30%)
    61. (0.00000) RY*(15) C   2           s(  0.00%)p 1.00( 16.15%)d 5.19( 83.85%)
    62. (0.00000) RY*(16) C   2           s( 31.48%)p 0.89( 28.00%)d 1.29( 40.52%)
    63. (0.00000) RY*(17) C   2           s(  0.00%)p 1.00( 99.75%)d 0.00(  0.25%)
    64. (0.00579) RY*( 1) C   3           s(  0.63%)p99.99( 95.46%)d 6.22(  3.91%)
                                            0.0000  0.0163  0.0630  0.0452  0.0020
                                            0.0080 -0.7380 -0.0308  0.0008  0.0391
                                           -0.6348  0.0498 -0.0446  0.0000 -0.0000
                                            0.0000 -0.0000  0.1749 -0.0000  0.0000
                                           -0.0883 -0.0273
    65. (0.00276) RY*( 2) C   3           s(  0.89%)p99.99( 97.25%)d 2.08(  1.86%)
                                           -0.0000 -0.0077  0.0845  0.0374  0.0183
                                           -0.0375 -0.6427  0.1413  0.1072  0.0173
                                            0.7198 -0.0901 -0.0089 -0.0000  0.0000
                                           -0.0000  0.0000 -0.1152 -0.0000 -0.0000
                                           -0.0566  0.0458
    66. (0.00092) RY*( 3) C   3           s(  0.00%)p 1.00( 84.38%)d 0.19( 15.62%)
                                            0.0000  0.0000  0.0000 -0.0000  0.0000
                                            0.0000  0.0000  0.0000 -0.0000  0.0000
                                           -0.0000  0.0000  0.0000 -0.0141  0.9130
                                            0.0395  0.0921 -0.0000  0.1695 -0.3570
                                           -0.0000  0.0000
    67. (0.00089) RY*( 4) C   3           s( 86.37%)p 0.10(  8.90%)d 0.05(  4.73%)
                                            0.0000  0.0075  0.9132 -0.1714  0.0170
                                            0.0239  0.1066  0.1945 -0.1550  0.0207
                                           -0.0289  0.1182 -0.0034  0.0000 -0.0000
                                           -0.0000 -0.0000 -0.0485 -0.0000  0.0000
                                           -0.2107  0.0230
    68. (0.00055) RY*( 5) C   3           s(  0.00%)p 1.00( 11.98%)d 7.34( 88.02%)
                                            0.0000 -0.0000 -0.0000  0.0000  0.0000
                                           -0.0000 -0.0000 -0.0000  0.0000  0.0000
                                            0.0000  0.0000  0.0000 -0.0042 -0.2604
                                           -0.2157 -0.0742  0.0000  0.8941 -0.2843
                                            0.0000  0.0000
    69. (0.00022) RY*( 6) C   3           s(  0.00%)p 1.00( 80.53%)d 0.24( 19.47%)
                                            0.0000 -0.0000 -0.0000  0.0000 -0.0000
                                            0.0000  0.0000  0.0000 -0.0000 -0.0000
                                           -0.0000 -0.0000 -0.0000 -0.0050 -0.2022
                                            0.8701 -0.0862 -0.0000  0.0036 -0.4412
                                           -0.0000 -0.0000
    70. (0.00022) RY*( 7) C   3           s( 33.04%)p 1.36( 44.92%)d 0.67( 22.04%)
                                           -0.0000 -0.0006  0.2859  0.4987  0.0019
                                           -0.0086 -0.0614 -0.6016 -0.2388  0.0069
                                            0.0570  0.0162  0.1510 -0.0000 -0.0000
                                            0.0000 -0.0000 -0.1258 -0.0000  0.0000
                                            0.4520  0.0154
    71. (0.00019) RY*( 8) C   3           s( 24.31%)p 1.05( 25.60%)d 2.06( 50.08%)
                                            0.0000 -0.0043 -0.0577  0.4854 -0.0649
                                            0.0173  0.0292  0.3429 -0.1831 -0.0177
                                           -0.1393 -0.2040 -0.2060  0.0000  0.0000
                                           -0.0000  0.0000 -0.5690 -0.0000  0.0000
                                           -0.1863 -0.3772
    72. (0.00011) RY*( 9) C   3           s(  3.25%)p28.93( 93.96%)d 0.86(  2.80%)
                                           -0.0000 -0.0062  0.1589  0.0714 -0.0459
                                            0.0015  0.0729 -0.3205  0.5471  0.0031
                                            0.0321  0.0135 -0.7287  0.0000  0.0000
                                           -0.0000  0.0000  0.0519 -0.0000 -0.0000
                                           -0.0481 -0.1515
    73. (0.00006) RY*(10) C   3           s(  1.86%)p30.90( 57.53%)d21.81( 40.61%)
    74. (0.00005) RY*(11) C   3           s(  8.85%)p 2.10( 18.55%)d 8.20( 72.59%)
    75. (0.00000) RY*(12) C   3           s(  0.00%)p 1.00( 99.66%)d 0.00(  0.34%)
    76. (0.00001) RY*(13) C   3           s( 38.83%)p 0.78( 30.25%)d 0.80( 30.92%)
    77. (0.00000) RY*(14) C   3           s(  6.67%)p13.03( 86.94%)d 0.96(  6.39%)
    78. (0.00000) RY*(15) C   3           s(  0.00%)p 1.00( 23.48%)d 3.26( 76.52%)
    79. (0.00000) RY*(16) C   3           s( 94.79%)p 0.03(  2.44%)d 0.03(  2.77%)
    80. (0.00001) RY*(17) C   3           s(  0.48%)p80.51( 38.36%)d99.99( 61.17%)
    81. (0.00748) RY*( 1) C   4           s(  1.21%)p75.98( 92.21%)d 5.42(  6.58%)
                                            0.0000 -0.0159  0.1035  0.0303  0.0163
                                           -0.0218  0.9584  0.0020  0.0548  0.0000
                                            0.0000  0.0000 -0.0000 -0.0000  0.0000
                                            0.0000  0.0000 -0.0000 -0.0000 -0.0000
                                           -0.2437  0.0800
    82. (0.00669) RY*( 2) C   4           s(  0.00%)p 1.00( 95.50%)d 0.05(  4.50%)
                                           -0.0000  0.0000  0.0000 -0.0000 -0.0000
                                            0.0000 -0.0000 -0.0000 -0.0000  0.0305
                                            0.9734 -0.0241 -0.0776 -0.0000 -0.0000
                                           -0.0000  0.0000 -0.2121  0.0000  0.0000
                                            0.0000 -0.0000
    83. (0.00236) RY*( 3) C   4           s(  0.00%)p 1.00( 38.69%)d 1.58( 61.31%)
                                            0.0000 -0.0000 -0.0000 -0.0000 -0.0000
                                           -0.0000  0.0000 -0.0000 -0.0000 -0.0000
                                           -0.0000  0.0000  0.0000 -0.0049 -0.6200
                                            0.0329  0.0382  0.0000  0.7811  0.0547
                                           -0.0000 -0.0000
    84. (0.00077) RY*( 4) C   4           s( 71.58%)p 0.08(  5.39%)d 0.32( 23.04%)
                                           -0.0000  0.0130  0.8093  0.2448 -0.0259
                                           -0.0072 -0.2242  0.0571  0.0180 -0.0000
                                            0.0000 -0.0000  0.0000 -0.0000  0.0000
                                            0.0000  0.0000  0.0000  0.0000  0.0000
                                           -0.4523  0.1605
    85. (0.00074) RY*( 5) C   4           s(  0.00%)p 1.00(  0.09%)d99.99( 99.91%)
                                            0.0000 -0.0000 -0.0000 -0.0000  0.0000
                                            0.0000  0.0000 -0.0000 -0.0000 -0.0000
                                           -0.0000  0.0000 -0.0000 -0.0097  0.0266
                                           -0.0081 -0.0057 -0.0000 -0.0483  0.9984
                                            0.0000 -0.0000
    86. (0.00057) RY*( 6) C   4           s(  0.00%)p 1.00( 13.59%)d 6.36( 86.41%)
                                            0.0000 -0.0000 -0.0000 -0.0000  0.0000
                                            0.0000  0.0000  0.0000  0.0000 -0.0167
                                            0.2030 -0.2940  0.0893 -0.0000  0.0000
                                           -0.0000 -0.0000  0.9296 -0.0000  0.0000
                                            0.0000 -0.0000
    87. (0.00024) RY*( 7) C   4           s( 35.45%)p 0.29( 10.34%)d 1.53( 54.21%)
                                           -0.0000 -0.0124  0.5368 -0.2556  0.0290
                                            0.0419  0.1483  0.2809 -0.0262  0.0000
                                           -0.0000 -0.0000 -0.0000  0.0000 -0.0000
                                           -0.0000 -0.0000 -0.0000 -0.0000 -0.0000
                                            0.7048 -0.2130
    88. (0.00013) RY*( 8) C   4           s(  0.00%)p 1.00( 91.58%)d 0.09(  8.42%)
                                           -0.0000  0.0000 -0.0000 -0.0000 -0.0000
                                            0.0000  0.0000  0.0000 -0.0000  0.0057
                                            0.0370  0.7706 -0.5662 -0.0000  0.0000
                                            0.0000  0.0000  0.2901  0.0000  0.0000
                                            0.0000  0.0000
    89. (0.00014) RY*( 9) C   4           s( 15.68%)p 2.13( 33.47%)d 3.24( 50.84%)
                                           -0.0000  0.0061 -0.0810  0.3562  0.1527
                                            0.0074 -0.0087  0.2051  0.5409 -0.0000
                                            0.0000  0.0000  0.0000  0.0000 -0.0000
                                           -0.0000 -0.0000 -0.0000 -0.0000 -0.0000
                                            0.3174  0.6385
    90. (0.00010) RY*(10) C   4           s(  0.00%)p 1.00( 77.61%)d 0.29( 22.39%)
                                            0.0000  0.0000 -0.0000  0.0000  0.0000
                                            0.0000  0.0000  0.0000  0.0000 -0.0000
                                           -0.0000 -0.0000  0.0000 -0.0186  0.6436
                                            0.5141  0.3118 -0.0000  0.4731  0.0115
                                            0.0000  0.0000
    91. (0.00004) RY*(11) C   4           s( 13.77%)p 5.19( 71.51%)d 1.07( 14.72%)
    92. (0.00002) RY*(12) C   4           s( 15.65%)p 2.79( 43.60%)d 2.60( 40.74%)
    93. (0.00001) RY*(13) C   4           s(  0.00%)p 1.00( 99.37%)d 0.01(  0.63%)
    94. (0.00000) RY*(14) C   4           s( 51.86%)p 0.81( 41.92%)d 0.12(  6.22%)
    95. (0.00000) RY*(15) C   4           s(  0.00%)p 1.00( 87.09%)d 0.15( 12.91%)
    96. (0.00000) RY*(16) C   4           s(  0.00%)p 1.00( 96.55%)d 0.04(  3.45%)
    97. (0.00000) RY*(17) C   4           s( 94.89%)p 0.02(  1.70%)d 0.04(  3.41%)
    98. (0.00579) RY*( 1) C   5           s(  0.63%)p99.99( 95.46%)d 6.22(  3.91%)
                                            0.0000  0.0163  0.0630  0.0452  0.0020
                                            0.0080 -0.7380 -0.0308  0.0008 -0.0391
                                            0.6348 -0.0498  0.0446 -0.0000 -0.0000
                                            0.0000 -0.0000 -0.1749 -0.0000 -0.0000
                                           -0.0883 -0.0273
    99. (0.00276) RY*( 2) C   5           s(  0.89%)p99.99( 97.25%)d 2.08(  1.86%)
                                           -0.0000 -0.0077  0.0845  0.0374  0.0183
                                           -0.0375 -0.6427  0.1413  0.1072 -0.0173
                                           -0.7198  0.0901  0.0089  0.0000  0.0000
                                           -0.0000  0.0000  0.1152  0.0000  0.0000
                                           -0.0566  0.0458
   100. (0.00106) RY*( 3) C   5           s(  0.00%)p 1.00( 77.75%)d 0.29( 22.25%)
                                           -0.0000  0.0000  0.0000  0.0000  0.0000
                                            0.0000  0.0000  0.0000 -0.0000  0.0000
                                            0.0000  0.0000 -0.0000  0.0005  0.8778
                                            0.0004  0.0837  0.0000  0.2768  0.3820
                                           -0.0000 -0.0000
   101. (0.00089) RY*( 4) C   5           s( 86.37%)p 0.10(  8.90%)d 0.05(  4.73%)
                                            0.0000  0.0075  0.9132 -0.1714  0.0170
                                            0.0239  0.1066  0.1945 -0.1550 -0.0207
                                            0.0289 -0.1182  0.0034  0.0000 -0.0000
                                           -0.0000 -0.0000  0.0485  0.0000 -0.0000
                                           -0.2107  0.0230
   102. (0.00051) RY*( 5) C   5           s(  0.00%)p 1.00( 20.35%)d 3.91( 79.65%)
                                           -0.0000 -0.0000 -0.0000  0.0000  0.0000
                                           -0.0000 -0.0000 -0.0000  0.0000 -0.0000
                                           -0.0000 -0.0000 -0.0000  0.0124 -0.3596
                                           -0.2599 -0.0807 -0.0000  0.8657  0.2170
                                            0.0000  0.0000
   103. (0.00022) RY*( 6) C   5           s(  0.00%)p 1.00( 78.80%)d 0.27( 21.20%)
                                            0.0000 -0.0000 -0.0000  0.0000 -0.0000
                                            0.0000  0.0000  0.0000 -0.0000  0.0000
                                            0.0000  0.0000  0.0000 -0.0042 -0.2066
                                            0.8587 -0.0889  0.0000  0.0491  0.4578
                                           -0.0000 -0.0000
   104. (0.00022) RY*( 7) C   5           s( 33.04%)p 1.36( 44.92%)d 0.67( 22.04%)
                                           -0.0000 -0.0006  0.2859  0.4987  0.0019
                                           -0.0086 -0.0614 -0.6016 -0.2388 -0.0069
                                           -0.0570 -0.0162 -0.1510 -0.0000 -0.0000
                                           -0.0000 -0.0000  0.1258 -0.0000 -0.0000
                                            0.4520  0.0154
   105. (0.00019) RY*( 8) C   5           s( 24.31%)p 1.05( 25.60%)d 2.06( 50.08%)
                                            0.0000 -0.0043 -0.0577  0.4854 -0.0649
                                            0.0173  0.0292  0.3429 -0.1831  0.0177
                                            0.1393  0.2040  0.2060  0.0000  0.0000
                                           -0.0000  0.0000  0.5690 -0.0000 -0.0000
                                           -0.1863 -0.3772
   106. (0.00011) RY*( 9) C   5           s(  3.25%)p28.93( 93.96%)d 0.86(  2.80%)
                                           -0.0000 -0.0062  0.1589  0.0714 -0.0459
                                            0.0015  0.0729 -0.3205  0.5471 -0.0031
                                           -0.0321 -0.0135  0.7287  0.0000  0.0000
                                           -0.0000  0.0000 -0.0519 -0.0000  0.0000
                                           -0.0481 -0.1515
   107. (0.00006) RY*(10) C   5           s(  1.88%)p30.65( 57.57%)d21.59( 40.55%)
   108. (0.00005) RY*(11) C   5           s(  8.84%)p 2.09( 18.51%)d 8.22( 72.65%)
   109. (0.00000) RY*(12) C   5           s(  0.00%)p 1.00( 99.66%)d 0.00(  0.34%)
   110. (0.00000) RY*(13) C   5           s(  7.12%)p12.36( 88.01%)d 0.68(  4.88%)
   111. (0.00000) RY*(14) C   5           s( 96.60%)p 0.02(  1.60%)d 0.02(  1.80%)
   112. (0.00000) RY*(15) C   5           s(  0.00%)p 1.00( 23.48%)d 3.26( 76.52%)
   113. (0.00001) RY*(16) C   5           s( 32.01%)p 1.28( 41.10%)d 0.84( 26.89%)
   114. (0.00000) RY*(17) C   5           s(  5.03%)p 5.42( 27.29%)d13.45( 67.68%)
   115. (0.00607) RY*( 1) C   6           s(  0.86%)p99.99( 94.22%)d 5.74(  4.92%)
                                           -0.0000  0.0187 -0.0487  0.0764  0.0024
                                           -0.0200  0.4646 -0.0475  0.0424 -0.0308
                                            0.8464 -0.0422  0.0520 -0.0000  0.0000
                                            0.0000 -0.0000  0.1879 -0.0000  0.0000
                                           -0.1140 -0.0303
   116. (0.00222) RY*( 2) C   6           s(  0.35%)p99.99( 98.85%)d 2.27(  0.80%)
                                            0.0000 -0.0006  0.0447  0.0383  0.0062
                                           -0.0408 -0.8332  0.1298  0.1911  0.0215
                                            0.4604 -0.1177 -0.1142 -0.0000 -0.0000
                                            0.0000  0.0000  0.0269 -0.0000  0.0000
                                            0.0849 -0.0051
   117. (0.00077) RY*( 3) C   6           s(  0.00%)p 1.00( 47.88%)d 1.09( 52.12%)
                                           -0.0000 -0.0000  0.0000  0.0000  0.0000
                                           -0.0000 -0.0000 -0.0000  0.0000  0.0000
                                            0.0000  0.0000 -0.0000 -0.0018  0.6527
                                            0.2090  0.0951 -0.0000 -0.4775  0.5415
                                           -0.0000 -0.0000
   118. (0.00051) RY*( 4) C   6           s(  0.00%)p 1.00( 37.78%)d 1.65( 62.22%)
                                           -0.0000 -0.0000 -0.0000 -0.0000 -0.0000
                                           -0.0000 -0.0000 -0.0000  0.0000  0.0000
                                            0.0000  0.0000 -0.0000 -0.0108  0.6069
                                            0.0724  0.0641  0.0000  0.7849 -0.0787
                                           -0.0000  0.0000
   119. (0.00039) RY*( 5) C   6           s( 92.92%)p 0.04(  4.16%)d 0.03(  2.91%)
                                           -0.0000  0.0057  0.9626 -0.0490 -0.0096
                                           -0.0106  0.0726 -0.1176  0.0763 -0.0273
                                            0.0338 -0.0672  0.1009 -0.0000  0.0000
                                            0.0000  0.0000 -0.0950  0.0000 -0.0000
                                            0.1231 -0.0704
   120. (0.00026) RY*( 6) C   6           s(  1.59%)p48.93( 77.64%)d13.09( 20.77%)
                                           -0.0000 -0.0003  0.0455  0.1152  0.0230
                                            0.0226  0.1290  0.7338 -0.2300 -0.0146
                                           -0.0550 -0.3969  0.0843  0.0000  0.0000
                                            0.0000  0.0000  0.2499  0.0000  0.0000
                                            0.3811  0.0018
   121. (0.00011) RY*( 7) C   6           s( 30.37%)p 0.28(  8.64%)d 2.01( 60.99%)
                                            0.0000 -0.0087 -0.1500  0.5204 -0.1014
                                            0.0074  0.0323 -0.0886  0.1292  0.0117
                                            0.0186 -0.0189  0.2448  0.0000 -0.0000
                                           -0.0000  0.0000 -0.4310  0.0000 -0.0000
                                            0.3185 -0.5681
   122. (0.00008) RY*( 8) C   6           s(  3.69%)p13.81( 50.95%)d12.30( 45.36%)
   123. (0.00005) RY*( 9) C   6           s( 10.13%)p 6.89( 69.73%)d 1.99( 20.14%)
   124. (0.00002) RY*(10) C   6           s( 32.13%)p 0.24(  7.72%)d 1.87( 60.15%)
   125. (0.00000) RY*(11) C   6           s(  0.00%)p 1.00( 99.23%)d 0.01(  0.77%)
   126. (0.00001) RY*(12) C   6           s(  2.02%)p37.37( 75.36%)d11.22( 22.62%)
   127. (0.00000) RY*(13) C   6           s( 93.45%)p 0.06(  5.36%)d 0.01(  1.19%)
   128. (0.00000) RY*(14) C   6           s(  1.87%)p46.49( 86.98%)d 5.96( 11.15%)
   129. (0.00000) RY*(15) C   6           s(  0.00%)p 1.00( 15.44%)d 5.48( 84.56%)
   130. (0.00000) RY*(16) C   6           s( 30.64%)p 0.67( 20.51%)d 1.59( 48.86%)
   131. (0.00000) RY*(17) C   6           s(  0.00%)p 1.00( 99.71%)d 0.00(  0.29%)
   132. (0.00330) RY*( 1)Cl   7           s(  0.00%)p 1.00( 44.51%)d 1.25( 55.49%)
                                           -0.0000 -0.0000 -0.0000 -0.0000  0.0000
                                            0.0000 -0.0000 -0.0000 -0.0000 -0.0000
                                            0.0000 -0.0000 -0.0000 -0.0000 -0.0000
                                            0.0000 -0.0000 -0.0000  0.0000  0.0000
                                           -0.0011 -0.6406 -0.1827 -0.0356 -0.0089
                                           -0.0000  0.7449  0.0000  0.0000 -0.0000
   133. (0.00235) RY*( 2)Cl   7           s(  0.00%)p 1.00( 67.40%)d 0.48( 32.60%)
                                           -0.0000 -0.0000 -0.0000 -0.0000  0.0000
                                            0.0000 -0.0000  0.0000 -0.0000 -0.0000
                                           -0.0000 -0.0000  0.0000 -0.0000 -0.0043
                                            0.8170  0.0603 -0.0510  0.0128  0.0000
                                            0.0000  0.0000  0.0000  0.0000  0.0000
                                           -0.5710 -0.0000  0.0000  0.0000 -0.0000
   134. (0.00085) RY*( 3)Cl   7           s(  5.56%)p12.36( 68.70%)d 4.63( 25.74%)
                                            0.0000 -0.0000 -0.0159 -0.0803  0.2209
                                            0.0091 -0.0002  0.0000 -0.0743 -0.8194
                                           -0.0980 -0.0109  0.0191  0.0000 -0.0000
                                           -0.0000 -0.0000  0.0000 -0.0000  0.0000
                                            0.0000  0.0000  0.0000 -0.0000 -0.0000
                                            0.0000 -0.0000 -0.0000  0.3880 -0.3268
   135. (0.00011) RY*( 4)Cl   7           s( 58.09%)p 0.20( 11.59%)d 0.52( 30.32%)
                                            0.0000 -0.0000 -0.0082  0.7316  0.2126
                                            0.0193  0.0024  0.0000 -0.0407 -0.0764
                                            0.2238  0.2376 -0.0439  0.0000  0.0000
                                           -0.0000  0.0000 -0.0000 -0.0000  0.0000
                                            0.0000  0.0000 -0.0000 -0.0000  0.0000
                                           -0.0000  0.0000 -0.0000  0.3095  0.4554
   136. (0.00007) RY*( 5)Cl   7           s(  0.00%)p 1.00( 81.37%)d 0.23( 18.63%)
   137. (0.00005) RY*( 6)Cl   7           s( 24.74%)p 1.98( 48.98%)d 1.06( 26.28%)
   138. (0.00004) RY*( 7)Cl   7           s(  0.00%)p 0.00(  0.00%)d 1.00(100.00%)
   139. (0.00001) RY*( 8)Cl   7           s(  0.00%)p 1.00( 58.21%)d 0.72( 41.79%)
   140. (0.00000) RY*( 9)Cl   7           s( 98.37%)p 0.02(  1.52%)d 0.00(  0.11%)
   141. (0.00000) RY*(10)Cl   7           s(100.00%)p 0.00(  0.00%)d 0.00(  0.00%)
   142. (0.00000) RY*(11)Cl   7           s(  0.00%)p 1.00( 99.97%)d 0.00(  0.03%)
   143. (0.00000) RY*(12)Cl   7           s(  0.00%)p 1.00(100.00%)d 0.00(  0.00%)
   144. (0.00000) RY*(13)Cl   7           s( 35.30%)p 0.90( 31.68%)d 0.94( 33.02%)
   145. (0.00000) RY*(14)Cl   7           s(  0.00%)p 1.00( 97.49%)d 0.03(  2.51%)
   146. (0.00000) RY*(15)Cl   7           s(  0.00%)p 1.00( 99.92%)d 0.00(  0.08%)
   147. (0.00000) RY*(16)Cl   7           s(  0.00%)p 1.00( 99.90%)d 0.00(  0.10%)
   148. (0.00000) RY*(17)Cl   7           s(  0.00%)p 1.00( 51.27%)d 0.95( 48.73%)
   149. (0.00000) RY*(18)Cl   7           s(  0.14%)p99.99( 99.80%)d 0.45(  0.06%)
   150. (0.00001) RY*(19)Cl   7           s( 63.06%)p 0.40( 25.09%)d 0.19( 11.85%)
   151. (0.00001) RY*(20)Cl   7           s(  7.35%)p 5.24( 38.49%)d 7.37( 54.16%)
   152. (0.00001) RY*(21)Cl   7           s(  7.26%)p10.30( 74.78%)d 2.48( 17.96%)
   153. (0.00078) RY*( 1) H   8           s( 98.60%)p 0.01(  1.40%)
                                           -0.0040  0.9930 -0.0078 -0.0001 -0.1182
                                            0.0000  0.0000
   154. (0.00020) RY*( 2) H   8           s( 91.07%)p 0.10(  8.93%)
                                            0.0055  0.0430  0.9533 -0.0006  0.2988
                                           -0.0000 -0.0000
   155. (0.00019) RY*( 3) H   8           s(  0.00%)p 1.00(100.00%)
                                            0.0000 -0.0000  0.0000 -0.0000 -0.0000
                                            0.0000  1.0000
   156. (0.00012) RY*( 4) H   8           s(  0.00%)p 1.00(100.00%)
                                            0.0000 -0.0000 -0.0000 -0.0000  0.0000
                                            1.0000 -0.0000
   157. (0.00002) RY*( 5) H   8           s(100.00%)p 0.00(  0.00%)
   158. (0.00003) RY*( 6) H   8           s( 10.37%)p 8.64( 89.63%)
   159. (0.00077) RY*( 1) H   9           s( 98.41%)p 0.02(  1.59%)
                                           -0.0041  0.9920 -0.0080 -0.0002 -0.0525
                                            0.1148 -0.0000
   160. (0.00020) RY*( 2) H   9           s( 90.33%)p 0.11(  9.67%)
                                            0.0050  0.0408  0.9495 -0.0084  0.2627
                                           -0.1663 -0.0000
   161. (0.00019) RY*( 3) H   9           s(  0.00%)p 1.00(100.00%)
                                            0.0000  0.0000  0.0000 -0.0000  0.0000
                                           -0.0000  1.0000
   162. (0.00011) RY*( 4) H   9           s(  3.48%)p27.72( 96.52%)
                                            0.0010  0.0173  0.1397  0.1225 -0.8330
                                           -0.5208 -0.0000
   163. (0.00003) RY*( 5) H   9           s(  9.45%)p 9.58( 90.55%)
   164. (0.00001) RY*( 6) H   9           s( 98.38%)p 0.02(  1.62%)
   165. (0.00088) RY*( 1) H  10           s( 98.49%)p 0.02(  1.51%)
                                           -0.0041  0.9924 -0.0053  0.0058  0.0730
                                            0.0987 -0.0000
   166. (0.00025) RY*( 2) H  10           s( 84.51%)p 0.18( 15.49%)
                                            0.0030  0.0219  0.9188  0.0228  0.2143
                                           -0.3301 -0.0000
   167. (0.00019) RY*( 3) H  10           s( 81.70%)p 0.22( 18.30%)
                                           -0.0049 -0.0426 -0.1001  0.8973  0.4242
                                            0.0558  0.0000
   168. (0.00018) RY*( 4) H  10           s(  0.00%)p 1.00(100.00%)
                                            0.0000  0.0000  0.0000 -0.0000 -0.0000
                                           -0.0000  1.0000
   169. (0.00011) RY*( 5) H  10           s( 23.23%)p 3.31( 76.77%)
                                           -0.0011 -0.0005  0.3435  0.3380 -0.7029
                                            0.5232  0.0000
   170. (0.00003) RY*( 6) H  10           s( 12.12%)p 7.25( 87.88%)
   171. (0.00088) RY*( 1) H  11           s( 98.49%)p 0.02(  1.51%)
                                           -0.0041  0.9924 -0.0053  0.0058  0.0730
                                           -0.0987 -0.0000
   172. (0.00025) RY*( 2) H  11           s( 84.51%)p 0.18( 15.49%)
                                            0.0030  0.0219  0.9188  0.0228  0.2143
                                            0.3301 -0.0000
   173. (0.00019) RY*( 3) H  11           s( 81.70%)p 0.22( 18.30%)
                                           -0.0049 -0.0426 -0.1001  0.8973  0.4242
                                           -0.0558  0.0000
   174. (0.00018) RY*( 4) H  11           s(  0.00%)p 1.00(100.00%)
                                            0.0000  0.0000  0.0000 -0.0000 -0.0000
                                            0.0000  1.0000
   175. (0.00011) RY*( 5) H  11           s( 23.23%)p 3.31( 76.77%)
                                           -0.0011 -0.0005  0.3435  0.3380 -0.7029
                                           -0.5232  0.0000
   176. (0.00003) RY*( 6) H  11           s( 12.12%)p 7.25( 87.88%)
   177. (0.00077) RY*( 1) H  12           s( 98.41%)p 0.02(  1.59%)
                                           -0.0041  0.9920 -0.0080 -0.0002 -0.0525
                                           -0.1148 -0.0000
   178. (0.00020) RY*( 2) H  12           s( 90.33%)p 0.11(  9.67%)
                                            0.0050  0.0408  0.9495 -0.0084  0.2627
                                            0.1663 -0.0000
   179. (0.00019) RY*( 3) H  12           s(  0.00%)p 1.00(100.00%)
                                            0.0000  0.0000  0.0000 -0.0000  0.0000
                                            0.0000  1.0000
   180. (0.00011) RY*( 4) H  12           s(  3.48%)p27.72( 96.52%)
                                            0.0010  0.0173  0.1397  0.1225 -0.8330
                                            0.5208 -0.0000
   181. (0.00003) RY*( 5) H  12           s(  9.45%)p 9.58( 90.55%)
   182. (0.00001) RY*( 6) H  12           s( 98.38%)p 0.02(  1.62%)
   183. (0.01586) BD*( 1) C   1 - C   2  
                ( 50.11%)   0.7079* C   1 s( 35.61%)p 1.81( 64.35%)d 0.00(  0.04%)
                                            0.0000  0.5966 -0.0137 -0.0005 -0.0001
                                           -0.3783 -0.0236  0.0083 -0.0003 -0.7059
                                            0.0378  0.0064 -0.0009 -0.0000 -0.0000
                                            0.0000 -0.0000  0.0160  0.0000 -0.0000
                                           -0.0064 -0.0122
                ( 49.89%)  -0.7063* C   2 s( 36.05%)p 1.77( 63.91%)d 0.00(  0.04%)
                                            0.0000  0.6002 -0.0150  0.0001 -0.0000
                                            0.4227 -0.0441 -0.0020  0.0004  0.6770
                                            0.0030 -0.0103  0.0003  0.0000  0.0000
                                           -0.0000  0.0000  0.0133  0.0000  0.0000
                                           -0.0105 -0.0120
   184. (0.01586) BD*( 1) C   1 - C   6  
                ( 50.11%)   0.7079* C   1 s( 35.61%)p 1.81( 64.35%)d 0.00(  0.04%)
                                            0.0000  0.5966 -0.0137 -0.0005 -0.0001
                                           -0.3783 -0.0236  0.0083 -0.0003  0.7059
                                           -0.0378 -0.0064  0.0009 -0.0000 -0.0000
                                            0.0000 -0.0000 -0.0160  0.0000  0.0000
                                           -0.0064 -0.0122
                ( 49.89%)  -0.7063* C   6 s( 36.05%)p 1.77( 63.91%)d 0.00(  0.04%)
                                            0.0000  0.6002 -0.0150  0.0001 -0.0000
                                            0.4227 -0.0441 -0.0020  0.0004 -0.6770
                                           -0.0030  0.0103 -0.0003  0.0000  0.0000
                                           -0.0000  0.0000 -0.0133  0.0000 -0.0000
                                           -0.0105 -0.0120
   185. (0.33275) BD*( 2) C   1 - C   6  
                ( 49.50%)   0.7036* C   1 s(  0.00%)p 1.00( 99.96%)d 0.00(  0.04%)
                                            0.0000  0.0000 -0.0000 -0.0000 -0.0000
                                            0.0000  0.0000  0.0000  0.0000  0.0000
                                           -0.0000 -0.0000  0.0000 -0.9995 -0.0176
                                           -0.0143  0.0022  0.0000  0.0188 -0.0091
                                           -0.0000  0.0000
                ( 50.50%)  -0.7106* C   6 s(  0.00%)p 1.00( 99.96%)d 0.00(  0.04%)
                                           -0.0000  0.0000 -0.0000 -0.0000  0.0000
                                            0.0000  0.0000  0.0000 -0.0000 -0.0000
                                           -0.0000 -0.0000 -0.0000 -0.9996 -0.0148
                                           -0.0148  0.0021 -0.0000  0.0010  0.0208
                                           -0.0000 -0.0000
   186. (0.01334) BD*( 1) C   1 - H   8  
                ( 39.50%)   0.6285* C   1 s( 28.79%)p 2.47( 71.16%)d 0.00(  0.04%)
                                            0.0004 -0.5361 -0.0235 -0.0013 -0.0003
                                           -0.8434 -0.0184 -0.0012 -0.0016  0.0000
                                           -0.0000 -0.0000  0.0000 -0.0000  0.0000
                                           -0.0000 -0.0000  0.0000 -0.0000  0.0000
                                           -0.0190  0.0084
                ( 60.50%)  -0.7778* H   8 s( 99.95%)p 0.00(  0.05%)
                                           -0.9998 -0.0014 -0.0010  0.0001  0.0217
                                            0.0000  0.0000
   187. (0.01688) BD*( 1) C   2 - C   3  
                ( 50.55%)   0.7110* C   2 s( 35.48%)p 1.82( 64.47%)d 0.00(  0.04%)
                                            0.0001  0.5955 -0.0127 -0.0017 -0.0000
                                           -0.8012  0.0195  0.0125 -0.0011 -0.0269
                                            0.0402 -0.0040 -0.0000 -0.0000  0.0000
                                           -0.0000 -0.0000 -0.0024  0.0000  0.0000
                                            0.0166 -0.0122
                ( 49.45%)  -0.7032* C   3 s( 35.90%)p 1.78( 64.05%)d 0.00(  0.05%)
                                           -0.0003  0.5990 -0.0162 -0.0066 -0.0002
                                            0.7987 -0.0161 -0.0094  0.0013 -0.0228
                                            0.0403 -0.0042 -0.0008  0.0000  0.0000
                                           -0.0000 -0.0000  0.0041  0.0000  0.0000
                                            0.0168 -0.0123
   188. (0.32752) BD*( 2) C   2 - C   3  
                ( 50.46%)   0.7103* C   2 s(  0.00%)p 1.00( 99.95%)d 0.00(  0.05%)
                                            0.0000  0.0000  0.0000  0.0000  0.0000
                                           -0.0000 -0.0000 -0.0000  0.0000 -0.0000
                                           -0.0000 -0.0000 -0.0000  0.9995  0.0180
                                            0.0174 -0.0014  0.0000 -0.0182  0.0111
                                            0.0000 -0.0000
                ( 49.54%)  -0.7039* C   3 s(  0.00%)p 1.00( 99.95%)d 0.00(  0.05%)
                                            0.0000  0.0000  0.0000  0.0000  0.0000
                                           -0.0000 -0.0000 -0.0000 -0.0000 -0.0000
                                           -0.0000 -0.0000 -0.0000  0.9995  0.0167
                                            0.0159 -0.0016 -0.0000  0.0173  0.0128
                                           -0.0000  0.0000
   189. (0.01310) BD*( 1) C   2 - H   9  
                ( 39.49%)   0.6284* C   2 s( 28.47%)p 2.51( 71.49%)d 0.00(  0.04%)
                                           -0.0004  0.5330  0.0233  0.0013  0.0001
                                            0.4199  0.0079  0.0005  0.0010 -0.7337
                                           -0.0164 -0.0014 -0.0015 -0.0000 -0.0000
                                           -0.0000 -0.0000 -0.0163 -0.0000  0.0000
                                           -0.0098 -0.0087
                ( 60.51%)  -0.7779* H   9 s( 99.95%)p 0.00(  0.05%)
                                            0.9998  0.0014  0.0010  0.0000 -0.0107
                                            0.0193  0.0000
   190. (0.02791) BD*( 1) C   3 - C   4  
                ( 50.58%)   0.7112* C   3 s( 35.06%)p 1.85( 64.89%)d 0.00(  0.05%)
                                            0.0000  0.5919 -0.0148  0.0056  0.0007
                                           -0.4238  0.0403  0.0013 -0.0003  0.6838
                                            0.0012 -0.0108 -0.0005  0.0000  0.0000
                                           -0.0000 -0.0000 -0.0145  0.0000  0.0000
                                           -0.0108 -0.0115
                ( 49.42%)  -0.7030* C   4 s( 38.80%)p 1.58( 61.16%)d 0.00(  0.04%)
                                            0.0000  0.6228 -0.0050  0.0038 -0.0001
                                            0.3338  0.0170 -0.0073  0.0061 -0.7067
                                            0.0186  0.0048 -0.0068  0.0000  0.0000
                                            0.0000 -0.0000 -0.0146  0.0000 -0.0000
                                           -0.0076 -0.0114
   191. (0.01349) BD*( 1) C   3 - H  10  
                ( 38.87%)   0.6235* C   3 s( 29.05%)p 2.44( 70.90%)d 0.00(  0.04%)
                                           -0.0004  0.5385  0.0238  0.0019 -0.0004
                                           -0.4238 -0.0139  0.0002 -0.0001 -0.7274
                                           -0.0115  0.0008 -0.0016 -0.0000 -0.0000
                                           -0.0000 -0.0000  0.0162  0.0000  0.0000
                                           -0.0083 -0.0091
                ( 61.13%)  -0.7818* H  10 s( 99.95%)p 0.00(  0.05%)
                                            0.9998  0.0014  0.0005 -0.0011  0.0117
                                            0.0182  0.0000
   192. (0.02791) BD*( 1) C   4 - C   5  
                ( 49.42%)   0.7030* C   4 s( 38.80%)p 1.58( 61.16%)d 0.00(  0.04%)
                                           -0.0000 -0.6228  0.0050 -0.0038  0.0001
                                           -0.3338 -0.0170  0.0073 -0.0061 -0.7067
                                            0.0186  0.0048 -0.0068 -0.0000  0.0000
                                           -0.0000  0.0000 -0.0146 -0.0000 -0.0000
                                            0.0076  0.0114
                ( 50.58%)  -0.7112* C   5 s( 35.06%)p 1.85( 64.89%)d 0.00(  0.05%)
                                           -0.0000 -0.5919  0.0148 -0.0056 -0.0007
                                            0.4238 -0.0403 -0.0013  0.0003  0.6838
                                            0.0012 -0.0108 -0.0005 -0.0000 -0.0000
                                            0.0000  0.0000 -0.0145 -0.0000  0.0000
                                            0.0108  0.0115
   193. (0.38946) BD*( 2) C   4 - C   5  
                ( 47.52%)   0.6893* C   4 s(  0.00%)p 1.00( 99.98%)d 0.00(  0.02%)
                                           -0.0000  0.0000 -0.0000 -0.0000 -0.0000
                                            0.0000 -0.0000 -0.0000 -0.0000 -0.0000
                                           -0.0000 -0.0000  0.0000 -0.9997 -0.0066
                                           -0.0179 -0.0010  0.0000 -0.0100 -0.0102
                                            0.0000 -0.0000
                ( 52.48%)  -0.7244* C   5 s(  0.00%)p 1.00( 99.95%)d 0.00(  0.05%)
                                           -0.0000 -0.0000 -0.0000 -0.0000  0.0000
                                            0.0000  0.0000  0.0000  0.0000 -0.0000
                                           -0.0000 -0.0000 -0.0000 -0.9995 -0.0091
                                           -0.0187  0.0016 -0.0000 -0.0005  0.0222
                                           -0.0000 -0.0000
   194. (0.03379) BD*( 1) C   4 -Cl   7  
                ( 54.57%)   0.7387* C   4 s( 22.30%)p 3.48( 77.50%)d 0.01(  0.20%)
                                           -0.0001  0.4720  0.0118 -0.0099  0.0000
                                           -0.8801 -0.0024  0.0097  0.0164  0.0000
                                            0.0000 -0.0000 -0.0000  0.0000 -0.0000
                                           -0.0000 -0.0000 -0.0000 -0.0000 -0.0000
                                            0.0382 -0.0233
                ( 45.43%)  -0.6740*Cl   7 s( 17.49%)p 4.69( 82.02%)d 0.03(  0.48%)
                                            0.0000  0.0001  0.4161  0.0425  0.0006
                                           -0.0001 -0.0000  0.0001  0.9041 -0.0528
                                            0.0091 -0.0008  0.0001 -0.0000  0.0000
                                           -0.0000  0.0000 -0.0000  0.0000 -0.0000
                                           -0.0000  0.0000 -0.0000  0.0000  0.0000
                                            0.0000 -0.0000  0.0000  0.0605 -0.0343
   195. (0.01688) BD*( 1) C   5 - C   6  
                ( 49.45%)   0.7032* C   5 s( 35.90%)p 1.78( 64.05%)d 0.00(  0.05%)
                                            0.0003 -0.5990  0.0162  0.0066  0.0002
                                           -0.7987  0.0161  0.0094 -0.0013 -0.0228
                                            0.0403 -0.0042 -0.0008 -0.0000 -0.0000
                                            0.0000  0.0000  0.0041 -0.0000  0.0000
                                           -0.0168  0.0123
                ( 50.55%)  -0.7110* C   6 s( 35.48%)p 1.82( 64.47%)d 0.00(  0.04%)
                                           -0.0001 -0.5955  0.0127  0.0017  0.0000
                                            0.8012 -0.0195 -0.0125  0.0011 -0.0269
                                            0.0402 -0.0040 -0.0000  0.0000  0.0000
                                            0.0000  0.0000 -0.0024 -0.0000  0.0000
                                           -0.0166  0.0122
   196. (0.01349) BD*( 1) C   5 - H  11  
                ( 38.87%)   0.6235* C   5 s( 29.05%)p 2.44( 70.90%)d 0.00(  0.04%)
                                            0.0004 -0.5385 -0.0238 -0.0019  0.0004
                                            0.4238  0.0139 -0.0002  0.0001 -0.7274
                                           -0.0115  0.0008 -0.0016  0.0000  0.0000
                                           -0.0000  0.0000  0.0162 -0.0000  0.0000
                                            0.0083  0.0091
                ( 61.13%)  -0.7818* H  11 s( 99.95%)p 0.00(  0.05%)
                                           -0.9998 -0.0014 -0.0005  0.0011 -0.0117
                                            0.0182 -0.0000
   197. (0.01310) BD*( 1) C   6 - H  12  
                ( 39.49%)   0.6284* C   6 s( 28.47%)p 2.51( 71.49%)d 0.00(  0.04%)
                                            0.0004 -0.5330 -0.0233 -0.0013 -0.0001
                                           -0.4199 -0.0079 -0.0005 -0.0010 -0.7337
                                           -0.0164 -0.0014 -0.0015  0.0000 -0.0000
                                           -0.0000  0.0000 -0.0163  0.0000  0.0000
                                            0.0098  0.0087
                ( 60.51%)  -0.7779* H  12 s( 99.95%)p 0.00(  0.05%)
                                           -0.9998 -0.0014 -0.0010 -0.0000  0.0107
                                            0.0193 -0.0000


 NHO Directionality and "Bond Bending" (deviations from line of nuclear centers)

         [Thresholds for printing:  angular deviation  >  1.0 degree]
                                    hybrid p-character > 25.0%
                                    orbital occupancy  >  0.10e

                                Line of Centers        Hybrid 1              Hybrid 2
                                ---------------  -------------------   ------------------
                NBO               Theta   Phi    Theta   Phi    Dev    Theta   Phi    Dev
 ========================================================================================
     3. BD (   2) C   1 - C   6    90.0  120.1     0.0    0.0  90.0      0.0    0.0  90.0
     5. BD (   1) C   2 - C   3    90.0  180.3    90.0  179.3   1.0      --     --    --
     6. BD (   2) C   2 - C   3    90.0  180.3     0.0    0.0  90.0      0.0    0.0  90.0
     8. BD (   1) C   3 - C   4    90.0  119.3     --     --    --      90.0  296.9   2.4
    10. BD (   1) C   4 - C   5    90.0   60.7    90.0   63.1   2.4      --     --    --
    11. BD (   2) C   4 - C   5    90.0   60.7     0.0    0.0  90.0      0.0    0.0  90.0
    13. BD (   1) C   5 - C   6    90.0  359.7     --     --    --      90.0  180.7   1.0
    28. LP (   2)Cl   7             --     --     90.0   90.0   --       --     --    --
    29. LP (   3)Cl   7             --     --      0.0    0.0   --       --     --    --
   185. BD*(   2) C   1 - C   6    90.0  120.1     0.0    0.0  90.0      0.0    0.0  90.0
   188. BD*(   2) C   2 - C   3    90.0  180.3     0.0    0.0  90.0      0.0    0.0  90.0
   193. BD*(   2) C   4 - C   5    90.0   60.7     0.0    0.0  90.0      0.0    0.0  90.0


 Second Order Perturbation Theory Analysis of Fock Matrix in NBO Basis

     Threshold for printing:   0.50 kcal/mol
                                                                              E(2)  E(j)-E(i) F(i,j)
         Donor NBO (i)                     Acceptor NBO (j)                 kcal/mol   a.u.    a.u. 
 ===================================================================================================

 within unit  1
   1. BD (   1) C   1 - C   2        / 65. RY*(   2) C   3                    2.23    1.72    0.056
   1. BD (   1) C   1 - C   2        /115. RY*(   1) C   6                    0.99    1.80    0.038
   1. BD (   1) C   1 - C   2        /116. RY*(   2) C   6                    1.42    2.01    0.048
   1. BD (   1) C   1 - C   2        /184. BD*(   1) C   1 - C   6            2.67    1.28    0.052
   1. BD (   1) C   1 - C   2        /186. BD*(   1) C   1 - H   8            0.94    1.15    0.029
   1. BD (   1) C   1 - C   2        /187. BD*(   1) C   2 - C   3            2.62    1.28    0.052
   1. BD (   1) C   1 - C   2        /189. BD*(   1) C   2 - H   9            0.98    1.15    0.030
   1. BD (   1) C   1 - C   2        /191. BD*(   1) C   3 - H  10            2.39    1.14    0.047
   1. BD (   1) C   1 - C   2        /197. BD*(   1) C   6 - H  12            2.43    1.15    0.047
   2. BD (   1) C   1 - C   6        / 47. RY*(   1) C   2                    0.99    1.80    0.038
   2. BD (   1) C   1 - C   6        / 48. RY*(   2) C   2                    1.42    2.01    0.048
   2. BD (   1) C   1 - C   6        / 99. RY*(   2) C   5                    2.23    1.72    0.056
   2. BD (   1) C   1 - C   6        /183. BD*(   1) C   1 - C   2            2.67    1.28    0.052
   2. BD (   1) C   1 - C   6        /186. BD*(   1) C   1 - H   8            0.94    1.15    0.029
   2. BD (   1) C   1 - C   6        /189. BD*(   1) C   2 - H   9            2.43    1.15    0.047
   2. BD (   1) C   1 - C   6        /195. BD*(   1) C   5 - C   6            2.62    1.28    0.052
   2. BD (   1) C   1 - C   6        /196. BD*(   1) C   5 - H  11            2.39    1.14    0.047
   2. BD (   1) C   1 - C   6        /197. BD*(   1) C   6 - H  12            0.98    1.15    0.030
   3. BD (   2) C   1 - C   6        / 49. RY*(   3) C   2                    1.23    1.33    0.040
   3. BD (   2) C   1 - C   6        /102. RY*(   5) C   5                    0.81    1.61    0.035
   3. BD (   2) C   1 - C   6        /188. BD*(   2) C   2 - C   3           21.10    0.28    0.069
   3. BD (   2) C   1 - C   6        /193. BD*(   2) C   4 - C   5           21.40    0.27    0.068
   4. BD (   1) C   1 - H   8        / 47. RY*(   1) C   2                    1.45    1.61    0.043
   4. BD (   1) C   1 - H   8        /115. RY*(   1) C   6                    1.45    1.61    0.043
   4. BD (   1) C   1 - H   8        /183. BD*(   1) C   1 - C   2            0.61    1.10    0.023
   4. BD (   1) C   1 - H   8        /184. BD*(   1) C   1 - C   6            0.61    1.10    0.023
   4. BD (   1) C   1 - H   8        /187. BD*(   1) C   2 - C   3            3.77    1.09    0.057
   4. BD (   1) C   1 - H   8        /189. BD*(   1) C   2 - H   9            0.51    0.96    0.020
   4. BD (   1) C   1 - H   8        /195. BD*(   1) C   5 - C   6            3.77    1.09    0.057
   4. BD (   1) C   1 - H   8        /197. BD*(   1) C   6 - H  12            0.51    0.96    0.020
   5. BD (   1) C   2 - C   3        / 30. RY*(   1) C   1                    0.97    1.81    0.038
   5. BD (   1) C   2 - C   3        / 31. RY*(   2) C   1                    1.46    1.98    0.048
   5. BD (   1) C   2 - C   3        / 81. RY*(   1) C   4                    0.58    1.71    0.028
   5. BD (   1) C   2 - C   3        / 82. RY*(   2) C   4                    1.30    1.58    0.041
   5. BD (   1) C   2 - C   3        /183. BD*(   1) C   1 - C   2            2.58    1.28    0.051
   5. BD (   1) C   2 - C   3        /186. BD*(   1) C   1 - H   8            2.25    1.15    0.045
   5. BD (   1) C   2 - C   3        /189. BD*(   1) C   2 - H   9            0.84    1.15    0.028
   5. BD (   1) C   2 - C   3        /190. BD*(   1) C   3 - C   4            3.59    1.27    0.060
   5. BD (   1) C   2 - C   3        /191. BD*(   1) C   3 - H  10            1.11    1.14    0.032
   5. BD (   1) C   2 - C   3        /194. BD*(   1) C   4 -Cl   7            5.18    0.85    0.059
   6. BD (   2) C   2 - C   3        / 32. RY*(   3) C   1                    1.08    0.76    0.028
   6. BD (   2) C   2 - C   3        / 66. RY*(   3) C   3                    0.56    0.88    0.022
   6. BD (   2) C   2 - C   3        / 83. RY*(   3) C   4                    0.59    1.40    0.028
   6. BD (   2) C   2 - C   3        /185. BD*(   2) C   1 - C   6           19.69    0.28    0.067
   6. BD (   2) C   2 - C   3        /193. BD*(   2) C   4 - C   5           21.20    0.27    0.068
   7. BD (   1) C   2 - H   9        / 30. RY*(   1) C   1                    1.38    1.63    0.043
   7. BD (   1) C   2 - H   9        / 64. RY*(   1) C   3                    1.32    1.55    0.041
   7. BD (   1) C   2 - H   9        /183. BD*(   1) C   1 - C   2            0.61    1.10    0.023
   7. BD (   1) C   2 - H   9        /184. BD*(   1) C   1 - C   6            3.67    1.10    0.057
   7. BD (   1) C   2 - H   9        /186. BD*(   1) C   1 - H   8            0.52    0.97    0.020
   7. BD (   1) C   2 - H   9        /187. BD*(   1) C   2 - C   3            0.55    1.10    0.022
   7. BD (   1) C   2 - H   9        /190. BD*(   1) C   3 - C   4            3.48    1.09    0.055
   8. BD (   1) C   3 - C   4        / 47. RY*(   1) C   2                    1.03    1.82    0.039
   8. BD (   1) C   3 - C   4        / 48. RY*(   2) C   2                    1.44    2.03    0.049
   8. BD (   1) C   3 - C   4        / 98. RY*(   1) C   5                    1.43    1.76    0.045
   8. BD (   1) C   3 - C   4        / 99. RY*(   2) C   5                    0.57    1.75    0.028
   8. BD (   1) C   3 - C   4        /187. BD*(   1) C   2 - C   3            2.94    1.30    0.055
   8. BD (   1) C   3 - C   4        /189. BD*(   1) C   2 - H   9            1.98    1.17    0.043
   8. BD (   1) C   3 - C   4        /191. BD*(   1) C   3 - H  10            1.26    1.17    0.034
   8. BD (   1) C   3 - C   4        /192. BD*(   1) C   4 - C   5            3.63    1.29    0.061
   8. BD (   1) C   3 - C   4        /196. BD*(   1) C   5 - H  11            2.16    1.17    0.045
   9. BD (   1) C   3 - H  10        / 47. RY*(   1) C   2                    1.32    1.62    0.041
   9. BD (   1) C   3 - H  10        / 81. RY*(   1) C   4                    1.42    1.53    0.042
   9. BD (   1) C   3 - H  10        /183. BD*(   1) C   1 - C   2            3.53    1.10    0.056
   9. BD (   1) C   3 - H  10        /187. BD*(   1) C   2 - C   3            0.79    1.10    0.026
   9. BD (   1) C   3 - H  10        /189. BD*(   1) C   2 - H   9            0.54    0.97    0.020
   9. BD (   1) C   3 - H  10        /190. BD*(   1) C   3 - C   4            0.95    1.09    0.029
   9. BD (   1) C   3 - H  10        /192. BD*(   1) C   4 - C   5            4.42    1.09    0.062
  10. BD (   1) C   4 - C   5        / 64. RY*(   1) C   3                    1.43    1.76    0.045
  10. BD (   1) C   4 - C   5        / 65. RY*(   2) C   3                    0.57    1.75    0.028
  10. BD (   1) C   4 - C   5        /115. RY*(   1) C   6                    1.03    1.82    0.039
  10. BD (   1) C   4 - C   5        /116. RY*(   2) C   6                    1.44    2.03    0.049
  10. BD (   1) C   4 - C   5        /190. BD*(   1) C   3 - C   4            3.63    1.29    0.061
  10. BD (   1) C   4 - C   5        /191. BD*(   1) C   3 - H  10            2.16    1.17    0.045
  10. BD (   1) C   4 - C   5        /195. BD*(   1) C   5 - C   6            2.94    1.30    0.055
  10. BD (   1) C   4 - C   5        /196. BD*(   1) C   5 - H  11            1.26    1.17    0.034
  10. BD (   1) C   4 - C   5        /197. BD*(   1) C   6 - H  12            1.98    1.17    0.043
  11. BD (   2) C   4 - C   5        / 66. RY*(   3) C   3                    2.27    0.89    0.044
  11. BD (   2) C   4 - C   5        /118. RY*(   4) C   6                    1.14    1.44    0.040
  11. BD (   2) C   4 - C   5        /132. RY*(   1)Cl   7                    1.93    0.95    0.042
  11. BD (   2) C   4 - C   5        /185. BD*(   2) C   1 - C   6           18.79    0.30    0.067
  11. BD (   2) C   4 - C   5        /188. BD*(   2) C   2 - C   3           19.39    0.30    0.068
  12. BD (   1) C   4 -Cl   7        / 64. RY*(   1) C   3                    0.85    1.74    0.034
  12. BD (   1) C   4 -Cl   7        / 98. RY*(   1) C   5                    0.85    1.74    0.034
  12. BD (   1) C   4 -Cl   7        /187. BD*(   1) C   2 - C   3            2.27    1.28    0.048
  12. BD (   1) C   4 -Cl   7        /195. BD*(   1) C   5 - C   6            2.27    1.28    0.048
  13. BD (   1) C   5 - C   6        / 30. RY*(   1) C   1                    0.97    1.81    0.038
  13. BD (   1) C   5 - C   6        / 31. RY*(   2) C   1                    1.46    1.98    0.048
  13. BD (   1) C   5 - C   6        / 81. RY*(   1) C   4                    0.58    1.71    0.028
  13. BD (   1) C   5 - C   6        / 82. RY*(   2) C   4                    1.30    1.58    0.041
  13. BD (   1) C   5 - C   6        /184. BD*(   1) C   1 - C   6            2.58    1.28    0.051
  13. BD (   1) C   5 - C   6        /186. BD*(   1) C   1 - H   8            2.25    1.15    0.045
  13. BD (   1) C   5 - C   6        /192. BD*(   1) C   4 - C   5            3.59    1.27    0.060
  13. BD (   1) C   5 - C   6        /194. BD*(   1) C   4 -Cl   7            5.18    0.85    0.059
  13. BD (   1) C   5 - C   6        /196. BD*(   1) C   5 - H  11            1.11    1.14    0.032
  13. BD (   1) C   5 - C   6        /197. BD*(   1) C   6 - H  12            0.84    1.15    0.028
  14. BD (   1) C   5 - H  11        / 81. RY*(   1) C   4                    1.42    1.53    0.042
  14. BD (   1) C   5 - H  11        /115. RY*(   1) C   6                    1.32    1.62    0.041
  14. BD (   1) C   5 - H  11        /184. BD*(   1) C   1 - C   6            3.53    1.10    0.056
  14. BD (   1) C   5 - H  11        /190. BD*(   1) C   3 - C   4            4.42    1.09    0.062
  14. BD (   1) C   5 - H  11        /192. BD*(   1) C   4 - C   5            0.95    1.09    0.029
  14. BD (   1) C   5 - H  11        /195. BD*(   1) C   5 - C   6            0.79    1.10    0.026
  14. BD (   1) C   5 - H  11        /197. BD*(   1) C   6 - H  12            0.54    0.97    0.020
  15. BD (   1) C   6 - H  12        / 30. RY*(   1) C   1                    1.38    1.63    0.043
  15. BD (   1) C   6 - H  12        / 98. RY*(   1) C   5                    1.32    1.55    0.041
  15. BD (   1) C   6 - H  12        /183. BD*(   1) C   1 - C   2            3.67    1.10    0.057
  15. BD (   1) C   6 - H  12        /184. BD*(   1) C   1 - C   6            0.61    1.10    0.023
  15. BD (   1) C   6 - H  12        /186. BD*(   1) C   1 - H   8            0.52    0.97    0.020
  15. BD (   1) C   6 - H  12        /192. BD*(   1) C   4 - C   5            3.48    1.09    0.055
  15. BD (   1) C   6 - H  12        /195. BD*(   1) C   5 - C   6            0.55    1.10    0.022
  16. CR (   1) C   1                / 48. RY*(   2) C   2                    1.45   11.34    0.114
  16. CR (   1) C   1                /116. RY*(   2) C   6                    1.45   11.34    0.114
  16. CR (   1) C   1                /187. BD*(   1) C   2 - C   3            0.71   10.61    0.078
  16. CR (   1) C   1                /195. BD*(   1) C   5 - C   6            0.71   10.61    0.078
  17. CR (   1) C   2                / 31. RY*(   2) C   1                    1.51   11.32    0.117
  17. CR (   1) C   2                / 64. RY*(   1) C   3                    0.57   11.07    0.071
  17. CR (   1) C   2                / 65. RY*(   2) C   3                    0.95   11.06    0.092
  17. CR (   1) C   2                / 67. RY*(   4) C   3                    0.65   10.95    0.075
  17. CR (   1) C   2                /184. BD*(   1) C   1 - C   6            0.69   10.62    0.077
  17. CR (   1) C   2                /190. BD*(   1) C   3 - C   4            0.69   10.60    0.077
  18. CR (   1) C   3                / 48. RY*(   2) C   2                    1.54   11.34    0.118
  18. CR (   1) C   3                / 81. RY*(   1) C   4                    0.51   11.04    0.067
  18. CR (   1) C   3                / 82. RY*(   2) C   4                    2.46   10.91    0.146
  18. CR (   1) C   3                /183. BD*(   1) C   1 - C   2            0.73   10.61    0.079
  18. CR (   1) C   3                /192. BD*(   1) C   4 - C   5            0.98   10.60    0.092
  18. CR (   1) C   3                /194. BD*(   1) C   4 -Cl   7            0.97   10.18    0.090
  19. CR (   1) C   4                / 65. RY*(   2) C   3                    1.90   11.13    0.130
  19. CR (   1) C   4                / 99. RY*(   2) C   5                    1.90   11.13    0.130
  19. CR (   1) C   4                /187. BD*(   1) C   2 - C   3            0.63   10.68    0.073
  19. CR (   1) C   4                /190. BD*(   1) C   3 - C   4            0.71   10.67    0.078
  19. CR (   1) C   4                /192. BD*(   1) C   4 - C   5            0.71   10.67    0.078
  19. CR (   1) C   4                /194. BD*(   1) C   4 -Cl   7            2.63   10.25    0.148
  19. CR (   1) C   4                /195. BD*(   1) C   5 - C   6            0.63   10.68    0.073
  20. CR (   1) C   5                / 81. RY*(   1) C   4                    0.51   11.04    0.067
  20. CR (   1) C   5                / 82. RY*(   2) C   4                    2.46   10.91    0.146
  20. CR (   1) C   5                /116. RY*(   2) C   6                    1.54   11.34    0.118
  20. CR (   1) C   5                /184. BD*(   1) C   1 - C   6            0.73   10.61    0.079
  20. CR (   1) C   5                /190. BD*(   1) C   3 - C   4            0.98   10.60    0.092
  20. CR (   1) C   5                /194. BD*(   1) C   4 -Cl   7            0.97   10.18    0.090
  21. CR (   1) C   6                / 31. RY*(   2) C   1                    1.51   11.32    0.117
  21. CR (   1) C   6                / 98. RY*(   1) C   5                    0.57   11.07    0.071
  21. CR (   1) C   6                / 99. RY*(   2) C   5                    0.95   11.06    0.092
  21. CR (   1) C   6                /101. RY*(   4) C   5                    0.65   10.95    0.075
  21. CR (   1) C   6                /183. BD*(   1) C   1 - C   2            0.69   10.62    0.077
  21. CR (   1) C   6                /192. BD*(   1) C   4 - C   5            0.69   10.60    0.077
  23. CR (   2)Cl   7                / 81. RY*(   1) C   4                    1.96   11.48    0.134
  23. CR (   2)Cl   7                / 84. RY*(   4) C   4                    0.68   11.45    0.079
  23. CR (   2)Cl   7                /190. BD*(   1) C   3 - C   4            0.67   11.04    0.077
  23. CR (   2)Cl   7                /192. BD*(   1) C   4 - C   5            0.67   11.04    0.077
  27. LP (   1)Cl   7                / 81. RY*(   1) C   4                    3.25    1.94    0.071
  27. LP (   1)Cl   7                / 84. RY*(   4) C   4                    0.61    1.90    0.031
  27. LP (   1)Cl   7                /190. BD*(   1) C   3 - C   4            1.64    1.49    0.044
  27. LP (   1)Cl   7                /192. BD*(   1) C   4 - C   5            1.64    1.49    0.044
  28. LP (   2)Cl   7                / 82. RY*(   2) C   4                    1.21    1.19    0.034
  28. LP (   2)Cl   7                /190. BD*(   1) C   3 - C   4            4.08    0.88    0.053
  28. LP (   2)Cl   7                /192. BD*(   1) C   4 - C   5            4.08    0.88    0.053
  29. LP (   3)Cl   7                / 83. RY*(   3) C   4                    0.98    1.46    0.034
  29. LP (   3)Cl   7                /193. BD*(   2) C   4 - C   5           12.21    0.33    0.062
 185. BD*(   2) C   1 - C   6        / 32. RY*(   3) C   1                    2.99    0.48    0.082
 185. BD*(   2) C   1 - C   6        /117. RY*(   3) C   6                    1.51    0.98    0.084
 185. BD*(   2) C   1 - C   6        /125. RY*(  11) C   6                    0.71    0.38    0.036
 188. BD*(   2) C   2 - C   3        / 50. RY*(   4) C   2                    1.51    1.07    0.089
 188. BD*(   2) C   2 - C   3        / 57. RY*(  11) C   2                    0.51    0.37    0.030
 188. BD*(   2) C   2 - C   3        / 66. RY*(   3) C   3                    1.28    0.59    0.061
 188. BD*(   2) C   2 - C   3        / 68. RY*(   5) C   3                    0.65    1.46    0.068
 193. BD*(   2) C   4 - C   5        / 66. RY*(   3) C   3                    0.91    0.61    0.047
 193. BD*(   2) C   4 - C   5        / 83. RY*(   3) C   4                    1.00    1.13    0.068
 193. BD*(   2) C   4 - C   5        /100. RY*(   3) C   5                    3.46    0.70    0.100
 193. BD*(   2) C   4 - C   5        /118. RY*(   4) C   6                    0.53    1.16    0.050
 193. BD*(   2) C   4 - C   5        /132. RY*(   1)Cl   7                    0.82    0.66    0.047
 193. BD*(   2) C   4 - C   5        /185. BD*(   2) C   1 - C   6          222.49    0.01    0.084
 193. BD*(   2) C   4 - C   5        /188. BD*(   2) C   2 - C   3          232.13    0.01    0.081


 Natural Bond Orbitals (Summary):

                                                            Principal Delocalizations
           NBO                        Occupancy    Energy   (geminal,vicinal,remote)
 ====================================================================================
 Molecular unit  1  (C6H5Cl)
     1. BD (   1) C   1 - C   2          1.97981    -0.71074  184(g),187(g),197(v),191(v)
                                                    65(v),116(v),115(v),189(g)
                                                    186(g)
     2. BD (   1) C   1 - C   6          1.97981    -0.71074  183(g),195(g),189(v),196(v)
                                                    99(v),48(v),47(v),197(g)
                                                    186(g)
     3. BD (   2) C   1 - C   6          1.66069    -0.26297  193(v),188(v),49(v),102(v)
     4. BD (   1) C   1 - H   8          1.98015    -0.52824  187(v),195(v),47(v),115(v)
                                                    183(g),184(g),189(v),197(v)
     5. BD (   1) C   2 - C   3          1.97151    -0.71087  194(v),190(g),183(g),186(v)
                                                    31(v),82(v),191(g),30(v)
                                                    189(g),81(v)
     6. BD (   2) C   2 - C   3          1.66502    -0.26486  193(v),185(v),32(v),83(v)
                                                    66(g)
     7. BD (   1) C   2 - H   9          1.97957    -0.52934  184(v),190(v),30(v),64(v)
                                                    183(g),187(g),186(v)
     8. BD (   1) C   3 - C   4          1.97991    -0.73552  192(g),187(g),196(v),189(v)
                                                    48(v),98(v),191(g),47(v)
                                                    99(v)
     9. BD (   1) C   3 - H  10          1.97835    -0.53230  192(v),183(v),81(v),47(v)
                                                    190(g),187(g),189(v)
    10. BD (   1) C   4 - C   5          1.97991    -0.73552  190(g),195(g),191(v),197(v)
                                                    116(v),64(v),196(g),115(v)
                                                    65(v)
    11. BD (   2) C   4 - C   5          1.67912    -0.27903  188(v),185(v),66(v),132(v)
                                                    118(v)
    12. BD (   1) C   4 -Cl   7          1.98871    -0.71736  187(v),195(v),64(v),98(v)
    13. BD (   1) C   5 - C   6          1.97151    -0.71087  194(v),192(g),184(g),186(v)
                                                    31(v),82(v),196(g),30(v)
                                                    197(g),81(v)
    14. BD (   1) C   5 - H  11          1.97835    -0.53230  190(v),184(v),81(v),115(v)
                                                    192(g),195(g),197(v)
    15. BD (   1) C   6 - H  12          1.97957    -0.52934  183(v),192(v),30(v),98(v)
                                                    184(g),195(g),186(v)
    16. CR (   1) C   1                  1.99915   -10.04370  48(v),116(v),187(v),195(v)
    17. CR (   1) C   2                  1.99916   -10.04770  31(v),65(v),190(v),184(v)
                                                    67(v),64(v)
    18. CR (   1) C   3                  1.99896   -10.04390  82(v),48(v),192(v),194(v)
                                                    183(v),81(v)
    19. CR (   1) C   4                  1.99858   -10.11478  194(g),65(v),99(v),190(g)
                                                    192(g),187(v),195(v)
    20. CR (   1) C   5                  1.99896   -10.04390  82(v),116(v),190(v),194(v)
                                                    184(v),81(v)
    21. CR (   1) C   6                  1.99916   -10.04770  31(v),99(v),192(v),183(v)
                                                    101(v),98(v)
    22. CR (   1)Cl   7                  2.00000  -100.22211   
    23. CR (   2)Cl   7                  1.99972   -10.48005  81(v),84(v),190(v),192(v)
    24. CR (   3)Cl   7                  1.99991    -7.22834   
    25. CR (   4)Cl   7                  1.99999    -7.22031   
    26. CR (   5)Cl   7                  1.99999    -7.22060   
    27. LP (   1)Cl   7                  1.99202    -0.93694  81(v),190(v),192(v),84(v)
    28. LP (   2)Cl   7                  1.97216    -0.32357  190(v),192(v),82(v)
    29. LP (   3)Cl   7                  1.93049    -0.32231  193(v),83(v)
    30. RY*(   1) C   1                  0.00584     1.09873   
    31. RY*(   2) C   1                  0.00220     1.26820   
    32. RY*(   3) C   1                  0.00084     0.49437   
    33. RY*(   4) C   1                  0.00055     1.64047   
    34. RY*(   5) C   1                  0.00038     0.85808   
    35. RY*(   6) C   1                  0.00027     1.24536   
    36. RY*(   7) C   1                  0.00011     2.65274   
    37. RY*(   8) C   1                  0.00007     2.98735   
    38. RY*(   9) C   1                  0.00004     1.81867   
    39. RY*(  10) C   1                  0.00002     0.72672   
    40. RY*(  11) C   1                  0.00000     0.37479   
    41. RY*(  12) C   1                  0.00000     2.73910   
    42. RY*(  13) C   1                  0.00000     2.72982   
    43. RY*(  14) C   1                  0.00000     1.48955   
    44. RY*(  15) C   1                  0.00000     1.64830   
    45. RY*(  16) C   1                  0.00000    21.89348   
    46. RY*(  17) C   1                  0.00000     1.54173   
    47. RY*(   1) C   2                  0.00607     1.08610   
    48. RY*(   2) C   2                  0.00222     1.29813   
    49. RY*(   3) C   2                  0.00069     1.07007   
    50. RY*(   4) C   2                  0.00057     1.09128   
    51. RY*(   5) C   2                  0.00039     0.86228   
    52. RY*(   6) C   2                  0.00026     0.95172   
    53. RY*(   7) C   2                  0.00011     2.63924   
    54. RY*(   8) C   2                  0.00008     2.46651   
    55. RY*(   9) C   2                  0.00005     2.25537   
    56. RY*(  10) C   2                  0.00002     1.74313   
    57. RY*(  11) C   2                  0.00000     0.38718   
    58. RY*(  12) C   2                  0.00001     2.48079   
    59. RY*(  13) C   2                  0.00000    20.69966   
    60. RY*(  14) C   2                  0.00000     2.79800   
    61. RY*(  15) C   2                  0.00000     1.45078   
    62. RY*(  16) C   2                  0.00000     1.11530   
    63. RY*(  17) C   2                  0.00000     2.73239   
    64. RY*(   1) C   3                  0.00579     1.02321   
    65. RY*(   2) C   3                  0.00276     1.01061   
    66. RY*(   3) C   3                  0.00092     0.61081   
    67. RY*(   4) C   3                  0.00089     0.90234   
    68. RY*(   5) C   3                  0.00055     1.47215   
    69. RY*(   6) C   3                  0.00022     0.64503   
    70. RY*(   7) C   3                  0.00022     1.43329   
    71. RY*(   8) C   3                  0.00019     2.22272   
    72. RY*(   9) C   3                  0.00011     2.81214   
    73. RY*(  10) C   3                  0.00006     2.11887   
    74. RY*(  11) C   3                  0.00005     2.09893   
    75. RY*(  12) C   3                  0.00000     2.74986   
    76. RY*(  13) C   3                  0.00001     1.07676   
    77. RY*(  14) C   3                  0.00000     2.53964   
    78. RY*(  15) C   3                  0.00000     1.25841   
    79. RY*(  16) C   3                  0.00000    21.71094   
    80. RY*(  17) C   3                  0.00001     1.56542   
    81. RY*(   1) C   4                  0.00748     0.99827   
    82. RY*(   2) C   4                  0.00669     0.86673   
    83. RY*(   3) C   4                  0.00236     1.13766   
    84. RY*(   4) C   4                  0.00077     0.96698   
    85. RY*(   5) C   4                  0.00074     1.63798   
    86. RY*(   6) C   4                  0.00057     2.20478   
    87. RY*(   7) C   4                  0.00024     1.59146   
    88. RY*(   8) C   4                  0.00013     1.84601   
    89. RY*(   9) C   4                  0.00014     3.21472   
    90. RY*(  10) C   4                  0.00010     0.53274   
    91. RY*(  11) C   4                  0.00004     1.44355   
    92. RY*(  12) C   4                  0.00002     1.39354   
    93. RY*(  13) C   4                  0.00001     1.99371   
    94. RY*(  14) C   4                  0.00000     1.55631   
    95. RY*(  15) C   4                  0.00000     0.61854   
    96. RY*(  16) C   4                  0.00000     2.71883   
    97. RY*(  17) C   4                  0.00000    21.98127   
    98. RY*(   1) C   5                  0.00579     1.02321   
    99. RY*(   2) C   5                  0.00276     1.01061   
   100. RY*(   3) C   5                  0.00106     0.70847   
   101. RY*(   4) C   5                  0.00089     0.90234   
   102. RY*(   5) C   5                  0.00051     1.34769   
   103. RY*(   6) C   5                  0.00022     0.67082   
   104. RY*(   7) C   5                  0.00022     1.43329   
   105. RY*(   8) C   5                  0.00019     2.22272   
   106. RY*(   9) C   5                  0.00011     2.81214   
   107. RY*(  10) C   5                  0.00006     2.13307   
   108. RY*(  11) C   5                  0.00005     2.08473   
   109. RY*(  12) C   5                  0.00000     2.74967   
   110. RY*(  13) C   5                  0.00000     2.41012   
   111. RY*(  14) C   5                  0.00000    21.55375   
   112. RY*(  15) C   5                  0.00000     1.25860   
   113. RY*(  16) C   5                  0.00001     1.33525   
   114. RY*(  17) C   5                  0.00000     1.59364   
   115. RY*(   1) C   6                  0.00607     1.08610   
   116. RY*(   2) C   6                  0.00222     1.29813   
   117. RY*(   3) C   6                  0.00077     0.99698   
   118. RY*(   4) C   6                  0.00051     1.16436   
   119. RY*(   5) C   6                  0.00039     0.86228   
   120. RY*(   6) C   6                  0.00026     0.95172   
   121. RY*(   7) C   6                  0.00011     2.63924   
   122. RY*(   8) C   6                  0.00008     2.46652   
   123. RY*(   9) C   6                  0.00005     2.25536   
   124. RY*(  10) C   6                  0.00002     1.73493   
   125. RY*(  11) C   6                  0.00000     0.40342   
   126. RY*(  12) C   6                  0.00001     2.48900   
   127. RY*(  13) C   6                  0.00000    21.64270   
   128. RY*(  14) C   6                  0.00000     1.62029   
   129. RY*(  15) C   6                  0.00000     1.43543   
   130. RY*(  16) C   6                  0.00000     1.34996   
   131. RY*(  17) C   6                  0.00000     2.73122   
   132. RY*(   1)Cl   7                  0.00330     0.66725   
   133. RY*(   2)Cl   7                  0.00235     0.59452   
   134. RY*(   3)Cl   7                  0.00085     0.56073   
   135. RY*(   4)Cl   7                  0.00011     1.42789   
   136. RY*(   5)Cl   7                  0.00007     0.79689   
   137. RY*(   6)Cl   7                  0.00005     1.64001   
   138. RY*(   7)Cl   7                  0.00004     0.86677   
   139. RY*(   8)Cl   7                  0.00001     0.72363   
   140. RY*(   9)Cl   7                  0.00000    17.02721   
   141. RY*(  10)Cl   7                  0.00000   207.79895   
   142. RY*(  11)Cl   7                  0.00000     3.44572   
   143. RY*(  12)Cl   7                  0.00000    24.27702   
   144. RY*(  13)Cl   7                  0.00000     0.75738   
   145. RY*(  14)Cl   7                  0.00000     0.44438   
   146. RY*(  15)Cl   7                  0.00000     3.30511   
   147. RY*(  16)Cl   7                  0.00000    24.43453   
   148. RY*(  17)Cl   7                  0.00000     0.93878   
   149. RY*(  18)Cl   7                  0.00000    24.24463   
   150. RY*(  19)Cl   7                  0.00001     0.80937   
   151. RY*(  20)Cl   7                  0.00001     0.77931   
   152. RY*(  21)Cl   7                  0.00001     3.46392   
   153. RY*(   1) H   8                  0.00078     0.69664   
   154. RY*(   2) H   8                  0.00020     2.26718   
   155. RY*(   3) H   8                  0.00019     1.58531   
   156. RY*(   4) H   8                  0.00012     1.96160   
   157. RY*(   5) H   8                  0.00002     0.20991   
   158. RY*(   6) H   8                  0.00003     2.45735   
   159. RY*(   1) H   9                  0.00077     0.63879   
   160. RY*(   2) H   9                  0.00020     2.30326   
   161. RY*(   3) H   9                  0.00019     1.58266   
   162. RY*(   4) H   9                  0.00011     1.95197   
   163. RY*(   5) H   9                  0.00003     2.45350   
   164. RY*(   6) H   9                  0.00001     0.23292   
   165. RY*(   1) H  10                  0.00088     0.72084   
   166. RY*(   2) H  10                  0.00025     0.98577   
   167. RY*(   3) H  10                  0.00019     1.92866   
   168. RY*(   4) H  10                  0.00018     1.58825   
   169. RY*(   5) H  10                  0.00011     1.56825   
   170. RY*(   6) H  10                  0.00003     2.42941   
   171. RY*(   1) H  11                  0.00088     0.72084   
   172. RY*(   2) H  11                  0.00025     0.98577   
   173. RY*(   3) H  11                  0.00019     1.92866   
   174. RY*(   4) H  11                  0.00018     1.58825   
   175. RY*(   5) H  11                  0.00011     1.56825   
   176. RY*(   6) H  11                  0.00003     2.42941   
   177. RY*(   1) H  12                  0.00077     0.63879   
   178. RY*(   2) H  12                  0.00020     2.30326   
   179. RY*(   3) H  12                  0.00019     1.58266   
   180. RY*(   4) H  12                  0.00011     1.95197   
   181. RY*(   5) H  12                  0.00003     2.45350   
   182. RY*(   6) H  12                  0.00001     0.23292   
   183. BD*(   1) C   1 - C   2          0.01586     0.56751   
   184. BD*(   1) C   1 - C   6          0.01586     0.56751   
   185. BD*(   2) C   1 - C   6          0.33275     0.01884  188(v),193(v),32(g),117(g)
                                                    125(g)
   186. BD*(   1) C   1 - H   8          0.01334     0.43686   
   187. BD*(   1) C   2 - C   3          0.01688     0.56568   
   188. BD*(   2) C   2 - C   3          0.32752     0.01710  185(v),193(v),50(g),66(g)
                                                    68(g),57(g)
   189. BD*(   1) C   2 - H   9          0.01310     0.43490   
   190. BD*(   1) C   3 - C   4          0.02791     0.55704   
   191. BD*(   1) C   3 - H  10          0.01349     0.42958   
   192. BD*(   1) C   4 - C   5          0.02791     0.55704   
   193. BD*(   2) C   4 - C   5          0.38946     0.00452  188(v),185(v),100(g),83(g)
                                                    66(v),132(v),118(v)
   194. BD*(   1) C   4 -Cl   7          0.03379     0.13787   
   195. BD*(   1) C   5 - C   6          0.01688     0.56568   
   196. BD*(   1) C   5 - H  11          0.01349     0.42958   
   197. BD*(   1) C   6 - H  12          0.01310     0.43490   
       -------------------------------
              Total Lewis   56.64025  ( 97.6556%)
        Valence non-Lewis    1.27136  (  2.1920%)
        Rydberg non-Lewis    0.08839  (  0.1524%)
       -------------------------------
            Total unit  1   58.00000  (100.0000%)
           Charge unit  1    0.00000
 Unable to Open any file for archive entry.
 1\1\GINC-CCC067\FOpt\RB3LYP\6-311++G(d,p)\C6H5Cl1\ROOT\12-Jun-2024\0\\
 # opt freq b3lyp/6-311++g(d,p) pop=nbo geom=connectivity\\C1=CC=C(C=C1
 )Cl\\0,1\C,-1.378125376,0.4218295723,-0.1816116265\C,-1.0728479955,-0.
 9310559262,-0.0427553274\C,0.2470894727,-1.3435884096,0.1318546673\C,1
 .2543579034,-0.3839456817,0.1653008844\C,0.9692722585,0.9712729431,0.0
 284391564\C,-0.3555142493,1.3682624843,-0.1454764351\Cl,2.9245874595,-
 0.8951853159,0.385404963\H,-2.4061258224,0.7364895829,-0.3170839186\H,
 -1.8618564384,-1.6739494436,-0.0696434966\H,0.4932765549,-2.3920917232
 ,0.2405051508\H,1.7697295667,1.6994095911,0.0577192275\H,-0.5838433366
 ,2.4225523079,-0.252653255\\Version=ES64L-G16RevC.02\State=1-A\HF=-691
 .9342891\RMSD=5.962e-09\RMSF=7.760e-05\Dipole=-0.694442,0.2125614,-0.0
 915137\Quadrupole=0.5361888,2.9689789,-3.5051678,0.8658837,0.375809,-0
 .4193787\PG=C01 [X(C6H5Cl1)]\\@
 The archive entry for this job was punched.


 UNDER MOST GREENE GRASSE LY MOST GREATE SNAKES.
 -- PROVERBS AND REASONS OF THE YEAR 1585
           AS REPRINTED IN PAISLEY MAGAZINE 1828.
 Job cpu time:       0 days  0 hours  4 minutes 40.1 seconds.
 Elapsed time:       0 days  0 hours  0 minutes 52.8 seconds.
 File lengths (MBytes):  RWF=     20 Int=      0 D2E=      0 Chk=      4 Scr=      1
 Normal termination of Gaussian 16 at Wed Jun 12 21:51:42 2024.
 Link1:  Proceeding to internal job step number  2.
 ----------------------------------------------------------------------
 #N Geom=AllCheck Guess=TCheck SCRF=Check GenChk RB3LYP/6-311++G(d,p) F
 req
 ----------------------------------------------------------------------
 1/10=4,29=7,30=1,38=1,40=1/1,3;
 2/12=2,40=1/2;
 3/5=4,6=6,7=1111,11=2,14=-4,25=1,30=1,70=2,71=2,74=-5,116=1,140=1/1,2,3;
 4/5=101/1;
 5/5=2,38=6,98=1/2;
 8/6=4,10=90,11=11/1;
 11/6=1,8=1,9=11,15=111,16=1/1,2,10;
 10/6=1/2;
 6/7=2,8=2,9=2,10=2,28=1,40=1/1,7;
 7/8=1,10=1,25=1/1,2,3,16;
 1/10=4,30=1/3;
 99//99;
 Structure from the checkpoint file:  "C1=CC=C(C=C1)Cl.chk"
 ---------------
 C1=CC=C(C=C1)Cl
 ---------------
 Charge =  0 Multiplicity = 1
 Redundant internal coordinates found in file.  (old form).
 C,0,-1.378125376,0.4218295723,-0.1816116265
 C,0,-1.0728479955,-0.9310559262,-0.0427553274
 C,0,0.2470894727,-1.3435884096,0.1318546673
 C,0,1.2543579034,-0.3839456817,0.1653008844
 C,0,0.9692722585,0.9712729431,0.0284391564
 C,0,-0.3555142493,1.3682624843,-0.1454764351
 Cl,0,2.9245874595,-0.8951853159,0.385404963
 H,0,-2.4061258224,0.7364895829,-0.3170839186
 H,0,-1.8618564384,-1.6739494436,-0.0696434966
 H,0,0.4932765549,-2.3920917232,0.2405051508
 H,0,1.7697295667,1.6994095911,0.0577192275
 H,0,-0.5838433366,2.4225523079,-0.252653255
 Recover connectivity data from disk.

 GradGradGradGradGradGradGradGradGradGradGradGradGradGradGradGradGradGrad
 Berny optimization.
 Initialization pass.
                           ----------------------------
                           !    Initial Parameters    !
                           ! (Angstroms and Degrees)  !
 --------------------------                            --------------------------
 ! Name  Definition              Value          Derivative Info.                !
 --------------------------------------------------------------------------------
 ! R1    R(1,2)                  1.3938         calculate D2E/DX2 analytically  !
 ! R2    R(1,6)                  1.3938         calculate D2E/DX2 analytically  !
 ! R3    R(1,8)                  1.0836         calculate D2E/DX2 analytically  !
 ! R4    R(2,3)                  1.3939         calculate D2E/DX2 analytically  !
 ! R5    R(2,9)                  1.084          calculate D2E/DX2 analytically  !
 ! R6    R(3,4)                  1.3916         calculate D2E/DX2 analytically  !
 ! R7    R(3,10)                 1.0825         calculate D2E/DX2 analytically  !
 ! R8    R(4,5)                  1.3916         calculate D2E/DX2 analytically  !
 ! R9    R(4,7)                  1.7605         calculate D2E/DX2 analytically  !
 ! R10   R(5,6)                  1.3939         calculate D2E/DX2 analytically  !
 ! R11   R(5,11)                 1.0825         calculate D2E/DX2 analytically  !
 ! R12   R(6,12)                 1.084          calculate D2E/DX2 analytically  !
 ! A1    A(2,1,6)              119.7222         calculate D2E/DX2 analytically  !
 ! A2    A(2,1,8)              120.1389         calculate D2E/DX2 analytically  !
 ! A3    A(6,1,8)              120.1389         calculate D2E/DX2 analytically  !
 ! A4    A(1,2,3)              120.4738         calculate D2E/DX2 analytically  !
 ! A5    A(1,2,9)              120.2175         calculate D2E/DX2 analytically  !
 ! A6    A(3,2,9)              119.3086         calculate D2E/DX2 analytically  !
 ! A7    A(2,3,4)              118.9687         calculate D2E/DX2 analytically  !
 ! A8    A(2,3,10)             120.9711         calculate D2E/DX2 analytically  !
 ! A9    A(4,3,10)             120.0603         calculate D2E/DX2 analytically  !
 ! A10   A(3,4,5)              121.3928         calculate D2E/DX2 analytically  !
 ! A11   A(3,4,7)              119.3036         calculate D2E/DX2 analytically  !
 ! A12   A(5,4,7)              119.3036         calculate D2E/DX2 analytically  !
 ! A13   A(4,5,6)              118.9687         calculate D2E/DX2 analytically  !
 ! A14   A(4,5,11)             120.0603         calculate D2E/DX2 analytically  !
 ! A15   A(6,5,11)             120.9711         calculate D2E/DX2 analytically  !
 ! A16   A(1,6,5)              120.4738         calculate D2E/DX2 analytically  !
 ! A17   A(1,6,12)             120.2175         calculate D2E/DX2 analytically  !
 ! A18   A(5,6,12)             119.3086         calculate D2E/DX2 analytically  !
 ! D1    D(6,1,2,3)              0.0            calculate D2E/DX2 analytically  !
 ! D2    D(6,1,2,9)            179.9999         calculate D2E/DX2 analytically  !
 ! D3    D(8,1,2,3)            179.9999         calculate D2E/DX2 analytically  !
 ! D4    D(8,1,2,9)             -0.0001         calculate D2E/DX2 analytically  !
 ! D5    D(2,1,6,5)              0.0            calculate D2E/DX2 analytically  !
 ! D6    D(2,1,6,12)          -180.0            calculate D2E/DX2 analytically  !
 ! D7    D(8,1,6,5)           -179.9999         calculate D2E/DX2 analytically  !
 ! D8    D(8,1,6,12)             0.0001         calculate D2E/DX2 analytically  !
 ! D9    D(1,2,3,4)              0.0            calculate D2E/DX2 analytically  !
 ! D10   D(1,2,3,10)           179.9999         calculate D2E/DX2 analytically  !
 ! D11   D(9,2,3,4)           -180.0            calculate D2E/DX2 analytically  !
 ! D12   D(9,2,3,10)             0.0            calculate D2E/DX2 analytically  !
 ! D13   D(2,3,4,5)              0.0            calculate D2E/DX2 analytically  !
 ! D14   D(2,3,4,7)           -180.0            calculate D2E/DX2 analytically  !
 ! D15   D(10,3,4,5)          -179.9999         calculate D2E/DX2 analytically  !
 ! D16   D(10,3,4,7)             0.0001         calculate D2E/DX2 analytically  !
 ! D17   D(3,4,5,6)              0.0            calculate D2E/DX2 analytically  !
 ! D18   D(3,4,5,11)           179.9999         calculate D2E/DX2 analytically  !
 ! D19   D(7,4,5,6)            180.0            calculate D2E/DX2 analytically  !
 ! D20   D(7,4,5,11)            -0.0001         calculate D2E/DX2 analytically  !
 ! D21   D(4,5,6,1)              0.0            calculate D2E/DX2 analytically  !
 ! D22   D(4,5,6,12)           180.0            calculate D2E/DX2 analytically  !
 ! D23   D(11,5,6,1)          -179.9999         calculate D2E/DX2 analytically  !
 ! D24   D(11,5,6,12)            0.0            calculate D2E/DX2 analytically  !
 --------------------------------------------------------------------------------
 Trust Radius=3.00D-01 FncErr=1.00D-07 GrdErr=1.00D-07 EigMax=2.50D+02 EigMin=1.00D-04
 Number of steps in this run=      2 maximum allowed number of steps=      2.
 GradGradGradGradGradGradGradGradGradGradGradGradGradGradGradGradGradGrad

                          Input orientation:                          
 ---------------------------------------------------------------------
 Center     Atomic      Atomic             Coordinates (Angstroms)
 Number     Number       Type             X           Y           Z
 ---------------------------------------------------------------------
      1          6           0       -1.378125    0.421830   -0.181612
      2          6           0       -1.072848   -0.931056   -0.042755
      3          6           0        0.247089   -1.343588    0.131855
      4          6           0        1.254358   -0.383946    0.165301
      5          6           0        0.969272    0.971273    0.028439
      6          6           0       -0.355514    1.368262   -0.145476
      7         17           0        2.924587   -0.895185    0.385405
      8          1           0       -2.406126    0.736490   -0.317084
      9          1           0       -1.861856   -1.673949   -0.069643
     10          1           0        0.493277   -2.392092    0.240505
     11          1           0        1.769730    1.699410    0.057719
     12          1           0       -0.583843    2.422552   -0.252653
 ---------------------------------------------------------------------
                    Distance matrix (angstroms):
                    1          2          3          4          5
     1  C    0.000000
     2  C    1.393834   0.000000
     3  C    2.419976   1.393882   0.000000
     4  C    2.774814   2.399688   1.391626   0.000000
     5  C    2.419976   2.791806   2.427102   1.391626   0.000000
     6  C    1.393834   2.410806   2.791806   2.399688   1.393882
     7  Cl   4.535347   4.020460   2.726600   1.760534   2.726600
     8  H    1.083581   2.152578   3.401150   3.858395   3.401150
     9  H    2.153793   1.084042   2.144153   3.380843   3.875837
    10  H    3.405654   2.160465   1.082484   2.148849   3.403493
    11  H    3.405654   3.874234   3.403493   2.148849   1.082484
    12  H    2.153793   3.395566   3.875837   3.380843   2.144153
                    6          7          8          9         10
     6  C    0.000000
     7  Cl   4.020460   0.000000
     8  H    2.152578   5.618929   0.000000
     9  H    3.395566   4.870687   2.483480   0.000000
    10  H    3.874234   2.858845   4.301797   2.481647   0.000000
    11  H    2.160465   2.858845   4.301797   4.958245   4.289886
    12  H    1.084042   4.870687   2.483480   4.295129   4.958245
                   11         12
    11  H    0.000000
    12  H    2.481647   0.000000
 Stoichiometry    C6H5Cl
 Framework group  C1[X(C6H5Cl)]
 Deg. of freedom    30
 Full point group                 C1      NOp   1
 Largest Abelian subgroup         C1      NOp   1
 Largest concise Abelian subgroup C1      NOp   1
                         Standard orientation:                         
 ---------------------------------------------------------------------
 Center     Atomic      Atomic             Coordinates (Angstroms)
 Number     Number       Type             X           Y           Z
 ---------------------------------------------------------------------
      1          6           0        2.272529    0.000000    0.000000
      2          6           0        1.572687   -1.205403    0.000000
      3          6           0        0.178829   -1.213551   -0.000000
      4          6           0       -0.502285    0.000000   -0.000000
      5          6           0        0.178829    1.213551   -0.000000
      6          6           0        1.572687    1.205403    0.000000
      7         17           0       -2.262818    0.000000    0.000000
      8          1           0        3.356110    0.000000    0.000002
      9          1           0        2.108858   -2.147565   -0.000001
     10          1           0       -0.372788   -2.144943   -0.000002
     11          1           0       -0.372788    2.144943   -0.000002
     12          1           0        2.108858    2.147565   -0.000000
 ---------------------------------------------------------------------
 Rotational constants (GHZ):           5.6920592           1.5595298           1.2241367
 Standard basis: 6-311++G(d,p) (5D, 7F)
 There are   204 symmetry adapted cartesian basis functions of A   symmetry.
 There are   197 symmetry adapted basis functions of A   symmetry.
   197 basis functions,   314 primitive gaussians,   204 cartesian basis functions
    29 alpha electrons       29 beta electrons
       nuclear repulsion energy       314.9384884826 Hartrees.
 NAtoms=   12 NActive=   12 NUniq=   12 SFac= 1.00D+00 NAtFMM=   60 NAOKFM=F Big=F
 Integral buffers will be    131072 words long.
 Raffenetti 2 integral format.
 Two-electron integral symmetry is turned on.
 One-electron integrals computed using PRISM.
 NBasis=   197 RedAO= T EigKep=  1.13D-06  NBF=   197
 NBsUse=   197 1.00D-06 EigRej= -1.00D+00 NBFU=   197
 Initial guess from the checkpoint file:  "C1=CC=C(C=C1)Cl.chk"
 B after Tr=     0.000000   -0.000000   -0.000000
         Rot=    1.000000   -0.000000   -0.000000    0.000000 Ang=   0.00 deg.
 Keep R1 ints in memory in canonical form, NReq=198470495.
 Requested convergence on RMS density matrix=1.00D-08 within 128 cycles.
 Requested convergence on MAX density matrix=1.00D-06.
 Requested convergence on             energy=1.00D-06.
 No special actions if energy rises.
 SCF Done:  E(RB3LYP) =  -691.934289143     A.U. after    1 cycles
            NFock=  1  Conv=0.66D-08     -V/T= 2.0031
 DoSCS=F DFT=T ScalE2(SS,OS)=  1.000000  1.000000
 Range of M.O.s used for correlation:     1   197
 NBasis=   197 NAE=    29 NBE=    29 NFC=     0 NFV=     0
 NROrb=    197 NOA=    29 NOB=    29 NVA=   168 NVB=   168

 **** Warning!!: The largest alpha MO coefficient is  0.20003365D+03

 Symmetrizing basis deriv contribution to polar:
 IMax=3 JMax=2 DiffMx= 0.00D+00
 G2DrvN: will do    13 centers at a time, making    1 passes.
 Calling FoFCou, ICntrl=  3107 FMM=F I1Cent=   0 AccDes= 0.00D+00.
 End of G2Drv F.D. properties file   721 does not exist.
 End of G2Drv F.D. properties file   722 does not exist.
 End of G2Drv F.D. properties file   788 does not exist.
          IDoAtm=111111111111
          Differentiating once with respect to electric field.
                with respect to dipole field.
          Differentiating once with respect to nuclear coordinates.
 Keep R1 ints in memory in canonical form, NReq=198454840.
          There are    39 degrees of freedom in the 1st order CPHF.  IDoFFX=6 NUNeed=     3.
     36 vectors produced by pass  0 Test12= 1.25D-14 2.56D-09 XBig12= 1.26D+02 7.14D+00.
 AX will form    36 AO Fock derivatives at one time.
     36 vectors produced by pass  1 Test12= 1.25D-14 2.56D-09 XBig12= 2.28D+01 1.07D+00.
     36 vectors produced by pass  2 Test12= 1.25D-14 2.56D-09 XBig12= 1.61D-01 6.84D-02.
     36 vectors produced by pass  3 Test12= 1.25D-14 2.56D-09 XBig12= 5.04D-04 5.13D-03.
     36 vectors produced by pass  4 Test12= 1.25D-14 2.56D-09 XBig12= 2.10D-06 3.10D-04.
     32 vectors produced by pass  5 Test12= 1.25D-14 2.56D-09 XBig12= 5.09D-09 1.10D-05.
     12 vectors produced by pass  6 Test12= 1.25D-14 2.56D-09 XBig12= 6.13D-12 3.44D-07.
      3 vectors produced by pass  7 Test12= 1.25D-14 2.56D-09 XBig12= 8.79D-15 1.81D-08.
 InvSVY:  IOpt=1 It=  1 EMax= 7.11D-15
 Solved reduced A of dimension   227 with    39 vectors.
 Isotropic polarizability for W=    0.000000       79.14 Bohr**3.
 End of Minotr F.D. properties file   721 does not exist.
 End of Minotr F.D. properties file   722 does not exist.
 End of Minotr F.D. properties file   788 does not exist.

 **********************************************************************

            Population analysis using the SCF Density.

 **********************************************************************

 Orbital symmetries:
       Occupied  (A) (A) (A) (A) (A) (A) (A) (A) (A) (A) (A) (A)
                 (A) (A) (A) (A) (A) (A) (A) (A) (A) (A) (A) (A)
                 (A) (A) (A) (A) (A)
       Virtual   (A) (A) (A) (A) (A) (A) (A) (A) (A) (A) (A) (A)
                 (A) (A) (A) (A) (A) (A) (A) (A) (A) (A) (A) (A)
                 (A) (A) (A) (A) (A) (A) (A) (A) (A) (A) (A) (A)
                 (A) (A) (A) (A) (A) (A) (A) (A) (A) (A) (A) (A)
                 (A) (A) (A) (A) (A) (A) (A) (A) (A) (A) (A) (A)
                 (A) (A) (A) (A) (A) (A) (A) (A) (A) (A) (A) (A)
                 (A) (A) (A) (A) (A) (A) (A) (A) (A) (A) (A) (A)
                 (A) (A) (A) (A) (A) (A) (A) (A) (A) (A) (A) (A)
                 (A) (A) (A) (A) (A) (A) (A) (A) (A) (A) (A) (A)
                 (A) (A) (A) (A) (A) (A) (A) (A) (A) (A) (A) (A)
                 (A) (A) (A) (A) (A) (A) (A) (A) (A) (A) (A) (A)
                 (A) (A) (A) (A) (A) (A) (A) (A) (A) (A) (A) (A)
                 (A) (A) (A) (A) (A) (A) (A) (A) (A) (A) (A) (A)
                 (A) (A) (A) (A) (A) (A) (A) (A) (A) (A) (A) (A)
 The electronic state is 1-A.
 Alpha  occ. eigenvalues -- -101.55616 -10.24513 -10.19459 -10.19458 -10.19354
 Alpha  occ. eigenvalues --  -10.19351 -10.18974  -9.47076  -7.23531  -7.22561
 Alpha  occ. eigenvalues --   -7.22528  -0.89964  -0.84492  -0.76913  -0.74443
 Alpha  occ. eigenvalues --   -0.62976  -0.61110  -0.53621  -0.47957  -0.47699
 Alpha  occ. eigenvalues --   -0.44427  -0.44090  -0.40495  -0.37324  -0.37196
 Alpha  occ. eigenvalues --   -0.34172  -0.31977  -0.27499  -0.25749
 Alpha virt. eigenvalues --   -0.03174  -0.02992  -0.01180   0.00696   0.01070
 Alpha virt. eigenvalues --    0.01429   0.03370   0.03987   0.05367   0.05611
 Alpha virt. eigenvalues --    0.07809   0.08135   0.08436   0.08590   0.10689
 Alpha virt. eigenvalues --    0.11521   0.11556   0.11589   0.12447   0.12731
 Alpha virt. eigenvalues --    0.12747   0.13255   0.13325   0.13623   0.14072
 Alpha virt. eigenvalues --    0.14698   0.15475   0.17856   0.17913   0.18833
 Alpha virt. eigenvalues --    0.19688   0.21243   0.21502   0.22674   0.24225
 Alpha virt. eigenvalues --    0.25561   0.26174   0.27374   0.27385   0.28340
 Alpha virt. eigenvalues --    0.28414   0.30301   0.33002   0.34095   0.34699
 Alpha virt. eigenvalues --    0.34845   0.44218   0.46213   0.46240   0.47506
 Alpha virt. eigenvalues --    0.48194   0.52590   0.53296   0.54182   0.54731
 Alpha virt. eigenvalues --    0.54875   0.56240   0.57556   0.58056   0.60166
 Alpha virt. eigenvalues --    0.60183   0.60532   0.65970   0.67180   0.71107
 Alpha virt. eigenvalues --    0.71253   0.72693   0.76443   0.77431   0.82706
 Alpha virt. eigenvalues --    0.83366   0.83936   0.84292   0.86242   0.86696
 Alpha virt. eigenvalues --    0.86999   0.87355   0.87785   0.88305   0.93589
 Alpha virt. eigenvalues --    0.95346   0.98134   0.99426   1.00180   1.02989
 Alpha virt. eigenvalues --    1.06302   1.10022   1.12262   1.16324   1.19068
 Alpha virt. eigenvalues --    1.29291   1.31302   1.37749   1.46834   1.50316
 Alpha virt. eigenvalues --    1.51333   1.55425   1.55471   1.55502   1.61058
 Alpha virt. eigenvalues --    1.63695   1.63721   1.67957   1.71505   1.72734
 Alpha virt. eigenvalues --    1.76011   1.81476   1.86458   1.90865   1.90924
 Alpha virt. eigenvalues --    1.92263   1.93255   1.94116   1.98534   1.99712
 Alpha virt. eigenvalues --    2.02980   2.05065   2.06754   2.23806   2.26290
 Alpha virt. eigenvalues --    2.30651   2.32626   2.40411   2.41820   2.42216
 Alpha virt. eigenvalues --    2.43196   2.51759   2.53933   2.61066   2.63642
 Alpha virt. eigenvalues --    2.64740   2.68941   2.70484   2.73007   2.74030
 Alpha virt. eigenvalues --    2.77607   2.77671   2.77716   2.82883   2.84300
 Alpha virt. eigenvalues --    2.86851   2.87276   2.93301   3.06237   3.11694
 Alpha virt. eigenvalues --    3.19203   3.32136   3.34557   3.46999   3.48603
 Alpha virt. eigenvalues --    3.62268   3.77619   3.98113   4.03890   4.12293
 Alpha virt. eigenvalues --    4.13559   4.82585   9.77273  23.52208  23.90666
 Alpha virt. eigenvalues --   23.95958  24.05584  24.08085  24.17688  25.82569
 Alpha virt. eigenvalues --   26.12921  26.61486 215.76277
          Condensed to atoms (all electrons):
               1          2          3          4          5          6
     1  C    5.832077   0.301011   0.315424  -1.403625   0.315424   0.301011
     2  C    0.301011   6.209113   0.631121  -0.273270  -1.190994   0.326609
     3  C    0.315424   0.631121  12.209040  -1.506577  -4.545296  -1.190994
     4  C   -1.403625  -0.273270  -1.506577  11.425825  -1.506577  -0.273270
     5  C    0.315424  -1.190994  -4.545296  -1.506577  12.209041   0.631122
     6  C    0.301011   0.326609  -1.190994  -0.273270   0.631122   6.209113
     7  Cl   0.048759   0.093858   0.053853  -0.764744   0.053853   0.093858
     8  H    0.381061  -0.025733  -0.014442   0.022643  -0.014442  -0.025733
     9  H   -0.011313   0.356474  -0.056399   0.015462   0.059237  -0.033109
    10  H    0.034505  -0.023017   0.585656  -0.181372  -0.108862  -0.005161
    11  H    0.034505  -0.005161  -0.108862  -0.181372   0.585656  -0.023017
    12  H   -0.011313  -0.033109   0.059237   0.015462  -0.056399   0.356474
               7          8          9         10         11         12
     1  C    0.048759   0.381061  -0.011313   0.034505   0.034505  -0.011313
     2  C    0.093858  -0.025733   0.356474  -0.023017  -0.005161  -0.033109
     3  C    0.053853  -0.014442  -0.056399   0.585656  -0.108862   0.059237
     4  C   -0.764744   0.022643   0.015462  -0.181372  -0.181372   0.015462
     5  C    0.053853  -0.014442   0.059237  -0.108862   0.585656  -0.056399
     6  C    0.093858  -0.025733  -0.033109  -0.005161  -0.023017   0.356474
     7  Cl  17.106756   0.000675  -0.004835   0.017173   0.017173  -0.004835
     8  H    0.000675   0.530284  -0.006231  -0.000318  -0.000318  -0.006231
     9  H   -0.004835  -0.006231   0.527543  -0.015299   0.002370  -0.003428
    10  H    0.017173  -0.000318  -0.015299   0.529136  -0.003395   0.002370
    11  H    0.017173  -0.000318   0.002370  -0.003395   0.529136  -0.015299
    12  H   -0.004835  -0.006231  -0.003428   0.002370  -0.015299   0.527543
 Mulliken charges:
               1
     1  C   -0.137527
     2  C   -0.366905
     3  C   -0.431764
     4  C    0.611413
     5  C   -0.431764
     6  C   -0.366905
     7  Cl   0.288455
     8  H    0.158783
     9  H    0.169526
    10  H    0.168581
    11  H    0.168581
    12  H    0.169526
 Sum of Mulliken charges =  -0.00000
 Mulliken charges with hydrogens summed into heavy atoms:
               1
     1  C    0.021256
     2  C   -0.197379
     3  C   -0.263183
     4  C    0.611413
     5  C   -0.263183
     6  C   -0.197379
     7  Cl   0.288455
 APT charges:
               1
     1  C   -0.064744
     2  C    0.007335
     3  C   -0.137829
     4  C    0.432387
     5  C   -0.137829
     6  C    0.007335
     7  Cl  -0.342081
     8  H    0.040227
     9  H    0.035000
    10  H    0.062599
    11  H    0.062599
    12  H    0.035000
 Sum of APT charges =  -0.00000
 APT charges with hydrogens summed into heavy atoms:
               1
     1  C   -0.024517
     2  C    0.042335
     3  C   -0.075229
     4  C    0.432387
     5  C   -0.075229
     6  C    0.042335
     7  Cl  -0.342081
 Electronic spatial extent (au):  <R**2>=            903.3330
 Charge=              0.0000 electrons
 Dipole moment (field-independent basis, Debye):
    X=              1.8605    Y=             -0.0000    Z=             -0.0000  Tot=              1.8605
 Quadrupole moment (field-independent basis, Debye-Ang):
   XX=            -46.6066   YY=            -42.6560   ZZ=            -51.8512
   XY=              0.0000   XZ=              0.0000   YZ=             -0.0000
 Traceless Quadrupole moment (field-independent basis, Debye-Ang):
   XX=              0.4313   YY=              4.3819   ZZ=             -4.8132
   XY=              0.0000   XZ=              0.0000   YZ=             -0.0000
 Octapole moment (field-independent basis, Debye-Ang**2):
  XXX=              4.8050  YYY=              0.0000  ZZZ=              0.0000  XYY=              1.1952
  XXY=              0.0000  XXZ=              0.0000  XZZ=             -6.9186  YZZ=              0.0000
  YYZ=             -0.0000  XYZ=              0.0000
 Hexadecapole moment (field-independent basis, Debye-Ang**3):
 XXXX=           -800.9495 YYYY=           -280.5922 ZZZZ=            -62.3043 XXXY=             -0.0000
 XXXZ=              0.0000 YYYX=              0.0000 YYYZ=             -0.0000 ZZZX=             -0.0000
 ZZZY=             -0.0000 XXYY=           -184.6877 XXZZ=           -165.6019 YYZZ=            -68.9581
 XXYZ=              0.0000 YYXZ=             -0.0000 ZZXY=             -0.0000
 N-N= 3.149384884826D+02 E-N=-2.261030522872D+03  KE= 6.897868680502D+02
  Exact polarizability:     107.143       0.000      83.578       0.000       0.000      46.694
 Approx polarizability:     164.198       0.000     138.044       0.000       0.000      68.622
 ******************************Gaussian NBO Version 3.1******************************
             N A T U R A L   A T O M I C   O R B I T A L   A N D
          N A T U R A L   B O N D   O R B I T A L   A N A L Y S I S
 ******************************Gaussian NBO Version 3.1******************************
       /RESON  / : Allow strongly delocalized NBO set

 Analyzing the SCF density

 Job title: C1=CC=C(C=C1)Cl                                                 

 Storage needed:    117425 in NPA,    156001 in NBO (1258290384 available)
 GSVD:  LWork=        9049 too small for GESVD, short by       49391 words or       49391 for optimal perf.


 NATURAL POPULATIONS:  Natural atomic orbital occupancies 
                                                          
   NAO  Atom  No  lang   Type(AO)    Occupancy      Energy
 ----------------------------------------------------------
     1    C    1  S      Cor( 1S)     1.99915     -10.04343
     2    C    1  S      Val( 2S)     0.95245      -0.17466
     3    C    1  S      Ryd( 3S)     0.00135       0.80858
     4    C    1  S      Ryd( 4S)     0.00006       1.20977
     5    C    1  S      Ryd( 5S)     0.00000      22.54280
     6    C    1  px     Val( 2p)     1.17460      -0.06156
     7    C    1  px     Ryd( 4p)     0.00654       1.06337
     8    C    1  px     Ryd( 3p)     0.00016       0.50100
     9    C    1  px     Ryd( 5p)     0.00005       3.04644
    10    C    1  py     Val( 2p)     1.06116      -0.05889
    11    C    1  py     Ryd( 4p)     0.00460       0.76519
    12    C    1  py     Ryd( 3p)     0.00051       0.37228
    13    C    1  py     Ryd( 5p)     0.00014       3.05849
    14    C    1  pz     Val( 2p)     1.00240      -0.12057
    15    C    1  pz     Ryd( 4p)     0.00116       0.50658
    16    C    1  pz     Ryd( 3p)     0.00024       0.29403
    17    C    1  pz     Ryd( 5p)     0.00002       2.67477
    18    C    1  dxy    Ryd( 3d)     0.00067       2.58196
    19    C    1  dxz    Ryd( 3d)     0.00039       1.59994
    20    C    1  dyz    Ryd( 3d)     0.00047       1.66204
    21    C    1  dx2y2  Ryd( 3d)     0.00084       2.47498
    22    C    1  dz2    Ryd( 3d)     0.00039       2.06106
 
    23    C    2  S      Cor( 1S)     1.99915     -10.04748
    24    C    2  S      Val( 2S)     0.95201      -0.17672
    25    C    2  S      Ryd( 3S)     0.00141       0.76141
    26    C    2  S      Ryd( 4S)     0.00009       0.95510
    27    C    2  S      Ryd( 5S)     0.00000      22.78552
    28    C    2  px     Val( 2p)     1.07935      -0.05781
    29    C    2  px     Ryd( 4p)     0.00499       0.85719
    30    C    2  px     Ryd( 3p)     0.00038       0.37436
    31    C    2  px     Ryd( 5p)     0.00013       3.07065
    32    C    2  py     Val( 2p)     1.14889      -0.06334
    33    C    2  py     Ryd( 4p)     0.00633       0.99725
    34    C    2  py     Ryd( 3p)     0.00022       0.43414
    35    C    2  py     Ryd( 5p)     0.00008       3.09012
    36    C    2  pz     Val( 2p)     0.98932      -0.12210
    37    C    2  pz     Ryd( 4p)     0.00087       0.51592
    38    C    2  pz     Ryd( 3p)     0.00031       0.29034
    39    C    2  pz     Ryd( 5p)     0.00001       2.66742
    40    C    2  dxy    Ryd( 3d)     0.00076       2.49681
    41    C    2  dxz    Ryd( 3d)     0.00051       1.64425
    42    C    2  dyz    Ryd( 3d)     0.00041       1.61294
    43    C    2  dx2y2  Ryd( 3d)     0.00069       2.55186
    44    C    2  dz2    Ryd( 3d)     0.00040       2.03804
 
    45    C    3  S      Cor( 1S)     1.99896     -10.04334
    46    C    3  S      Val( 2S)     0.94871      -0.17186
    47    C    3  S      Ryd( 3S)     0.00186       0.81405
    48    C    3  S      Ryd( 4S)     0.00023       1.08054
    49    C    3  S      Ryd( 5S)     0.00001      22.71692
    50    C    3  px     Val( 2p)     1.10137      -0.07019
    51    C    3  px     Ryd( 4p)     0.00612       0.85852
    52    C    3  px     Ryd( 3p)     0.00031       0.39596
    53    C    3  px     Ryd( 5p)     0.00011       3.10669
    54    C    3  py     Val( 2p)     1.15599      -0.07916
    55    C    3  py     Ryd( 4p)     0.00531       0.96596
    56    C    3  py     Ryd( 3p)     0.00020       0.39965
    57    C    3  py     Ryd( 5p)     0.00009       3.11033
    58    C    3  pz     Val( 2p)     1.00151      -0.12390
    59    C    3  pz     Ryd( 4p)     0.00114       0.50672
    60    C    3  pz     Ryd( 3p)     0.00048       0.27425
    61    C    3  pz     Ryd( 5p)     0.00001       2.69920
    62    C    3  dxy    Ryd( 3d)     0.00082       2.48899
    63    C    3  dxz    Ryd( 3d)     0.00047       1.64056
    64    C    3  dyz    Ryd( 3d)     0.00047       1.61461
    65    C    3  dx2y2  Ryd( 3d)     0.00070       2.55248
    66    C    3  dz2    Ryd( 3d)     0.00040       2.04174
 
    67    C    4  S      Cor( 1S)     1.99858     -10.11476
    68    C    4  S      Val( 2S)     0.93491      -0.22312
    69    C    4  S      Ryd( 4S)     0.00086       0.84504
    70    C    4  S      Ryd( 3S)     0.00018       0.45915
    71    C    4  S      Ryd( 5S)     0.00001      23.27232
    72    C    4  px     Val( 2p)     0.91668      -0.15995
    73    C    4  px     Ryd( 4p)     0.00740       0.95617
    74    C    4  px     Ryd( 3p)     0.00023       0.42022
    75    C    4  px     Ryd( 5p)     0.00041       3.01855
    76    C    4  py     Val( 2p)     1.09674      -0.08702
    77    C    4  py     Ryd( 4p)     0.00657       0.80051
    78    C    4  py     Ryd( 3p)     0.00018       0.36846
    79    C    4  py     Ryd( 5p)     0.00017       3.30558
    80    C    4  pz     Val( 2p)     1.06596      -0.15082
    81    C    4  pz     Ryd( 4p)     0.00107       0.59046
    82    C    4  pz     Ryd( 3p)     0.00038       0.29825
    83    C    4  pz     Ryd( 5p)     0.00001       2.64312
    84    C    4  dxy    Ryd( 3d)     0.00118       2.44553
    85    C    4  dxz    Ryd( 3d)     0.00144       1.47480
    86    C    4  dyz    Ryd( 3d)     0.00064       1.63922
    87    C    4  dx2y2  Ryd( 3d)     0.00191       2.20510
    88    C    4  dz2    Ryd( 3d)     0.00085       1.97522
 
    89    C    5  S      Cor( 1S)     1.99896     -10.04334
    90    C    5  S      Val( 2S)     0.94871      -0.17186
    91    C    5  S      Ryd( 3S)     0.00186       0.81405
    92    C    5  S      Ryd( 4S)     0.00023       1.08054
    93    C    5  S      Ryd( 5S)     0.00001      22.71692
    94    C    5  px     Val( 2p)     1.10137      -0.07019
    95    C    5  px     Ryd( 4p)     0.00612       0.85852
    96    C    5  px     Ryd( 3p)     0.00031       0.39596
    97    C    5  px     Ryd( 5p)     0.00011       3.10669
    98    C    5  py     Val( 2p)     1.15599      -0.07916
    99    C    5  py     Ryd( 4p)     0.00531       0.96596
   100    C    5  py     Ryd( 3p)     0.00020       0.39965
   101    C    5  py     Ryd( 5p)     0.00009       3.11033
   102    C    5  pz     Val( 2p)     1.00151      -0.12390
   103    C    5  pz     Ryd( 4p)     0.00114       0.50672
   104    C    5  pz     Ryd( 3p)     0.00048       0.27425
   105    C    5  pz     Ryd( 5p)     0.00001       2.69920
   106    C    5  dxy    Ryd( 3d)     0.00082       2.48899
   107    C    5  dxz    Ryd( 3d)     0.00047       1.64056
   108    C    5  dyz    Ryd( 3d)     0.00047       1.61461
   109    C    5  dx2y2  Ryd( 3d)     0.00070       2.55248
   110    C    5  dz2    Ryd( 3d)     0.00040       2.04174
 
   111    C    6  S      Cor( 1S)     1.99915     -10.04748
   112    C    6  S      Val( 2S)     0.95201      -0.17672
   113    C    6  S      Ryd( 3S)     0.00141       0.76141
   114    C    6  S      Ryd( 4S)     0.00009       0.95510
   115    C    6  S      Ryd( 5S)     0.00000      22.78552
   116    C    6  px     Val( 2p)     1.07935      -0.05781
   117    C    6  px     Ryd( 4p)     0.00499       0.85719
   118    C    6  px     Ryd( 3p)     0.00038       0.37436
   119    C    6  px     Ryd( 5p)     0.00013       3.07065
   120    C    6  py     Val( 2p)     1.14889      -0.06334
   121    C    6  py     Ryd( 4p)     0.00633       0.99725
   122    C    6  py     Ryd( 3p)     0.00022       0.43414
   123    C    6  py     Ryd( 5p)     0.00008       3.09012
   124    C    6  pz     Val( 2p)     0.98932      -0.12210
   125    C    6  pz     Ryd( 4p)     0.00087       0.51592
   126    C    6  pz     Ryd( 3p)     0.00031       0.29034
   127    C    6  pz     Ryd( 5p)     0.00001       2.66742
   128    C    6  dxy    Ryd( 3d)     0.00076       2.49681
   129    C    6  dxz    Ryd( 3d)     0.00051       1.64425
   130    C    6  dyz    Ryd( 3d)     0.00041       1.61294
   131    C    6  dx2y2  Ryd( 3d)     0.00069       2.55186
   132    C    6  dz2    Ryd( 3d)     0.00040       2.03804
 
   133   Cl    7  S      Cor( 1S)     2.00000    -100.22211
   134   Cl    7  S      Cor( 2S)     1.99972     -10.47933
   135   Cl    7  S      Val( 3S)     1.83737      -1.00676
   136   Cl    7  S      Ryd( 4S)     0.00234       0.67883
   137   Cl    7  S      Ryd( 5S)     0.00006       1.18881
   138   Cl    7  S      Ryd( 6S)     0.00000      17.20628
   139   Cl    7  S      Ryd( 7S)     0.00000     207.81328
   140   Cl    7  px     Cor( 2p)     1.99991      -7.22839
   141   Cl    7  px     Val( 3p)     1.24414      -0.27380
   142   Cl    7  px     Ryd( 4p)     0.00388       0.35590
   143   Cl    7  px     Ryd( 5p)     0.00015       0.54107
   144   Cl    7  px     Ryd( 6p)     0.00003       4.16488
   145   Cl    7  px     Ryd( 7p)     0.00000      24.38921
   146   Cl    7  py     Cor( 2p)     1.99999      -7.22028
   147   Cl    7  py     Val( 3p)     1.97137      -0.32358
   148   Cl    7  py     Ryd( 4p)     0.00200       0.38409
   149   Cl    7  py     Ryd( 5p)     0.00008       0.63824
   150   Cl    7  py     Ryd( 6p)     0.00001       3.51777
   151   Cl    7  py     Ryd( 7p)     0.00000      24.39083
   152   Cl    7  pz     Cor( 2p)     1.99999      -7.22062
   153   Cl    7  pz     Val( 3p)     1.92936      -0.32205
   154   Cl    7  pz     Ryd( 4p)     0.00196       0.37988
   155   Cl    7  pz     Ryd( 5p)     0.00011       0.57742
   156   Cl    7  pz     Ryd( 6p)     0.00000       3.31015
   157   Cl    7  pz     Ryd( 7p)     0.00000      24.37405
   158   Cl    7  dxy    Ryd( 3d)     0.00112       1.12199
   159   Cl    7  dxz    Ryd( 3d)     0.00237       0.93314
   160   Cl    7  dyz    Ryd( 3d)     0.00004       0.86677
   161   Cl    7  dx2y2  Ryd( 3d)     0.00430       1.21155
   162   Cl    7  dz2    Ryd( 3d)     0.00139       0.97855
 
   163    H    8  S      Val( 1S)     0.78989       0.04416
   164    H    8  S      Ryd( 3S)     0.00076       0.67093
   165    H    8  S      Ryd( 4S)     0.00018       2.05739
   166    H    8  S      Ryd( 2S)     0.00002       0.20937
   167    H    8  px     Ryd( 2p)     0.00045       2.69596
   168    H    8  py     Ryd( 2p)     0.00012       1.96160
   169    H    8  pz     Ryd( 2p)     0.00019       1.58531
 
   170    H    9  S      Val( 1S)     0.78919       0.04280
   171    H    9  S      Ryd( 3S)     0.00075       0.60142
   172    H    9  S      Ryd( 4S)     0.00019       2.13754
   173    H    9  S      Ryd( 2S)     0.00002       0.20216
   174    H    9  px     Ryd( 2p)     0.00020       2.13429
   175    H    9  py     Ryd( 2p)     0.00038       2.50760
   176    H    9  pz     Ryd( 2p)     0.00019       1.58266
 
   177    H   10  S      Val( 1S)     0.77694       0.04304
   178    H   10  S      Ryd( 2S)     0.00087       0.69341
   179    H   10  S      Ryd( 3S)     0.00023       0.77480
   180    H   10  S      Ryd( 4S)     0.00017       1.51242
   181    H   10  px     Ryd( 2p)     0.00023       2.15576
   182    H   10  py     Ryd( 2p)     0.00036       2.49923
   183    H   10  pz     Ryd( 2p)     0.00018       1.58825
 
   184    H   11  S      Val( 1S)     0.77694       0.04304
   185    H   11  S      Ryd( 2S)     0.00087       0.69341
   186    H   11  S      Ryd( 3S)     0.00023       0.77480
   187    H   11  S      Ryd( 4S)     0.00017       1.51242
   188    H   11  px     Ryd( 2p)     0.00023       2.15576
   189    H   11  py     Ryd( 2p)     0.00036       2.49923
   190    H   11  pz     Ryd( 2p)     0.00018       1.58825
 
   191    H   12  S      Val( 1S)     0.78919       0.04280
   192    H   12  S      Ryd( 3S)     0.00075       0.60142
   193    H   12  S      Ryd( 4S)     0.00019       2.13754
   194    H   12  S      Ryd( 2S)     0.00002       0.20216
   195    H   12  px     Ryd( 2p)     0.00020       2.13429
   196    H   12  py     Ryd( 2p)     0.00038       2.50760
   197    H   12  pz     Ryd( 2p)     0.00019       1.58266

 WARNING:  1 low occupancy (<1.9990e) core orbital  found on  C    3
           1 low occupancy (<1.9990e) core orbital  found on  C    4
           1 low occupancy (<1.9990e) core orbital  found on  C    5

 WARNING:  Population inversion found on atom  C    1
           Population inversion found on atom  C    2
           Population inversion found on atom  C    3
           Population inversion found on atom  C    4
           Population inversion found on atom  C    5
           Population inversion found on atom  C    6
           Population inversion found on atom  H    8
           Population inversion found on atom  H    9
           Population inversion found on atom  H   12


 Summary of Natural Population Analysis:                  
                                                          
                                       Natural Population 
                Natural  -----------------------------------------------
    Atom  No    Charge         Core      Valence    Rydberg      Total
 -----------------------------------------------------------------------
      C    1   -0.20737      1.99915     4.19062    0.01760     6.20737
      C    2   -0.18632      1.99915     4.16957    0.01760     6.18632
      C    3   -0.22526      1.99896     4.20757    0.01873     6.22526
      C    4   -0.03638      1.99858     4.01430    0.02351     6.03638
      C    5   -0.22526      1.99896     4.20757    0.01873     6.22526
      C    6   -0.18632      1.99915     4.16957    0.01760     6.18632
     Cl    7   -0.00170      9.99962     6.98224    0.01984    17.00170
      H    8    0.20838      0.00000     0.78989    0.00173     0.79162
      H    9    0.20909      0.00000     0.78919    0.00172     0.79091
      H   10    0.22102      0.00000     0.77694    0.00203     0.77898
      H   11    0.22102      0.00000     0.77694    0.00203     0.77898
      H   12    0.20909      0.00000     0.78919    0.00172     0.79091
 =======================================================================
   * Total *   -0.00000     21.99357    35.86359    0.14284    58.00000

                                 Natural Population      
 --------------------------------------------------------
   Core                      21.99357 ( 99.9708% of  22)
   Valence                   35.86359 ( 99.6211% of  36)
   Natural Minimal Basis     57.85716 ( 99.7537% of  58)
   Natural Rydberg Basis      0.14284 (  0.2463% of  58)
 --------------------------------------------------------

    Atom  No          Natural Electron Configuration
 ----------------------------------------------------------------------------
      C    1      [core]2S( 0.95)2p( 3.24)4p( 0.01)
      C    2      [core]2S( 0.95)2p( 3.22)4p( 0.01)
      C    3      [core]2S( 0.95)2p( 3.26)4p( 0.01)
      C    4      [core]2S( 0.93)2p( 3.08)3d( 0.01)4p( 0.02)
      C    5      [core]2S( 0.95)2p( 3.26)4p( 0.01)
      C    6      [core]2S( 0.95)2p( 3.22)4p( 0.01)
     Cl    7      [core]3S( 1.84)3p( 5.14)3d( 0.01)4p( 0.01)
      H    8            1S( 0.79)
      H    9            1S( 0.79)
      H   10            1S( 0.78)
      H   11            1S( 0.78)
      H   12            1S( 0.79)


 NATURAL BOND ORBITAL ANALYSIS:

                       Occupancies       Lewis Structure    Low   High
           Occ.    -------------------  -----------------   occ   occ
  Cycle   Thresh.   Lewis   Non-Lewis     CR  BD  3C  LP    (L)   (NL)   Dev
 =============================================================================
   1(1)    1.90    54.70776   3.29224     11  12   0   6     3      3    0.43
   2(2)    1.90    54.70776   3.29224     11  12   0   6     3      3    0.43
   3(1)    1.80    54.70776   3.29224     11  12   0   6     3      3    0.43
   4(2)    1.80    54.70776   3.29224     11  12   0   6     3      3    0.43
   5(1)    1.70    54.70776   3.29224     11  12   0   6     3      3    0.43
   6(2)    1.70    54.70776   3.29224     11  12   0   6     3      3    0.43
   7(1)    1.60    56.64025   1.35975     11  15   0   3     0      3    0.43
   8(2)    1.60    56.64025   1.35975     11  15   0   3     0      3    0.43
   9(1)    1.50    56.64025   1.35975     11  15   0   3     0      3    0.43
  10(2)    1.50    56.64025   1.35975     11  15   0   3     0      3    0.43
  11(1)    1.60    56.64025   1.35975     11  15   0   3     0      3    0.43
 -----------------------------------------------------------------------------

 Structure accepted: RESONANCE keyword permits strongly delocalized structure

 WARNING:  1 low occupancy (<1.9990e) core orbital  found on  C    3
           1 low occupancy (<1.9990e) core orbital  found on  C    4
           1 low occupancy (<1.9990e) core orbital  found on  C    5

 --------------------------------------------------------
   Core                     21.99359 ( 99.971% of  22)
   Valence Lewis            34.64666 ( 96.241% of  36)
  ==================       ============================
   Total Lewis              56.64025 ( 97.656% of  58)
  -----------------------------------------------------
   Valence non-Lewis         1.27136 (  2.192% of  58)
   Rydberg non-Lewis         0.08839 (  0.152% of  58)
  ==================       ============================
   Total non-Lewis           1.35975 (  2.344% of  58)
 --------------------------------------------------------


       (Occupancy)   Bond orbital/ Coefficients/ Hybrids
 ---------------------------------------------------------------------------------
     1. (1.97981) BD ( 1) C   1 - C   2  
                ( 49.89%)   0.7063* C   1 s( 35.61%)p 1.81( 64.35%)d 0.00(  0.04%)
                                            0.0000  0.5966 -0.0137 -0.0005 -0.0001
                                           -0.3783 -0.0236  0.0083 -0.0003 -0.7059
                                            0.0378  0.0064 -0.0009 -0.0000 -0.0000
                                            0.0000 -0.0000  0.0160  0.0000 -0.0000
                                           -0.0064 -0.0122
                ( 50.11%)   0.7079* C   2 s( 36.05%)p 1.77( 63.91%)d 0.00(  0.04%)
                                            0.0000  0.6002 -0.0150  0.0001 -0.0000
                                            0.4227 -0.0441 -0.0020  0.0004  0.6770
                                            0.0030 -0.0103  0.0003  0.0000  0.0000
                                           -0.0000  0.0000  0.0133  0.0000  0.0000
                                           -0.0105 -0.0120
     2. (1.97981) BD ( 1) C   1 - C   6  
                ( 49.89%)   0.7063* C   1 s( 35.61%)p 1.81( 64.35%)d 0.00(  0.04%)
                                            0.0000  0.5966 -0.0137 -0.0005 -0.0001
                                           -0.3783 -0.0236  0.0083 -0.0003  0.7059
                                           -0.0378 -0.0064  0.0009 -0.0000 -0.0000
                                            0.0000 -0.0000 -0.0160  0.0000  0.0000
                                           -0.0064 -0.0122
                ( 50.11%)   0.7079* C   6 s( 36.05%)p 1.77( 63.91%)d 0.00(  0.04%)
                                            0.0000  0.6002 -0.0150  0.0001 -0.0000
                                            0.4227 -0.0441 -0.0020  0.0004 -0.6770
                                           -0.0030  0.0103 -0.0003  0.0000  0.0000
                                           -0.0000  0.0000 -0.0133  0.0000 -0.0000
                                           -0.0105 -0.0120
     3. (1.66069) BD ( 2) C   1 - C   6  
                ( 50.50%)   0.7106* C   1 s(  0.00%)p 1.00( 99.96%)d 0.00(  0.04%)
                                           -0.0000 -0.0000  0.0000  0.0000  0.0000
                                           -0.0000 -0.0000 -0.0000 -0.0000 -0.0000
                                            0.0000  0.0000 -0.0000  0.9995  0.0176
                                            0.0143 -0.0022 -0.0000 -0.0188  0.0091
                                            0.0000 -0.0000
                ( 49.50%)   0.7036* C   6 s(  0.00%)p 1.00( 99.96%)d 0.00(  0.04%)
                                            0.0000 -0.0000  0.0000  0.0000 -0.0000
                                           -0.0000 -0.0000 -0.0000  0.0000  0.0000
                                            0.0000  0.0000  0.0000  0.9996  0.0148
                                            0.0148 -0.0021  0.0000 -0.0010 -0.0208
                                            0.0000  0.0000
     4. (1.98015) BD ( 1) C   1 - H   8  
                ( 60.50%)   0.7778* C   1 s( 28.79%)p 2.47( 71.16%)d 0.00(  0.04%)
                                           -0.0004  0.5361  0.0235  0.0013  0.0003
                                            0.8434  0.0184  0.0012  0.0016 -0.0000
                                            0.0000 -0.0000 -0.0000  0.0000 -0.0000
                                            0.0000  0.0000  0.0000  0.0000 -0.0000
                                            0.0190 -0.0084
                ( 39.50%)   0.6285* H   8 s( 99.95%)p 0.00(  0.05%)
                                            0.9998  0.0014  0.0010 -0.0001 -0.0217
                                           -0.0000 -0.0000
     5. (1.97151) BD ( 1) C   2 - C   3  
                ( 49.45%)   0.7032* C   2 s( 35.48%)p 1.82( 64.47%)d 0.00(  0.04%)
                                            0.0001  0.5955 -0.0127 -0.0017 -0.0000
                                           -0.8012  0.0195  0.0125 -0.0011 -0.0269
                                            0.0402 -0.0040 -0.0000 -0.0000  0.0000
                                           -0.0000 -0.0000 -0.0024  0.0000  0.0000
                                            0.0166 -0.0122
                ( 50.55%)   0.7110* C   3 s( 35.90%)p 1.78( 64.05%)d 0.00(  0.05%)
                                           -0.0003  0.5990 -0.0162 -0.0066 -0.0002
                                            0.7987 -0.0161 -0.0094  0.0013 -0.0228
                                            0.0403 -0.0042 -0.0008  0.0000  0.0000
                                           -0.0000 -0.0000  0.0041  0.0000  0.0000
                                            0.0168 -0.0123
     6. (1.66502) BD ( 2) C   2 - C   3  
                ( 49.54%)   0.7039* C   2 s(  0.00%)p 1.00( 99.95%)d 0.00(  0.05%)
                                            0.0000  0.0000  0.0000  0.0000  0.0000
                                           -0.0000 -0.0000 -0.0000  0.0000 -0.0000
                                           -0.0000 -0.0000 -0.0000  0.9995  0.0180
                                            0.0174 -0.0014  0.0000 -0.0182  0.0111
                                            0.0000 -0.0000
                ( 50.46%)   0.7103* C   3 s(  0.00%)p 1.00( 99.95%)d 0.00(  0.05%)
                                            0.0000  0.0000  0.0000  0.0000  0.0000
                                           -0.0000 -0.0000 -0.0000 -0.0000 -0.0000
                                           -0.0000 -0.0000 -0.0000  0.9995  0.0167
                                            0.0159 -0.0016 -0.0000  0.0173  0.0128
                                           -0.0000  0.0000
     7. (1.97957) BD ( 1) C   2 - H   9  
                ( 60.51%)   0.7779* C   2 s( 28.47%)p 2.51( 71.49%)d 0.00(  0.04%)
                                            0.0004 -0.5330 -0.0233 -0.0013 -0.0001
                                           -0.4199 -0.0079 -0.0005 -0.0010  0.7337
                                            0.0164  0.0014  0.0015  0.0000  0.0000
                                            0.0000  0.0000  0.0163  0.0000 -0.0000
                                            0.0098  0.0087
                ( 39.49%)   0.6284* H   9 s( 99.95%)p 0.00(  0.05%)
                                           -0.9998 -0.0014 -0.0010 -0.0000  0.0107
                                           -0.0193 -0.0000
     8. (1.97991) BD ( 1) C   3 - C   4  
                ( 49.42%)   0.7030* C   3 s( 35.06%)p 1.85( 64.89%)d 0.00(  0.05%)
                                            0.0000  0.5919 -0.0148  0.0056  0.0007
                                           -0.4238  0.0403  0.0013 -0.0003  0.6838
                                            0.0012 -0.0108 -0.0005  0.0000  0.0000
                                           -0.0000 -0.0000 -0.0145  0.0000  0.0000
                                           -0.0108 -0.0115
                ( 50.58%)   0.7112* C   4 s( 38.80%)p 1.58( 61.16%)d 0.00(  0.04%)
                                            0.0000  0.6228 -0.0050  0.0038 -0.0001
                                            0.3338  0.0170 -0.0073  0.0061 -0.7067
                                            0.0186  0.0048 -0.0068  0.0000  0.0000
                                            0.0000 -0.0000 -0.0146  0.0000 -0.0000
                                           -0.0076 -0.0114
     9. (1.97835) BD ( 1) C   3 - H  10  
                ( 61.13%)   0.7818* C   3 s( 29.05%)p 2.44( 70.90%)d 0.00(  0.04%)
                                            0.0004 -0.5385 -0.0238 -0.0019  0.0004
                                            0.4238  0.0139 -0.0002  0.0001  0.7274
                                            0.0115 -0.0008  0.0016  0.0000  0.0000
                                            0.0000  0.0000 -0.0162 -0.0000 -0.0000
                                            0.0083  0.0091
                ( 38.87%)   0.6235* H  10 s( 99.95%)p 0.00(  0.05%)
                                           -0.9998 -0.0014 -0.0005  0.0011 -0.0117
                                           -0.0182 -0.0000
    10. (1.97991) BD ( 1) C   4 - C   5  
                ( 50.58%)   0.7112* C   4 s( 38.80%)p 1.58( 61.16%)d 0.00(  0.04%)
                                            0.0000  0.6228 -0.0050  0.0038 -0.0001
                                            0.3338  0.0170 -0.0073  0.0061  0.7067
                                           -0.0186 -0.0048  0.0068  0.0000 -0.0000
                                            0.0000 -0.0000  0.0146  0.0000  0.0000
                                           -0.0076 -0.0114
                ( 49.42%)   0.7030* C   5 s( 35.06%)p 1.85( 64.89%)d 0.00(  0.05%)
                                            0.0000  0.5919 -0.0148  0.0056  0.0007
                                           -0.4238  0.0403  0.0013 -0.0003 -0.6838
                                           -0.0012  0.0108  0.0005  0.0000  0.0000
                                           -0.0000 -0.0000  0.0145  0.0000 -0.0000
                                           -0.0108 -0.0115
    11. (1.67912) BD ( 2) C   4 - C   5  
                ( 52.48%)   0.7244* C   4 s(  0.00%)p 1.00( 99.98%)d 0.00(  0.02%)
                                            0.0000 -0.0000  0.0000  0.0000  0.0000
                                           -0.0000  0.0000  0.0000  0.0000  0.0000
                                            0.0000  0.0000 -0.0000  0.9997  0.0066
                                            0.0179  0.0010 -0.0000  0.0100  0.0102
                                           -0.0000  0.0000
                ( 47.52%)   0.6893* C   5 s(  0.00%)p 1.00( 99.95%)d 0.00(  0.05%)
                                            0.0000  0.0000  0.0000  0.0000 -0.0000
                                           -0.0000 -0.0000 -0.0000 -0.0000  0.0000
                                            0.0000  0.0000  0.0000  0.9995  0.0091
                                            0.0187 -0.0016  0.0000  0.0005 -0.0222
                                            0.0000  0.0000
    12. (1.98871) BD ( 1) C   4 -Cl   7  
                ( 45.43%)   0.6740* C   4 s( 22.30%)p 3.48( 77.50%)d 0.01(  0.20%)
                                           -0.0001  0.4720  0.0118 -0.0099  0.0000
                                           -0.8801 -0.0024  0.0097  0.0164  0.0000
                                           -0.0000  0.0000 -0.0000  0.0000 -0.0000
                                           -0.0000 -0.0000 -0.0000 -0.0000 -0.0000
                                            0.0382 -0.0233
                ( 54.57%)   0.7387*Cl   7 s( 17.49%)p 4.69( 82.02%)d 0.03(  0.48%)
                                            0.0000  0.0001  0.4161  0.0425  0.0006
                                           -0.0001 -0.0000  0.0001  0.9041 -0.0528
                                            0.0091 -0.0008  0.0001  0.0000  0.0000
                                           -0.0000 -0.0000 -0.0000 -0.0000 -0.0000
                                           -0.0000  0.0000 -0.0000  0.0000  0.0000
                                            0.0000 -0.0000  0.0000  0.0605 -0.0343
    13. (1.97151) BD ( 1) C   5 - C   6  
                ( 50.55%)   0.7110* C   5 s( 35.90%)p 1.78( 64.05%)d 0.00(  0.05%)
                                           -0.0003  0.5990 -0.0162 -0.0066 -0.0002
                                            0.7987 -0.0161 -0.0094  0.0013  0.0228
                                           -0.0403  0.0042  0.0008  0.0000  0.0000
                                           -0.0000 -0.0000 -0.0041  0.0000 -0.0000
                                            0.0168 -0.0123
                ( 49.45%)   0.7032* C   6 s( 35.48%)p 1.82( 64.47%)d 0.00(  0.04%)
                                            0.0001  0.5955 -0.0127 -0.0017 -0.0000
                                           -0.8012  0.0195  0.0125 -0.0011  0.0269
                                           -0.0402  0.0040  0.0000 -0.0000 -0.0000
                                           -0.0000 -0.0000  0.0024  0.0000 -0.0000
                                            0.0166 -0.0122
    14. (1.97835) BD ( 1) C   5 - H  11  
                ( 61.13%)   0.7818* C   5 s( 29.05%)p 2.44( 70.90%)d 0.00(  0.04%)
                                           -0.0004  0.5385  0.0238  0.0019 -0.0004
                                           -0.4238 -0.0139  0.0002 -0.0001  0.7274
                                            0.0115 -0.0008  0.0016 -0.0000 -0.0000
                                            0.0000 -0.0000 -0.0162  0.0000 -0.0000
                                           -0.0083 -0.0091
                ( 38.87%)   0.6235* H  11 s( 99.95%)p 0.00(  0.05%)
                                            0.9998  0.0014  0.0005 -0.0011  0.0117
                                           -0.0182  0.0000
    15. (1.97957) BD ( 1) C   6 - H  12  
                ( 60.51%)   0.7779* C   6 s( 28.47%)p 2.51( 71.49%)d 0.00(  0.04%)
                                           -0.0004  0.5330  0.0233  0.0013  0.0001
                                            0.4199  0.0079  0.0005  0.0010  0.7337
                                            0.0164  0.0014  0.0015 -0.0000  0.0000
                                            0.0000 -0.0000  0.0163 -0.0000 -0.0000
                                           -0.0098 -0.0087
                ( 39.49%)   0.6284* H  12 s( 99.95%)p 0.00(  0.05%)
                                            0.9998  0.0014  0.0010  0.0000 -0.0107
                                           -0.0193  0.0000
    16. (1.99915) CR ( 1) C   1           s(100.00%)p 0.00(  0.00%)
                                            1.0000  0.0002  0.0000  0.0000  0.0000
                                            0.0004  0.0000 -0.0000  0.0000 -0.0000
                                            0.0000  0.0000 -0.0000  0.0000  0.0000
                                            0.0000 -0.0000  0.0000  0.0000  0.0000
                                            0.0000 -0.0000
    17. (1.99916) CR ( 1) C   2           s(100.00%)p 0.00(  0.00%)
                                            1.0000  0.0001  0.0000  0.0000  0.0000
                                            0.0002  0.0000 -0.0000  0.0000 -0.0003
                                           -0.0000  0.0000 -0.0000 -0.0000 -0.0000
                                           -0.0000  0.0000 -0.0000  0.0000 -0.0000
                                           -0.0000 -0.0000
    18. (1.99896) CR ( 1) C   3           s(100.00%)p 0.00(  0.00%)
                                            1.0000  0.0003  0.0000 -0.0000 -0.0000
                                            0.0000 -0.0000 -0.0000  0.0000 -0.0003
                                            0.0000 -0.0000 -0.0000 -0.0000 -0.0000
                                           -0.0000  0.0000  0.0000 -0.0000 -0.0000
                                            0.0000 -0.0000
    19. (1.99858) CR ( 1) C   4           s(100.00%)p 0.00(  0.00%)
                                            1.0000  0.0000  0.0000 -0.0000  0.0000
                                           -0.0001 -0.0000  0.0000  0.0000  0.0000
                                           -0.0000 -0.0000 -0.0000 -0.0000 -0.0000
                                           -0.0000 -0.0000 -0.0000 -0.0000 -0.0000
                                            0.0000 -0.0000
    20. (1.99896) CR ( 1) C   5           s(100.00%)p 0.00(  0.00%)
                                            1.0000  0.0003  0.0000 -0.0000 -0.0000
                                            0.0000 -0.0000 -0.0000  0.0000  0.0003
                                           -0.0000  0.0000  0.0000 -0.0000 -0.0000
                                           -0.0000  0.0000 -0.0000  0.0000  0.0000
                                            0.0000 -0.0000
    21. (1.99916) CR ( 1) C   6           s(100.00%)p 0.00(  0.00%)
                                            1.0000  0.0001  0.0000  0.0000  0.0000
                                            0.0002  0.0000 -0.0000  0.0000  0.0003
                                            0.0000 -0.0000  0.0000 -0.0000 -0.0000
                                           -0.0000  0.0000  0.0000 -0.0000  0.0000
                                           -0.0000 -0.0000
    22. (2.00000) CR ( 1)Cl   7           s(100.00%)
                                            1.0000 -0.0000  0.0000 -0.0000 -0.0000
                                            0.0000  0.0000 -0.0000 -0.0000  0.0000
                                           -0.0000 -0.0000 -0.0000  0.0000 -0.0000
                                           -0.0000  0.0000  0.0000 -0.0000  0.0000
                                            0.0000 -0.0000  0.0000 -0.0000 -0.0000
                                           -0.0000  0.0000 -0.0000 -0.0000  0.0000
    23. (1.99972) CR ( 2)Cl   7           s(100.00%)p 0.00(  0.00%)
                                           -0.0000  1.0000  0.0002 -0.0000 -0.0000
                                            0.0000  0.0000 -0.0000 -0.0002  0.0000
                                           -0.0000 -0.0000 -0.0000  0.0000 -0.0000
                                           -0.0000  0.0000  0.0000 -0.0000  0.0000
                                            0.0000 -0.0000  0.0000 -0.0000 -0.0000
                                           -0.0000  0.0000 -0.0000 -0.0000  0.0000
    24. (1.99991) CR ( 3)Cl   7           s(  0.00%)p 1.00(100.00%)
                                           -0.0000 -0.0000  0.0001 -0.0000 -0.0000
                                            0.0000  0.0000  1.0000 -0.0002  0.0000
                                           -0.0000 -0.0000 -0.0000  0.0000 -0.0000
                                           -0.0000  0.0000  0.0000 -0.0000  0.0000
                                            0.0000 -0.0000  0.0000 -0.0000 -0.0000
                                           -0.0000  0.0000 -0.0000 -0.0000  0.0000
    25. (1.99999) CR ( 4)Cl   7           s(  0.00%)p 1.00(100.00%)
                                            0.0000  0.0000 -0.0000 -0.0000 -0.0000
                                            0.0000  0.0000  0.0000 -0.0000  0.0000
                                           -0.0000 -0.0000 -0.0000  1.0000  0.0001
                                            0.0000 -0.0000 -0.0000  0.0000  0.0000
                                            0.0000  0.0000  0.0000  0.0000 -0.0000
                                            0.0000  0.0000 -0.0000 -0.0000  0.0000
    26. (1.99999) CR ( 5)Cl   7           s(  0.00%)p 1.00(100.00%)
                                            0.0000  0.0000 -0.0000  0.0000  0.0000
                                           -0.0000  0.0000  0.0000  0.0000 -0.0000
                                            0.0000  0.0000  0.0000  0.0000  0.0000
                                            0.0000 -0.0000  0.0000  0.0000  1.0000
                                           -0.0000 -0.0000  0.0000 -0.0000  0.0000
                                            0.0000 -0.0000  0.0000  0.0000 -0.0000
    27. (1.99202) LP ( 1)Cl   7           s( 82.64%)p 0.21( 17.35%)d 0.00(  0.01%)
                                           -0.0000 -0.0003  0.9090 -0.0109 -0.0000
                                            0.0000  0.0000 -0.0002 -0.4162  0.0146
                                            0.0028 -0.0011 -0.0006 -0.0000  0.0000
                                            0.0000 -0.0000 -0.0000 -0.0000  0.0000
                                            0.0000 -0.0000  0.0000 -0.0000  0.0000
                                            0.0000  0.0000 -0.0000 -0.0094  0.0046
    28. (1.97216) LP ( 2)Cl   7           s(  0.00%)p 1.00( 99.98%)d 0.00(  0.02%)
                                            0.0000  0.0000 -0.0000  0.0000 -0.0000
                                            0.0000  0.0000  0.0000  0.0000 -0.0000
                                           -0.0000 -0.0000  0.0000 -0.0001  0.9998
                                            0.0147 -0.0036 -0.0002  0.0001 -0.0000
                                            0.0000  0.0000  0.0000  0.0000 -0.0000
                                            0.0132  0.0000 -0.0000  0.0000  0.0000
    29. (1.93049) LP ( 3)Cl   7           s(  0.00%)p 1.00( 99.97%)d 0.00(  0.03%)
                                           -0.0000 -0.0000  0.0000 -0.0000 -0.0000
                                            0.0000 -0.0000 -0.0000  0.0000  0.0000
                                           -0.0000 -0.0000 -0.0000 -0.0000 -0.0000
                                           -0.0000  0.0000 -0.0000 -0.0000  0.0000
                                            0.9997  0.0176 -0.0000  0.0001 -0.0004
                                           -0.0000  0.0166 -0.0000  0.0000 -0.0000
    30. (0.00584) RY*( 1) C   1           s(  0.91%)p99.99( 93.60%)d 6.00(  5.49%)
                                           -0.0000 -0.0166  0.0928 -0.0126  0.0100
                                            0.0345 -0.9646  0.0276 -0.0589  0.0000
                                            0.0000 -0.0000 -0.0000 -0.0000  0.0000
                                            0.0000 -0.0000  0.0000 -0.0000 -0.0000
                                           -0.2329  0.0252
    31. (0.00220) RY*( 2) C   1           s(  0.00%)p 1.00( 99.13%)d 0.01(  0.87%)
                                           -0.0000  0.0000 -0.0000  0.0000  0.0000
                                           -0.0000  0.0000  0.0000  0.0000  0.0462
                                            0.9403 -0.2588 -0.1952 -0.0000 -0.0000
                                           -0.0000 -0.0000 -0.0933 -0.0000  0.0000
                                            0.0000 -0.0000
    32. (0.00084) RY*( 3) C   1           s(  0.00%)p 1.00( 87.43%)d 0.14( 12.57%)
                                            0.0000  0.0000 -0.0000 -0.0000 -0.0000
                                            0.0000 -0.0000 -0.0000 -0.0000 -0.0000
                                            0.0000 -0.0000  0.0000 -0.0106  0.9131
                                            0.1530  0.1305 -0.0000  0.3279 -0.1347
                                            0.0000  0.0000
    33. (0.00055) RY*( 4) C   1           s(  0.00%)p 1.00(  1.62%)d60.64( 98.38%)
                                            0.0000  0.0000 -0.0000 -0.0000 -0.0000
                                            0.0000 -0.0000 -0.0000 -0.0000  0.0000
                                           -0.0000  0.0000 -0.0000 -0.0106  0.1240
                                            0.0208  0.0177  0.0000  0.0447  0.9908
                                            0.0000  0.0000
    34. (0.00038) RY*( 5) C   1           s(  0.00%)p 1.00( 84.30%)d 0.19( 15.70%)
                                           -0.0000  0.0000  0.0000  0.0000 -0.0000
                                           -0.0000  0.0000  0.0000  0.0000  0.0282
                                            0.2071  0.8418 -0.3012  0.0000  0.0000
                                            0.0000  0.0000  0.3963  0.0000 -0.0000
                                           -0.0000  0.0000
    35. (0.00027) RY*( 6) C   1           s( 92.72%)p 0.06(  5.78%)d 0.02(  1.50%)
                                           -0.0000  0.0032  0.9403 -0.1890 -0.0851
                                           -0.0292  0.1031  0.0917  0.1946 -0.0000
                                           -0.0000 -0.0000  0.0000 -0.0000  0.0000
                                            0.0000  0.0000 -0.0000  0.0000  0.0000
                                           -0.0968 -0.0753
    36. (0.00011) RY*( 7) C   1           s( 37.64%)p 0.30( 11.22%)d 1.36( 51.14%)
                                           -0.0000 -0.0108 -0.0535  0.6056 -0.0814
                                            0.0086  0.0485  0.0856  0.3201 -0.0000
                                           -0.0000  0.0000 -0.0000 -0.0000  0.0000
                                           -0.0000 -0.0000 -0.0000 -0.0000  0.0000
                                           -0.3917 -0.5983
    37. (0.00007) RY*( 8) C   1           s(  0.00%)p 1.00( 35.08%)d 1.85( 64.92%)
    38. (0.00004) RY*( 9) C   1           s(  8.37%)p 3.87( 32.38%)d 7.08( 59.25%)
    39. (0.00002) RY*(10) C   1           s( 32.56%)p 1.70( 55.38%)d 0.37( 12.06%)
    40. (0.00000) RY*(11) C   1           s(  0.00%)p 1.00(100.00%)d 0.00(  0.00%)
    41. (0.00000) RY*(12) C   1           s(  0.00%)p 1.00( 99.81%)d 0.00(  0.19%)
    42. (0.00000) RY*(13) C   1           s( 10.42%)p 7.99( 83.21%)d 0.61(  6.37%)
    43. (0.00000) RY*(14) C   1           s(  0.00%)p 1.00( 11.18%)d 7.94( 88.82%)
    44. (0.00000) RY*(15) C   1           s(  0.00%)p 1.00( 81.55%)d 0.23( 18.45%)
    45. (0.00000) RY*(16) C   1           s( 98.09%)p 0.01(  0.96%)d 0.01(  0.95%)
    46. (0.00000) RY*(17) C   1           s( 19.28%)p 0.91( 17.56%)d 3.28( 63.16%)
    47. (0.00607) RY*( 1) C   2           s(  0.86%)p99.99( 94.22%)d 5.74(  4.92%)
                                           -0.0000  0.0187 -0.0487  0.0764  0.0024
                                           -0.0200  0.4646 -0.0475  0.0424  0.0308
                                           -0.8464  0.0422 -0.0520 -0.0000  0.0000
                                            0.0000 -0.0000 -0.1879 -0.0000 -0.0000
                                           -0.1140 -0.0303
    48. (0.00222) RY*( 2) C   2           s(  0.35%)p99.99( 98.85%)d 2.27(  0.80%)
                                           -0.0000 -0.0006  0.0447  0.0383  0.0062
                                           -0.0408 -0.8332  0.1298  0.1911 -0.0215
                                           -0.4604  0.1177  0.1142 -0.0000 -0.0000
                                            0.0000  0.0000 -0.0269 -0.0000  0.0000
                                            0.0849 -0.0051
    49. (0.00069) RY*( 3) C   2           s(  0.00%)p 1.00( 42.58%)d 1.35( 57.42%)
                                            0.0000 -0.0000  0.0000  0.0000  0.0000
                                           -0.0000 -0.0000 -0.0000  0.0000 -0.0000
                                           -0.0000 -0.0000  0.0000 -0.0180  0.6129
                                            0.2039  0.0908  0.0000 -0.5258 -0.5457
                                           -0.0000 -0.0000
    50. (0.00057) RY*( 4) C   2           s(  0.00%)p 1.00( 43.12%)d 1.32( 56.88%)
                                           -0.0000 -0.0000 -0.0000 -0.0000 -0.0000
                                           -0.0000 -0.0000 -0.0000  0.0000 -0.0000
                                           -0.0000 -0.0000  0.0000  0.0002  0.6473
                                            0.0848  0.0703 -0.0000  0.7529  0.0450
                                           -0.0000  0.0000
    51. (0.00039) RY*( 5) C   2           s( 92.92%)p 0.04(  4.16%)d 0.03(  2.91%)
                                           -0.0000  0.0057  0.9626 -0.0490 -0.0096
                                           -0.0106  0.0726 -0.1176  0.0763  0.0273
                                           -0.0338  0.0672 -0.1009  0.0000  0.0000
                                            0.0000  0.0000  0.0950  0.0000  0.0000
                                            0.1231 -0.0704
    52. (0.00026) RY*( 6) C   2           s(  1.59%)p48.93( 77.64%)d13.09( 20.77%)
                                            0.0000 -0.0003  0.0455  0.1152  0.0230
                                            0.0226  0.1290  0.7338 -0.2300  0.0146
                                            0.0550  0.3969 -0.0843  0.0000  0.0000
                                            0.0000  0.0000 -0.2499  0.0000 -0.0000
                                            0.3811  0.0018
    53. (0.00011) RY*( 7) C   2           s( 30.37%)p 0.28(  8.64%)d 2.01( 60.99%)
                                            0.0000 -0.0087 -0.1500  0.5204 -0.1014
                                            0.0074  0.0323 -0.0886  0.1292 -0.0117
                                           -0.0186  0.0189 -0.2448  0.0000 -0.0000
                                           -0.0000  0.0000  0.4310  0.0000  0.0000
                                            0.3185 -0.5681
    54. (0.00008) RY*( 8) C   2           s(  3.69%)p13.81( 50.95%)d12.30( 45.36%)
    55. (0.00005) RY*( 9) C   2           s( 10.13%)p 6.89( 69.73%)d 1.99( 20.14%)
    56. (0.00002) RY*(10) C   2           s( 32.00%)p 0.27(  8.55%)d 1.86( 59.45%)
    57. (0.00000) RY*(11) C   2           s(  0.00%)p 1.00( 98.46%)d 0.02(  1.54%)
    58. (0.00001) RY*(12) C   2           s(  2.14%)p34.78( 74.53%)d10.89( 23.33%)
    59. (0.00000) RY*(13) C   2           s( 88.83%)p 0.12( 10.80%)d 0.00(  0.38%)
    60. (0.00000) RY*(14) C   2           s(  5.65%)p13.10( 74.05%)d 3.59( 20.30%)
    61. (0.00000) RY*(15) C   2           s(  0.00%)p 1.00( 16.15%)d 5.19( 83.85%)
    62. (0.00000) RY*(16) C   2           s( 31.48%)p 0.89( 28.00%)d 1.29( 40.52%)
    63. (0.00000) RY*(17) C   2           s(  0.00%)p 1.00( 99.75%)d 0.00(  0.25%)
    64. (0.00579) RY*( 1) C   3           s(  0.63%)p99.99( 95.46%)d 6.22(  3.91%)
                                            0.0000  0.0163  0.0630  0.0452  0.0020
                                            0.0080 -0.7380 -0.0308  0.0008  0.0391
                                           -0.6348  0.0498 -0.0446  0.0000 -0.0000
                                            0.0000 -0.0000  0.1749 -0.0000  0.0000
                                           -0.0883 -0.0273
    65. (0.00276) RY*( 2) C   3           s(  0.89%)p99.99( 97.25%)d 2.08(  1.86%)
                                           -0.0000 -0.0077  0.0845  0.0374  0.0183
                                           -0.0375 -0.6427  0.1413  0.1072  0.0173
                                            0.7198 -0.0901 -0.0089 -0.0000  0.0000
                                           -0.0000  0.0000 -0.1152 -0.0000 -0.0000
                                           -0.0566  0.0458
    66. (0.00092) RY*( 3) C   3           s(  0.00%)p 1.00( 84.38%)d 0.19( 15.62%)
                                            0.0000  0.0000  0.0000 -0.0000  0.0000
                                            0.0000  0.0000  0.0000 -0.0000  0.0000
                                           -0.0000  0.0000  0.0000 -0.0141  0.9130
                                            0.0395  0.0921 -0.0000  0.1695 -0.3570
                                           -0.0000  0.0000
    67. (0.00089) RY*( 4) C   3           s( 86.37%)p 0.10(  8.90%)d 0.05(  4.73%)
                                            0.0000  0.0075  0.9132 -0.1714  0.0170
                                            0.0239  0.1066  0.1945 -0.1550  0.0207
                                           -0.0289  0.1182 -0.0034  0.0000 -0.0000
                                           -0.0000 -0.0000 -0.0485 -0.0000  0.0000
                                           -0.2107  0.0230
    68. (0.00055) RY*( 5) C   3           s(  0.00%)p 1.00( 11.98%)d 7.34( 88.02%)
                                            0.0000 -0.0000 -0.0000  0.0000  0.0000
                                           -0.0000 -0.0000 -0.0000  0.0000  0.0000
                                            0.0000  0.0000  0.0000 -0.0042 -0.2604
                                           -0.2157 -0.0742  0.0000  0.8941 -0.2843
                                            0.0000  0.0000
    69. (0.00022) RY*( 6) C   3           s(  0.00%)p 1.00( 80.53%)d 0.24( 19.47%)
                                            0.0000 -0.0000 -0.0000  0.0000 -0.0000
                                            0.0000  0.0000  0.0000 -0.0000 -0.0000
                                           -0.0000 -0.0000 -0.0000 -0.0050 -0.2022
                                            0.8701 -0.0862 -0.0000  0.0036 -0.4412
                                           -0.0000 -0.0000
    70. (0.00022) RY*( 7) C   3           s( 33.04%)p 1.36( 44.92%)d 0.67( 22.04%)
                                           -0.0000 -0.0006  0.2859  0.4987  0.0019
                                           -0.0086 -0.0614 -0.6016 -0.2388  0.0069
                                            0.0570  0.0162  0.1510 -0.0000 -0.0000
                                            0.0000 -0.0000 -0.1258 -0.0000  0.0000
                                            0.4520  0.0154
    71. (0.00019) RY*( 8) C   3           s( 24.31%)p 1.05( 25.60%)d 2.06( 50.08%)
                                            0.0000 -0.0043 -0.0577  0.4854 -0.0649
                                            0.0173  0.0292  0.3429 -0.1831 -0.0177
                                           -0.1393 -0.2040 -0.2060  0.0000  0.0000
                                           -0.0000  0.0000 -0.5690 -0.0000  0.0000
                                           -0.1863 -0.3772
    72. (0.00011) RY*( 9) C   3           s(  3.25%)p28.93( 93.96%)d 0.86(  2.80%)
                                           -0.0000 -0.0062  0.1589  0.0714 -0.0459
                                            0.0015  0.0729 -0.3205  0.5471  0.0031
                                            0.0321  0.0135 -0.7287  0.0000  0.0000
                                           -0.0000  0.0000  0.0519 -0.0000 -0.0000
                                           -0.0481 -0.1515
    73. (0.00006) RY*(10) C   3           s(  1.86%)p30.90( 57.53%)d21.81( 40.61%)
    74. (0.00005) RY*(11) C   3           s(  8.85%)p 2.10( 18.55%)d 8.20( 72.59%)
    75. (0.00000) RY*(12) C   3           s(  0.00%)p 1.00( 99.66%)d 0.00(  0.34%)
    76. (0.00001) RY*(13) C   3           s( 38.83%)p 0.78( 30.25%)d 0.80( 30.92%)
    77. (0.00000) RY*(14) C   3           s(  6.67%)p13.03( 86.94%)d 0.96(  6.39%)
    78. (0.00000) RY*(15) C   3           s(  0.00%)p 1.00( 23.48%)d 3.26( 76.52%)
    79. (0.00000) RY*(16) C   3           s( 94.79%)p 0.03(  2.44%)d 0.03(  2.77%)
    80. (0.00001) RY*(17) C   3           s(  0.48%)p80.51( 38.36%)d99.99( 61.17%)
    81. (0.00748) RY*( 1) C   4           s(  1.21%)p75.98( 92.21%)d 5.42(  6.58%)
                                            0.0000 -0.0159  0.1035  0.0303  0.0163
                                           -0.0218  0.9584  0.0020  0.0548  0.0000
                                            0.0000  0.0000 -0.0000 -0.0000  0.0000
                                            0.0000  0.0000 -0.0000 -0.0000 -0.0000
                                           -0.2437  0.0800
    82. (0.00669) RY*( 2) C   4           s(  0.00%)p 1.00( 95.50%)d 0.05(  4.50%)
                                           -0.0000  0.0000  0.0000 -0.0000 -0.0000
                                            0.0000 -0.0000  0.0000 -0.0000  0.0305
                                            0.9734 -0.0241 -0.0776 -0.0000 -0.0000
                                           -0.0000  0.0000 -0.2121  0.0000  0.0000
                                            0.0000 -0.0000
    83. (0.00236) RY*( 3) C   4           s(  0.00%)p 1.00( 38.69%)d 1.58( 61.31%)
                                            0.0000 -0.0000 -0.0000 -0.0000 -0.0000
                                           -0.0000  0.0000 -0.0000 -0.0000 -0.0000
                                           -0.0000  0.0000  0.0000 -0.0049 -0.6200
                                            0.0329  0.0382  0.0000  0.7811  0.0547
                                           -0.0000 -0.0000
    84. (0.00077) RY*( 4) C   4           s( 71.58%)p 0.08(  5.39%)d 0.32( 23.04%)
                                           -0.0000  0.0130  0.8093  0.2448 -0.0259
                                           -0.0072 -0.2242  0.0571  0.0180 -0.0000
                                            0.0000  0.0000  0.0000 -0.0000  0.0000
                                            0.0000  0.0000  0.0000  0.0000  0.0000
                                           -0.4523  0.1605
    85. (0.00074) RY*( 5) C   4           s(  0.00%)p 1.00(  0.09%)d99.99( 99.91%)
                                            0.0000 -0.0000 -0.0000 -0.0000  0.0000
                                            0.0000  0.0000 -0.0000 -0.0000 -0.0000
                                           -0.0000  0.0000 -0.0000 -0.0097  0.0266
                                           -0.0081 -0.0057 -0.0000 -0.0483  0.9984
                                            0.0000 -0.0000
    86. (0.00057) RY*( 6) C   4           s(  0.00%)p 1.00( 13.59%)d 6.36( 86.41%)
                                            0.0000 -0.0000 -0.0000 -0.0000  0.0000
                                            0.0000  0.0000  0.0000  0.0000 -0.0167
                                            0.2030 -0.2940  0.0893 -0.0000  0.0000
                                           -0.0000 -0.0000  0.9296 -0.0000  0.0000
                                            0.0000 -0.0000
    87. (0.00024) RY*( 7) C   4           s( 35.45%)p 0.29( 10.34%)d 1.53( 54.21%)
                                           -0.0000 -0.0124  0.5368 -0.2556  0.0290
                                            0.0419  0.1483  0.2809 -0.0262  0.0000
                                           -0.0000 -0.0000  0.0000  0.0000 -0.0000
                                           -0.0000 -0.0000 -0.0000 -0.0000 -0.0000
                                            0.7048 -0.2130
    88. (0.00013) RY*( 8) C   4           s(  0.00%)p 1.00( 91.58%)d 0.09(  8.42%)
                                           -0.0000 -0.0000  0.0000  0.0000 -0.0000
                                            0.0000  0.0000  0.0000 -0.0000  0.0057
                                            0.0370  0.7706 -0.5662 -0.0000  0.0000
                                            0.0000  0.0000  0.2901  0.0000  0.0000
                                            0.0000 -0.0000
    89. (0.00014) RY*( 9) C   4           s( 15.68%)p 2.13( 33.47%)d 3.24( 50.84%)
                                           -0.0000  0.0061 -0.0810  0.3562  0.1527
                                            0.0074 -0.0087  0.2051  0.5409 -0.0000
                                            0.0000  0.0000  0.0000  0.0000 -0.0000
                                           -0.0000 -0.0000  0.0000 -0.0000 -0.0000
                                            0.3174  0.6385
    90. (0.00010) RY*(10) C   4           s(  0.00%)p 1.00( 77.61%)d 0.29( 22.39%)
                                            0.0000  0.0000 -0.0000  0.0000  0.0000
                                            0.0000  0.0000  0.0000  0.0000 -0.0000
                                           -0.0000 -0.0000  0.0000 -0.0186  0.6436
                                            0.5141  0.3118 -0.0000  0.4731  0.0115
                                            0.0000  0.0000
    91. (0.00004) RY*(11) C   4           s( 13.77%)p 5.19( 71.51%)d 1.07( 14.72%)
    92. (0.00002) RY*(12) C   4           s( 15.65%)p 2.79( 43.60%)d 2.60( 40.74%)
    93. (0.00001) RY*(13) C   4           s(  0.00%)p 1.00( 99.37%)d 0.01(  0.63%)
    94. (0.00000) RY*(14) C   4           s( 51.86%)p 0.81( 41.92%)d 0.12(  6.22%)
    95. (0.00000) RY*(15) C   4           s(  0.00%)p 1.00( 87.09%)d 0.15( 12.91%)
    96. (0.00000) RY*(16) C   4           s(  0.00%)p 1.00( 96.55%)d 0.04(  3.45%)
    97. (0.00000) RY*(17) C   4           s( 94.89%)p 0.02(  1.70%)d 0.04(  3.41%)
    98. (0.00579) RY*( 1) C   5           s(  0.63%)p99.99( 95.46%)d 6.22(  3.91%)
                                            0.0000  0.0163  0.0630  0.0452  0.0020
                                            0.0080 -0.7380 -0.0308  0.0008 -0.0391
                                            0.6348 -0.0498  0.0446 -0.0000 -0.0000
                                            0.0000 -0.0000 -0.1749 -0.0000 -0.0000
                                           -0.0883 -0.0273
    99. (0.00276) RY*( 2) C   5           s(  0.89%)p99.99( 97.25%)d 2.08(  1.86%)
                                           -0.0000 -0.0077  0.0845  0.0374  0.0183
                                           -0.0375 -0.6427  0.1413  0.1072 -0.0173
                                           -0.7198  0.0901  0.0089  0.0000  0.0000
                                           -0.0000  0.0000  0.1152  0.0000  0.0000
                                           -0.0566  0.0458
   100. (0.00106) RY*( 3) C   5           s(  0.00%)p 1.00( 77.75%)d 0.29( 22.25%)
                                           -0.0000  0.0000  0.0000  0.0000  0.0000
                                            0.0000  0.0000  0.0000 -0.0000  0.0000
                                            0.0000  0.0000 -0.0000  0.0005  0.8778
                                            0.0004  0.0837  0.0000  0.2768  0.3820
                                           -0.0000 -0.0000
   101. (0.00089) RY*( 4) C   5           s( 86.37%)p 0.10(  8.90%)d 0.05(  4.73%)
                                            0.0000  0.0075  0.9132 -0.1714  0.0170
                                            0.0239  0.1066  0.1945 -0.1550 -0.0207
                                            0.0289 -0.1182  0.0034  0.0000 -0.0000
                                           -0.0000 -0.0000  0.0485  0.0000 -0.0000
                                           -0.2107  0.0230
   102. (0.00051) RY*( 5) C   5           s(  0.00%)p 1.00( 20.35%)d 3.91( 79.65%)
                                           -0.0000 -0.0000 -0.0000  0.0000  0.0000
                                           -0.0000 -0.0000 -0.0000  0.0000 -0.0000
                                           -0.0000 -0.0000 -0.0000  0.0124 -0.3596
                                           -0.2599 -0.0807 -0.0000  0.8657  0.2170
                                            0.0000  0.0000
   103. (0.00022) RY*( 6) C   5           s(  0.00%)p 1.00( 78.80%)d 0.27( 21.20%)
                                            0.0000 -0.0000 -0.0000  0.0000 -0.0000
                                            0.0000  0.0000  0.0000 -0.0000  0.0000
                                            0.0000  0.0000  0.0000 -0.0042 -0.2066
                                            0.8587 -0.0889  0.0000  0.0491  0.4578
                                           -0.0000 -0.0000
   104. (0.00022) RY*( 7) C   5           s( 33.04%)p 1.36( 44.92%)d 0.67( 22.04%)
                                           -0.0000 -0.0006  0.2859  0.4987  0.0019
                                           -0.0086 -0.0614 -0.6016 -0.2388 -0.0069
                                           -0.0570 -0.0162 -0.1510 -0.0000 -0.0000
                                           -0.0000 -0.0000  0.1258 -0.0000 -0.0000
                                            0.4520  0.0154
   105. (0.00019) RY*( 8) C   5           s( 24.31%)p 1.05( 25.60%)d 2.06( 50.08%)
                                            0.0000 -0.0043 -0.0577  0.4854 -0.0649
                                            0.0173  0.0292  0.3429 -0.1831  0.0177
                                            0.1393  0.2040  0.2060  0.0000  0.0000
                                           -0.0000  0.0000  0.5690 -0.0000 -0.0000
                                           -0.1863 -0.3772
   106. (0.00011) RY*( 9) C   5           s(  3.25%)p28.93( 93.96%)d 0.86(  2.80%)
                                           -0.0000 -0.0062  0.1589  0.0714 -0.0459
                                            0.0015  0.0729 -0.3205  0.5471 -0.0031
                                           -0.0321 -0.0135  0.7287  0.0000  0.0000
                                           -0.0000  0.0000 -0.0519 -0.0000  0.0000
                                           -0.0481 -0.1515
   107. (0.00006) RY*(10) C   5           s(  1.88%)p30.65( 57.57%)d21.59( 40.55%)
   108. (0.00005) RY*(11) C   5           s(  8.84%)p 2.09( 18.51%)d 8.22( 72.65%)
   109. (0.00000) RY*(12) C   5           s(  0.00%)p 1.00( 99.66%)d 0.00(  0.34%)
   110. (0.00000) RY*(13) C   5           s(  7.12%)p12.36( 88.01%)d 0.68(  4.88%)
   111. (0.00000) RY*(14) C   5           s( 96.60%)p 0.02(  1.60%)d 0.02(  1.80%)
   112. (0.00000) RY*(15) C   5           s(  0.00%)p 1.00( 23.48%)d 3.26( 76.52%)
   113. (0.00001) RY*(16) C   5           s( 32.01%)p 1.28( 41.10%)d 0.84( 26.89%)
   114. (0.00000) RY*(17) C   5           s(  5.03%)p 5.42( 27.29%)d13.45( 67.68%)
   115. (0.00607) RY*( 1) C   6           s(  0.86%)p99.99( 94.22%)d 5.74(  4.92%)
                                           -0.0000  0.0187 -0.0487  0.0764  0.0024
                                           -0.0200  0.4646 -0.0475  0.0424 -0.0308
                                            0.8464 -0.0422  0.0520 -0.0000  0.0000
                                            0.0000 -0.0000  0.1879 -0.0000  0.0000
                                           -0.1140 -0.0303
   116. (0.00222) RY*( 2) C   6           s(  0.35%)p99.99( 98.85%)d 2.27(  0.80%)
                                            0.0000 -0.0006  0.0447  0.0383  0.0062
                                           -0.0408 -0.8332  0.1298  0.1911  0.0215
                                            0.4604 -0.1177 -0.1142 -0.0000 -0.0000
                                            0.0000  0.0000  0.0269 -0.0000  0.0000
                                            0.0849 -0.0051
   117. (0.00077) RY*( 3) C   6           s(  0.00%)p 1.00( 47.88%)d 1.09( 52.12%)
                                           -0.0000 -0.0000  0.0000  0.0000  0.0000
                                           -0.0000 -0.0000 -0.0000  0.0000  0.0000
                                            0.0000  0.0000 -0.0000 -0.0018  0.6527
                                            0.2090  0.0951 -0.0000 -0.4775  0.5415
                                           -0.0000 -0.0000
   118. (0.00051) RY*( 4) C   6           s(  0.00%)p 1.00( 37.78%)d 1.65( 62.22%)
                                           -0.0000 -0.0000 -0.0000 -0.0000 -0.0000
                                           -0.0000 -0.0000 -0.0000  0.0000  0.0000
                                            0.0000  0.0000 -0.0000 -0.0108  0.6069
                                            0.0724  0.0641  0.0000  0.7849 -0.0787
                                           -0.0000  0.0000
   119. (0.00039) RY*( 5) C   6           s( 92.92%)p 0.04(  4.16%)d 0.03(  2.91%)
                                           -0.0000  0.0057  0.9626 -0.0490 -0.0096
                                           -0.0106  0.0726 -0.1176  0.0763 -0.0273
                                            0.0338 -0.0672  0.1009 -0.0000  0.0000
                                            0.0000  0.0000 -0.0950  0.0000 -0.0000
                                            0.1231 -0.0704
   120. (0.00026) RY*( 6) C   6           s(  1.59%)p48.93( 77.64%)d13.09( 20.77%)
                                           -0.0000 -0.0003  0.0455  0.1152  0.0230
                                            0.0226  0.1290  0.7338 -0.2300 -0.0146
                                           -0.0550 -0.3969  0.0843  0.0000  0.0000
                                            0.0000  0.0000  0.2499  0.0000  0.0000
                                            0.3811  0.0018
   121. (0.00011) RY*( 7) C   6           s( 30.37%)p 0.28(  8.64%)d 2.01( 60.99%)
                                            0.0000 -0.0087 -0.1500  0.5204 -0.1014
                                            0.0074  0.0323 -0.0886  0.1292  0.0117
                                            0.0186 -0.0189  0.2448  0.0000 -0.0000
                                           -0.0000  0.0000 -0.4310  0.0000 -0.0000
                                            0.3185 -0.5681
   122. (0.00008) RY*( 8) C   6           s(  3.69%)p13.81( 50.95%)d12.30( 45.36%)
   123. (0.00005) RY*( 9) C   6           s( 10.13%)p 6.89( 69.73%)d 1.99( 20.14%)
   124. (0.00002) RY*(10) C   6           s( 32.13%)p 0.24(  7.72%)d 1.87( 60.15%)
   125. (0.00000) RY*(11) C   6           s(  0.00%)p 1.00( 99.23%)d 0.01(  0.77%)
   126. (0.00001) RY*(12) C   6           s(  2.02%)p37.37( 75.36%)d11.22( 22.62%)
   127. (0.00000) RY*(13) C   6           s( 93.45%)p 0.06(  5.36%)d 0.01(  1.19%)
   128. (0.00000) RY*(14) C   6           s(  1.87%)p46.49( 86.98%)d 5.96( 11.15%)
   129. (0.00000) RY*(15) C   6           s(  0.00%)p 1.00( 15.44%)d 5.48( 84.56%)
   130. (0.00000) RY*(16) C   6           s( 30.64%)p 0.67( 20.51%)d 1.59( 48.86%)
   131. (0.00000) RY*(17) C   6           s(  0.00%)p 1.00( 99.71%)d 0.00(  0.29%)
   132. (0.00330) RY*( 1)Cl   7           s(  0.00%)p 1.00( 44.51%)d 1.25( 55.49%)
                                           -0.0000  0.0000 -0.0000 -0.0000  0.0000
                                            0.0000 -0.0000  0.0000 -0.0000 -0.0000
                                            0.0000 -0.0000 -0.0000  0.0000 -0.0000
                                            0.0000 -0.0000 -0.0000  0.0000  0.0000
                                           -0.0011 -0.6406 -0.1827 -0.0356 -0.0089
                                           -0.0000  0.7449  0.0000  0.0000 -0.0000
   133. (0.00235) RY*( 2)Cl   7           s(  0.00%)p 1.00( 67.40%)d 0.48( 32.60%)
                                           -0.0000 -0.0000 -0.0000 -0.0000  0.0000
                                           -0.0000 -0.0000  0.0000 -0.0000 -0.0000
                                            0.0000 -0.0000  0.0000  0.0000 -0.0043
                                            0.8170  0.0603 -0.0510  0.0128  0.0000
                                            0.0000  0.0000  0.0000  0.0000  0.0000
                                           -0.5710 -0.0000  0.0000  0.0000 -0.0000
   134. (0.00085) RY*( 3)Cl   7           s(  5.56%)p12.36( 68.70%)d 4.63( 25.74%)
                                            0.0000 -0.0000 -0.0159 -0.0803  0.2209
                                            0.0091 -0.0002  0.0000 -0.0743 -0.8194
                                           -0.0980 -0.0109  0.0191 -0.0000 -0.0000
                                           -0.0000 -0.0000  0.0000 -0.0000 -0.0000
                                            0.0000  0.0000  0.0000 -0.0000 -0.0000
                                            0.0000 -0.0000 -0.0000  0.3880 -0.3268
   135. (0.00011) RY*( 4)Cl   7           s( 58.09%)p 0.20( 11.59%)d 0.52( 30.32%)
                                            0.0000 -0.0000 -0.0082  0.7316  0.2126
                                            0.0193  0.0024  0.0000 -0.0407 -0.0764
                                            0.2238  0.2376 -0.0439 -0.0000  0.0000
                                           -0.0000  0.0000 -0.0000  0.0000 -0.0000
                                            0.0000  0.0000 -0.0000 -0.0000  0.0000
                                           -0.0000  0.0000 -0.0000  0.3095  0.4554
   136. (0.00007) RY*( 5)Cl   7           s(  0.00%)p 1.00( 81.37%)d 0.23( 18.63%)
   137. (0.00005) RY*( 6)Cl   7           s( 24.74%)p 1.98( 48.98%)d 1.06( 26.28%)
   138. (0.00004) RY*( 7)Cl   7           s(  0.00%)p 0.00(  0.00%)d 1.00(100.00%)
   139. (0.00001) RY*( 8)Cl   7           s(  0.00%)p 1.00( 58.21%)d 0.72( 41.79%)
   140. (0.00000) RY*( 9)Cl   7           s( 98.37%)p 0.02(  1.52%)d 0.00(  0.11%)
   141. (0.00000) RY*(10)Cl   7           s(100.00%)p 0.00(  0.00%)d 0.00(  0.00%)
   142. (0.00000) RY*(11)Cl   7           s(  0.00%)p 1.00( 99.97%)d 0.00(  0.03%)
   143. (0.00000) RY*(12)Cl   7           s(  0.00%)p 1.00(100.00%)d 0.00(  0.00%)
   144. (0.00000) RY*(13)Cl   7           s( 35.30%)p 0.90( 31.68%)d 0.94( 33.02%)
   145. (0.00000) RY*(14)Cl   7           s(  0.00%)p 1.00( 97.49%)d 0.03(  2.51%)
   146. (0.00000) RY*(15)Cl   7           s(  0.00%)p 1.00( 99.92%)d 0.00(  0.08%)
   147. (0.00000) RY*(16)Cl   7           s(  0.00%)p 1.00( 99.90%)d 0.00(  0.10%)
   148. (0.00000) RY*(17)Cl   7           s(  0.00%)p 1.00( 51.27%)d 0.95( 48.73%)
   149. (0.00000) RY*(18)Cl   7           s(  0.14%)p99.99( 99.80%)d 0.45(  0.06%)
   150. (0.00001) RY*(19)Cl   7           s( 63.06%)p 0.40( 25.09%)d 0.19( 11.85%)
   151. (0.00001) RY*(20)Cl   7           s(  7.35%)p 5.24( 38.49%)d 7.37( 54.16%)
   152. (0.00001) RY*(21)Cl   7           s(  7.26%)p10.30( 74.78%)d 2.48( 17.96%)
   153. (0.00078) RY*( 1) H   8           s( 98.60%)p 0.01(  1.40%)
                                           -0.0040  0.9930 -0.0078 -0.0001 -0.1182
                                            0.0000  0.0000
   154. (0.00020) RY*( 2) H   8           s( 91.07%)p 0.10(  8.93%)
                                            0.0055  0.0430  0.9533 -0.0006  0.2988
                                            0.0000 -0.0000
   155. (0.00019) RY*( 3) H   8           s(  0.00%)p 1.00(100.00%)
                                            0.0000 -0.0000  0.0000 -0.0000 -0.0000
                                            0.0000  1.0000
   156. (0.00012) RY*( 4) H   8           s(  0.00%)p 1.00(100.00%)
                                            0.0000 -0.0000 -0.0000  0.0000  0.0000
                                            1.0000 -0.0000
   157. (0.00002) RY*( 5) H   8           s(100.00%)p 0.00(  0.00%)
   158. (0.00003) RY*( 6) H   8           s( 10.37%)p 8.64( 89.63%)
   159. (0.00077) RY*( 1) H   9           s( 98.41%)p 0.02(  1.59%)
                                           -0.0041  0.9920 -0.0080 -0.0002 -0.0525
                                            0.1148 -0.0000
   160. (0.00020) RY*( 2) H   9           s( 90.33%)p 0.11(  9.67%)
                                            0.0050  0.0408  0.9495 -0.0084  0.2627
                                           -0.1663 -0.0000
   161. (0.00019) RY*( 3) H   9           s(  0.00%)p 1.00(100.00%)
                                            0.0000  0.0000  0.0000 -0.0000  0.0000
                                           -0.0000  1.0000
   162. (0.00011) RY*( 4) H   9           s(  3.48%)p27.72( 96.52%)
                                            0.0010  0.0173  0.1397  0.1225 -0.8330
                                           -0.5208 -0.0000
   163. (0.00003) RY*( 5) H   9           s(  9.45%)p 9.58( 90.55%)
   164. (0.00001) RY*( 6) H   9           s( 98.38%)p 0.02(  1.62%)
   165. (0.00088) RY*( 1) H  10           s( 98.49%)p 0.02(  1.51%)
                                           -0.0041  0.9924 -0.0053  0.0058  0.0730
                                            0.0987 -0.0000
   166. (0.00025) RY*( 2) H  10           s( 84.51%)p 0.18( 15.49%)
                                            0.0030  0.0219  0.9188  0.0228  0.2143
                                           -0.3301 -0.0000
   167. (0.00019) RY*( 3) H  10           s( 81.70%)p 0.22( 18.30%)
                                           -0.0049 -0.0426 -0.1001  0.8973  0.4242
                                            0.0558  0.0000
   168. (0.00018) RY*( 4) H  10           s(  0.00%)p 1.00(100.00%)
                                            0.0000  0.0000  0.0000 -0.0000 -0.0000
                                           -0.0000  1.0000
   169. (0.00011) RY*( 5) H  10           s( 23.23%)p 3.31( 76.77%)
                                           -0.0011 -0.0005  0.3435  0.3380 -0.7029
                                            0.5232  0.0000
   170. (0.00003) RY*( 6) H  10           s( 12.12%)p 7.25( 87.88%)
   171. (0.00088) RY*( 1) H  11           s( 98.49%)p 0.02(  1.51%)
                                           -0.0041  0.9924 -0.0053  0.0058  0.0730
                                           -0.0987 -0.0000
   172. (0.00025) RY*( 2) H  11           s( 84.51%)p 0.18( 15.49%)
                                            0.0030  0.0219  0.9188  0.0228  0.2143
                                            0.3301 -0.0000
   173. (0.00019) RY*( 3) H  11           s( 81.70%)p 0.22( 18.30%)
                                           -0.0049 -0.0426 -0.1001  0.8973  0.4242
                                           -0.0558  0.0000
   174. (0.00018) RY*( 4) H  11           s(  0.00%)p 1.00(100.00%)
                                            0.0000  0.0000  0.0000 -0.0000 -0.0000
                                            0.0000  1.0000
   175. (0.00011) RY*( 5) H  11           s( 23.23%)p 3.31( 76.77%)
                                           -0.0011 -0.0005  0.3435  0.3380 -0.7029
                                           -0.5232  0.0000
   176. (0.00003) RY*( 6) H  11           s( 12.12%)p 7.25( 87.88%)
   177. (0.00077) RY*( 1) H  12           s( 98.41%)p 0.02(  1.59%)
                                           -0.0041  0.9920 -0.0080 -0.0002 -0.0525
                                           -0.1148 -0.0000
   178. (0.00020) RY*( 2) H  12           s( 90.33%)p 0.11(  9.67%)
                                            0.0050  0.0408  0.9495 -0.0084  0.2627
                                            0.1663 -0.0000
   179. (0.00019) RY*( 3) H  12           s(  0.00%)p 1.00(100.00%)
                                            0.0000  0.0000  0.0000 -0.0000  0.0000
                                            0.0000  1.0000
   180. (0.00011) RY*( 4) H  12           s(  3.48%)p27.72( 96.52%)
                                            0.0010  0.0173  0.1397  0.1225 -0.8330
                                            0.5208 -0.0000
   181. (0.00003) RY*( 5) H  12           s(  9.45%)p 9.58( 90.55%)
   182. (0.00001) RY*( 6) H  12           s( 98.38%)p 0.02(  1.62%)
   183. (0.01586) BD*( 1) C   1 - C   2  
                ( 50.11%)   0.7079* C   1 s( 35.61%)p 1.81( 64.35%)d 0.00(  0.04%)
                                            0.0000  0.5966 -0.0137 -0.0005 -0.0001
                                           -0.3783 -0.0236  0.0083 -0.0003 -0.7059
                                            0.0378  0.0064 -0.0009 -0.0000 -0.0000
                                            0.0000 -0.0000  0.0160  0.0000 -0.0000
                                           -0.0064 -0.0122
                ( 49.89%)  -0.7063* C   2 s( 36.05%)p 1.77( 63.91%)d 0.00(  0.04%)
                                            0.0000  0.6002 -0.0150  0.0001 -0.0000
                                            0.4227 -0.0441 -0.0020  0.0004  0.6770
                                            0.0030 -0.0103  0.0003  0.0000  0.0000
                                           -0.0000  0.0000  0.0133  0.0000  0.0000
                                           -0.0105 -0.0120
   184. (0.01586) BD*( 1) C   1 - C   6  
                ( 50.11%)   0.7079* C   1 s( 35.61%)p 1.81( 64.35%)d 0.00(  0.04%)
                                            0.0000  0.5966 -0.0137 -0.0005 -0.0001
                                           -0.3783 -0.0236  0.0083 -0.0003  0.7059
                                           -0.0378 -0.0064  0.0009 -0.0000 -0.0000
                                            0.0000 -0.0000 -0.0160  0.0000  0.0000
                                           -0.0064 -0.0122
                ( 49.89%)  -0.7063* C   6 s( 36.05%)p 1.77( 63.91%)d 0.00(  0.04%)
                                            0.0000  0.6002 -0.0150  0.0001 -0.0000
                                            0.4227 -0.0441 -0.0020  0.0004 -0.6770
                                           -0.0030  0.0103 -0.0003  0.0000  0.0000
                                           -0.0000  0.0000 -0.0133  0.0000 -0.0000
                                           -0.0105 -0.0120
   185. (0.33275) BD*( 2) C   1 - C   6  
                ( 49.50%)   0.7036* C   1 s(  0.00%)p 1.00( 99.96%)d 0.00(  0.04%)
                                            0.0000  0.0000 -0.0000 -0.0000 -0.0000
                                            0.0000  0.0000  0.0000  0.0000  0.0000
                                           -0.0000 -0.0000  0.0000 -0.9995 -0.0176
                                           -0.0143  0.0022  0.0000  0.0188 -0.0091
                                           -0.0000  0.0000
                ( 50.50%)  -0.7106* C   6 s(  0.00%)p 1.00( 99.96%)d 0.00(  0.04%)
                                           -0.0000  0.0000 -0.0000 -0.0000  0.0000
                                            0.0000  0.0000  0.0000 -0.0000 -0.0000
                                           -0.0000 -0.0000 -0.0000 -0.9996 -0.0148
                                           -0.0148  0.0021 -0.0000  0.0010  0.0208
                                           -0.0000 -0.0000
   186. (0.01334) BD*( 1) C   1 - H   8  
                ( 39.50%)   0.6285* C   1 s( 28.79%)p 2.47( 71.16%)d 0.00(  0.04%)
                                            0.0004 -0.5361 -0.0235 -0.0013 -0.0003
                                           -0.8434 -0.0184 -0.0012 -0.0016  0.0000
                                           -0.0000  0.0000  0.0000 -0.0000  0.0000
                                           -0.0000 -0.0000 -0.0000 -0.0000  0.0000
                                           -0.0190  0.0084
                ( 60.50%)  -0.7778* H   8 s( 99.95%)p 0.00(  0.05%)
                                           -0.9998 -0.0014 -0.0010  0.0001  0.0217
                                            0.0000  0.0000
   187. (0.01688) BD*( 1) C   2 - C   3  
                ( 50.55%)   0.7110* C   2 s( 35.48%)p 1.82( 64.47%)d 0.00(  0.04%)
                                            0.0001  0.5955 -0.0127 -0.0017 -0.0000
                                           -0.8012  0.0195  0.0125 -0.0011 -0.0269
                                            0.0402 -0.0040 -0.0000 -0.0000  0.0000
                                           -0.0000 -0.0000 -0.0024  0.0000  0.0000
                                            0.0166 -0.0122
                ( 49.45%)  -0.7032* C   3 s( 35.90%)p 1.78( 64.05%)d 0.00(  0.05%)
                                           -0.0003  0.5990 -0.0162 -0.0066 -0.0002
                                            0.7987 -0.0161 -0.0094  0.0013 -0.0228
                                            0.0403 -0.0042 -0.0008  0.0000  0.0000
                                           -0.0000 -0.0000  0.0041  0.0000  0.0000
                                            0.0168 -0.0123
   188. (0.32752) BD*( 2) C   2 - C   3  
                ( 50.46%)   0.7103* C   2 s(  0.00%)p 1.00( 99.95%)d 0.00(  0.05%)
                                            0.0000  0.0000  0.0000  0.0000  0.0000
                                           -0.0000 -0.0000 -0.0000  0.0000 -0.0000
                                           -0.0000 -0.0000 -0.0000  0.9995  0.0180
                                            0.0174 -0.0014  0.0000 -0.0182  0.0111
                                            0.0000 -0.0000
                ( 49.54%)  -0.7039* C   3 s(  0.00%)p 1.00( 99.95%)d 0.00(  0.05%)
                                            0.0000  0.0000  0.0000  0.0000  0.0000
                                           -0.0000 -0.0000 -0.0000 -0.0000 -0.0000
                                           -0.0000 -0.0000 -0.0000  0.9995  0.0167
                                            0.0159 -0.0016 -0.0000  0.0173  0.0128
                                           -0.0000  0.0000
   189. (0.01310) BD*( 1) C   2 - H   9  
                ( 39.49%)   0.6284* C   2 s( 28.47%)p 2.51( 71.49%)d 0.00(  0.04%)
                                           -0.0004  0.5330  0.0233  0.0013  0.0001
                                            0.4199  0.0079  0.0005  0.0010 -0.7337
                                           -0.0164 -0.0014 -0.0015 -0.0000 -0.0000
                                           -0.0000 -0.0000 -0.0163 -0.0000  0.0000
                                           -0.0098 -0.0087
                ( 60.51%)  -0.7779* H   9 s( 99.95%)p 0.00(  0.05%)
                                            0.9998  0.0014  0.0010  0.0000 -0.0107
                                            0.0193  0.0000
   190. (0.02791) BD*( 1) C   3 - C   4  
                ( 50.58%)   0.7112* C   3 s( 35.06%)p 1.85( 64.89%)d 0.00(  0.05%)
                                            0.0000  0.5919 -0.0148  0.0056  0.0007
                                           -0.4238  0.0403  0.0013 -0.0003  0.6838
                                            0.0012 -0.0108 -0.0005  0.0000  0.0000
                                           -0.0000 -0.0000 -0.0145  0.0000  0.0000
                                           -0.0108 -0.0115
                ( 49.42%)  -0.7030* C   4 s( 38.80%)p 1.58( 61.16%)d 0.00(  0.04%)
                                            0.0000  0.6228 -0.0050  0.0038 -0.0001
                                            0.3338  0.0170 -0.0073  0.0061 -0.7067
                                            0.0186  0.0048 -0.0068  0.0000  0.0000
                                            0.0000 -0.0000 -0.0146  0.0000 -0.0000
                                           -0.0076 -0.0114
   191. (0.01349) BD*( 1) C   3 - H  10  
                ( 38.87%)   0.6235* C   3 s( 29.05%)p 2.44( 70.90%)d 0.00(  0.04%)
                                           -0.0004  0.5385  0.0238  0.0019 -0.0004
                                           -0.4238 -0.0139  0.0002 -0.0001 -0.7274
                                           -0.0115  0.0008 -0.0016 -0.0000 -0.0000
                                           -0.0000 -0.0000  0.0162  0.0000  0.0000
                                           -0.0083 -0.0091
                ( 61.13%)  -0.7818* H  10 s( 99.95%)p 0.00(  0.05%)
                                            0.9998  0.0014  0.0005 -0.0011  0.0117
                                            0.0182  0.0000
   192. (0.02791) BD*( 1) C   4 - C   5  
                ( 49.42%)   0.7030* C   4 s( 38.80%)p 1.58( 61.16%)d 0.00(  0.04%)
                                           -0.0000 -0.6228  0.0050 -0.0038  0.0001
                                           -0.3338 -0.0170  0.0073 -0.0061 -0.7067
                                            0.0186  0.0048 -0.0068 -0.0000  0.0000
                                           -0.0000  0.0000 -0.0146 -0.0000 -0.0000
                                            0.0076  0.0114
                ( 50.58%)  -0.7112* C   5 s( 35.06%)p 1.85( 64.89%)d 0.00(  0.05%)
                                           -0.0000 -0.5919  0.0148 -0.0056 -0.0007
                                            0.4238 -0.0403 -0.0013  0.0003  0.6838
                                            0.0012 -0.0108 -0.0005 -0.0000 -0.0000
                                            0.0000  0.0000 -0.0145 -0.0000  0.0000
                                            0.0108  0.0115
   193. (0.38946) BD*( 2) C   4 - C   5  
                ( 47.52%)   0.6893* C   4 s(  0.00%)p 1.00( 99.98%)d 0.00(  0.02%)
                                           -0.0000  0.0000 -0.0000 -0.0000 -0.0000
                                            0.0000 -0.0000 -0.0000 -0.0000 -0.0000
                                           -0.0000 -0.0000  0.0000 -0.9997 -0.0066
                                           -0.0179 -0.0010  0.0000 -0.0100 -0.0102
                                            0.0000 -0.0000
                ( 52.48%)  -0.7244* C   5 s(  0.00%)p 1.00( 99.95%)d 0.00(  0.05%)
                                           -0.0000 -0.0000 -0.0000 -0.0000  0.0000
                                            0.0000  0.0000  0.0000  0.0000 -0.0000
                                           -0.0000 -0.0000 -0.0000 -0.9995 -0.0091
                                           -0.0187  0.0016 -0.0000 -0.0005  0.0222
                                           -0.0000 -0.0000
   194. (0.03379) BD*( 1) C   4 -Cl   7  
                ( 54.57%)   0.7387* C   4 s( 22.30%)p 3.48( 77.50%)d 0.01(  0.20%)
                                           -0.0001  0.4720  0.0118 -0.0099  0.0000
                                           -0.8801 -0.0024  0.0097  0.0164  0.0000
                                           -0.0000  0.0000 -0.0000  0.0000 -0.0000
                                           -0.0000 -0.0000 -0.0000 -0.0000 -0.0000
                                            0.0382 -0.0233
                ( 45.43%)  -0.6740*Cl   7 s( 17.49%)p 4.69( 82.02%)d 0.03(  0.48%)
                                            0.0000  0.0001  0.4161  0.0425  0.0006
                                           -0.0001 -0.0000  0.0001  0.9041 -0.0528
                                            0.0091 -0.0008  0.0001  0.0000  0.0000
                                           -0.0000 -0.0000 -0.0000 -0.0000 -0.0000
                                           -0.0000  0.0000 -0.0000  0.0000  0.0000
                                            0.0000 -0.0000  0.0000  0.0605 -0.0343
   195. (0.01688) BD*( 1) C   5 - C   6  
                ( 49.45%)   0.7032* C   5 s( 35.90%)p 1.78( 64.05%)d 0.00(  0.05%)
                                            0.0003 -0.5990  0.0162  0.0066  0.0002
                                           -0.7987  0.0161  0.0094 -0.0013 -0.0228
                                            0.0403 -0.0042 -0.0008 -0.0000 -0.0000
                                            0.0000  0.0000  0.0041 -0.0000  0.0000
                                           -0.0168  0.0123
                ( 50.55%)  -0.7110* C   6 s( 35.48%)p 1.82( 64.47%)d 0.00(  0.04%)
                                           -0.0001 -0.5955  0.0127  0.0017  0.0000
                                            0.8012 -0.0195 -0.0125  0.0011 -0.0269
                                            0.0402 -0.0040 -0.0000  0.0000  0.0000
                                            0.0000  0.0000 -0.0024 -0.0000  0.0000
                                           -0.0166  0.0122
   196. (0.01349) BD*( 1) C   5 - H  11  
                ( 38.87%)   0.6235* C   5 s( 29.05%)p 2.44( 70.90%)d 0.00(  0.04%)
                                            0.0004 -0.5385 -0.0238 -0.0019  0.0004
                                            0.4238  0.0139 -0.0002  0.0001 -0.7274
                                           -0.0115  0.0008 -0.0016  0.0000  0.0000
                                           -0.0000  0.0000  0.0162 -0.0000  0.0000
                                            0.0083  0.0091
                ( 61.13%)  -0.7818* H  11 s( 99.95%)p 0.00(  0.05%)
                                           -0.9998 -0.0014 -0.0005  0.0011 -0.0117
                                            0.0182 -0.0000
   197. (0.01310) BD*( 1) C   6 - H  12  
                ( 39.49%)   0.6284* C   6 s( 28.47%)p 2.51( 71.49%)d 0.00(  0.04%)
                                            0.0004 -0.5330 -0.0233 -0.0013 -0.0001
                                           -0.4199 -0.0079 -0.0005 -0.0010 -0.7337
                                           -0.0164 -0.0014 -0.0015  0.0000 -0.0000
                                           -0.0000  0.0000 -0.0163  0.0000  0.0000
                                            0.0098  0.0087
                ( 60.51%)  -0.7779* H  12 s( 99.95%)p 0.00(  0.05%)
                                           -0.9998 -0.0014 -0.0010 -0.0000  0.0107
                                            0.0193 -0.0000


 NHO Directionality and "Bond Bending" (deviations from line of nuclear centers)

         [Thresholds for printing:  angular deviation  >  1.0 degree]
                                    hybrid p-character > 25.0%
                                    orbital occupancy  >  0.10e

                                Line of Centers        Hybrid 1              Hybrid 2
                                ---------------  -------------------   ------------------
                NBO               Theta   Phi    Theta   Phi    Dev    Theta   Phi    Dev
 ========================================================================================
     3. BD (   2) C   1 - C   6    90.0  120.1     0.0    0.0  90.0      0.0    0.0  90.0
     5. BD (   1) C   2 - C   3    90.0  180.3    90.0  179.3   1.0      --     --    --
     6. BD (   2) C   2 - C   3    90.0  180.3     0.0    0.0  90.0      0.0    0.0  90.0
     8. BD (   1) C   3 - C   4    90.0  119.3     --     --    --      90.0  296.9   2.4
    10. BD (   1) C   4 - C   5    90.0   60.7    90.0   63.1   2.4      --     --    --
    11. BD (   2) C   4 - C   5    90.0   60.7     0.0    0.0  90.0      0.0    0.0  90.0
    13. BD (   1) C   5 - C   6    90.0  359.7     --     --    --      90.0  180.7   1.0
    28. LP (   2)Cl   7             --     --     90.0   90.0   --       --     --    --
    29. LP (   3)Cl   7             --     --      0.0    0.0   --       --     --    --
   185. BD*(   2) C   1 - C   6    90.0  120.1     0.0    0.0  90.0      0.0    0.0  90.0
   188. BD*(   2) C   2 - C   3    90.0  180.3     0.0    0.0  90.0      0.0    0.0  90.0
   193. BD*(   2) C   4 - C   5    90.0   60.7     0.0    0.0  90.0      0.0    0.0  90.0


 Second Order Perturbation Theory Analysis of Fock Matrix in NBO Basis

     Threshold for printing:   0.50 kcal/mol
                                                                              E(2)  E(j)-E(i) F(i,j)
         Donor NBO (i)                     Acceptor NBO (j)                 kcal/mol   a.u.    a.u. 
 ===================================================================================================

 within unit  1
   1. BD (   1) C   1 - C   2        / 65. RY*(   2) C   3                    2.23    1.72    0.056
   1. BD (   1) C   1 - C   2        /115. RY*(   1) C   6                    0.99    1.80    0.038
   1. BD (   1) C   1 - C   2        /116. RY*(   2) C   6                    1.42    2.01    0.048
   1. BD (   1) C   1 - C   2        /184. BD*(   1) C   1 - C   6            2.67    1.28    0.052
   1. BD (   1) C   1 - C   2        /186. BD*(   1) C   1 - H   8            0.94    1.15    0.029
   1. BD (   1) C   1 - C   2        /187. BD*(   1) C   2 - C   3            2.62    1.28    0.052
   1. BD (   1) C   1 - C   2        /189. BD*(   1) C   2 - H   9            0.98    1.15    0.030
   1. BD (   1) C   1 - C   2        /191. BD*(   1) C   3 - H  10            2.39    1.14    0.047
   1. BD (   1) C   1 - C   2        /197. BD*(   1) C   6 - H  12            2.43    1.15    0.047
   2. BD (   1) C   1 - C   6        / 47. RY*(   1) C   2                    0.99    1.80    0.038
   2. BD (   1) C   1 - C   6        / 48. RY*(   2) C   2                    1.42    2.01    0.048
   2. BD (   1) C   1 - C   6        / 99. RY*(   2) C   5                    2.23    1.72    0.056
   2. BD (   1) C   1 - C   6        /183. BD*(   1) C   1 - C   2            2.67    1.28    0.052
   2. BD (   1) C   1 - C   6        /186. BD*(   1) C   1 - H   8            0.94    1.15    0.029
   2. BD (   1) C   1 - C   6        /189. BD*(   1) C   2 - H   9            2.43    1.15    0.047
   2. BD (   1) C   1 - C   6        /195. BD*(   1) C   5 - C   6            2.62    1.28    0.052
   2. BD (   1) C   1 - C   6        /196. BD*(   1) C   5 - H  11            2.39    1.14    0.047
   2. BD (   1) C   1 - C   6        /197. BD*(   1) C   6 - H  12            0.98    1.15    0.030
   3. BD (   2) C   1 - C   6        / 49. RY*(   3) C   2                    1.23    1.33    0.040
   3. BD (   2) C   1 - C   6        /102. RY*(   5) C   5                    0.81    1.61    0.035
   3. BD (   2) C   1 - C   6        /188. BD*(   2) C   2 - C   3           21.10    0.28    0.069
   3. BD (   2) C   1 - C   6        /193. BD*(   2) C   4 - C   5           21.40    0.27    0.068
   4. BD (   1) C   1 - H   8        / 47. RY*(   1) C   2                    1.45    1.61    0.043
   4. BD (   1) C   1 - H   8        /115. RY*(   1) C   6                    1.45    1.61    0.043
   4. BD (   1) C   1 - H   8        /183. BD*(   1) C   1 - C   2            0.61    1.10    0.023
   4. BD (   1) C   1 - H   8        /184. BD*(   1) C   1 - C   6            0.61    1.10    0.023
   4. BD (   1) C   1 - H   8        /187. BD*(   1) C   2 - C   3            3.77    1.09    0.057
   4. BD (   1) C   1 - H   8        /189. BD*(   1) C   2 - H   9            0.51    0.96    0.020
   4. BD (   1) C   1 - H   8        /195. BD*(   1) C   5 - C   6            3.77    1.09    0.057
   4. BD (   1) C   1 - H   8        /197. BD*(   1) C   6 - H  12            0.51    0.96    0.020
   5. BD (   1) C   2 - C   3        / 30. RY*(   1) C   1                    0.97    1.81    0.038
   5. BD (   1) C   2 - C   3        / 31. RY*(   2) C   1                    1.46    1.98    0.048
   5. BD (   1) C   2 - C   3        / 81. RY*(   1) C   4                    0.58    1.71    0.028
   5. BD (   1) C   2 - C   3        / 82. RY*(   2) C   4                    1.30    1.58    0.041
   5. BD (   1) C   2 - C   3        /183. BD*(   1) C   1 - C   2            2.58    1.28    0.051
   5. BD (   1) C   2 - C   3        /186. BD*(   1) C   1 - H   8            2.25    1.15    0.045
   5. BD (   1) C   2 - C   3        /189. BD*(   1) C   2 - H   9            0.84    1.15    0.028
   5. BD (   1) C   2 - C   3        /190. BD*(   1) C   3 - C   4            3.59    1.27    0.060
   5. BD (   1) C   2 - C   3        /191. BD*(   1) C   3 - H  10            1.11    1.14    0.032
   5. BD (   1) C   2 - C   3        /194. BD*(   1) C   4 -Cl   7            5.18    0.85    0.059
   6. BD (   2) C   2 - C   3        / 32. RY*(   3) C   1                    1.08    0.76    0.028
   6. BD (   2) C   2 - C   3        / 66. RY*(   3) C   3                    0.56    0.88    0.022
   6. BD (   2) C   2 - C   3        / 83. RY*(   3) C   4                    0.59    1.40    0.028
   6. BD (   2) C   2 - C   3        /185. BD*(   2) C   1 - C   6           19.69    0.28    0.067
   6. BD (   2) C   2 - C   3        /193. BD*(   2) C   4 - C   5           21.20    0.27    0.068
   7. BD (   1) C   2 - H   9        / 30. RY*(   1) C   1                    1.38    1.63    0.043
   7. BD (   1) C   2 - H   9        / 64. RY*(   1) C   3                    1.32    1.55    0.041
   7. BD (   1) C   2 - H   9        /183. BD*(   1) C   1 - C   2            0.61    1.10    0.023
   7. BD (   1) C   2 - H   9        /184. BD*(   1) C   1 - C   6            3.67    1.10    0.057
   7. BD (   1) C   2 - H   9        /186. BD*(   1) C   1 - H   8            0.52    0.97    0.020
   7. BD (   1) C   2 - H   9        /187. BD*(   1) C   2 - C   3            0.55    1.10    0.022
   7. BD (   1) C   2 - H   9        /190. BD*(   1) C   3 - C   4            3.48    1.09    0.055
   8. BD (   1) C   3 - C   4        / 47. RY*(   1) C   2                    1.03    1.82    0.039
   8. BD (   1) C   3 - C   4        / 48. RY*(   2) C   2                    1.44    2.03    0.049
   8. BD (   1) C   3 - C   4        / 98. RY*(   1) C   5                    1.43    1.76    0.045
   8. BD (   1) C   3 - C   4        / 99. RY*(   2) C   5                    0.57    1.75    0.028
   8. BD (   1) C   3 - C   4        /187. BD*(   1) C   2 - C   3            2.94    1.30    0.055
   8. BD (   1) C   3 - C   4        /189. BD*(   1) C   2 - H   9            1.98    1.17    0.043
   8. BD (   1) C   3 - C   4        /191. BD*(   1) C   3 - H  10            1.26    1.17    0.034
   8. BD (   1) C   3 - C   4        /192. BD*(   1) C   4 - C   5            3.63    1.29    0.061
   8. BD (   1) C   3 - C   4        /196. BD*(   1) C   5 - H  11            2.16    1.17    0.045
   9. BD (   1) C   3 - H  10        / 47. RY*(   1) C   2                    1.32    1.62    0.041
   9. BD (   1) C   3 - H  10        / 81. RY*(   1) C   4                    1.42    1.53    0.042
   9. BD (   1) C   3 - H  10        /183. BD*(   1) C   1 - C   2            3.53    1.10    0.056
   9. BD (   1) C   3 - H  10        /187. BD*(   1) C   2 - C   3            0.79    1.10    0.026
   9. BD (   1) C   3 - H  10        /189. BD*(   1) C   2 - H   9            0.54    0.97    0.020
   9. BD (   1) C   3 - H  10        /190. BD*(   1) C   3 - C   4            0.95    1.09    0.029
   9. BD (   1) C   3 - H  10        /192. BD*(   1) C   4 - C   5            4.42    1.09    0.062
  10. BD (   1) C   4 - C   5        / 64. RY*(   1) C   3                    1.43    1.76    0.045
  10. BD (   1) C   4 - C   5        / 65. RY*(   2) C   3                    0.57    1.75    0.028
  10. BD (   1) C   4 - C   5        /115. RY*(   1) C   6                    1.03    1.82    0.039
  10. BD (   1) C   4 - C   5        /116. RY*(   2) C   6                    1.44    2.03    0.049
  10. BD (   1) C   4 - C   5        /190. BD*(   1) C   3 - C   4            3.63    1.29    0.061
  10. BD (   1) C   4 - C   5        /191. BD*(   1) C   3 - H  10            2.16    1.17    0.045
  10. BD (   1) C   4 - C   5        /195. BD*(   1) C   5 - C   6            2.94    1.30    0.055
  10. BD (   1) C   4 - C   5        /196. BD*(   1) C   5 - H  11            1.26    1.17    0.034
  10. BD (   1) C   4 - C   5        /197. BD*(   1) C   6 - H  12            1.98    1.17    0.043
  11. BD (   2) C   4 - C   5        / 66. RY*(   3) C   3                    2.27    0.89    0.044
  11. BD (   2) C   4 - C   5        /118. RY*(   4) C   6                    1.14    1.44    0.040
  11. BD (   2) C   4 - C   5        /132. RY*(   1)Cl   7                    1.93    0.95    0.042
  11. BD (   2) C   4 - C   5        /185. BD*(   2) C   1 - C   6           18.79    0.30    0.067
  11. BD (   2) C   4 - C   5        /188. BD*(   2) C   2 - C   3           19.39    0.30    0.068
  12. BD (   1) C   4 -Cl   7        / 64. RY*(   1) C   3                    0.85    1.74    0.034
  12. BD (   1) C   4 -Cl   7        / 98. RY*(   1) C   5                    0.85    1.74    0.034
  12. BD (   1) C   4 -Cl   7        /187. BD*(   1) C   2 - C   3            2.27    1.28    0.048
  12. BD (   1) C   4 -Cl   7        /195. BD*(   1) C   5 - C   6            2.27    1.28    0.048
  13. BD (   1) C   5 - C   6        / 30. RY*(   1) C   1                    0.97    1.81    0.038
  13. BD (   1) C   5 - C   6        / 31. RY*(   2) C   1                    1.46    1.98    0.048
  13. BD (   1) C   5 - C   6        / 81. RY*(   1) C   4                    0.58    1.71    0.028
  13. BD (   1) C   5 - C   6        / 82. RY*(   2) C   4                    1.30    1.58    0.041
  13. BD (   1) C   5 - C   6        /184. BD*(   1) C   1 - C   6            2.58    1.28    0.051
  13. BD (   1) C   5 - C   6        /186. BD*(   1) C   1 - H   8            2.25    1.15    0.045
  13. BD (   1) C   5 - C   6        /192. BD*(   1) C   4 - C   5            3.59    1.27    0.060
  13. BD (   1) C   5 - C   6        /194. BD*(   1) C   4 -Cl   7            5.18    0.85    0.059
  13. BD (   1) C   5 - C   6        /196. BD*(   1) C   5 - H  11            1.11    1.14    0.032
  13. BD (   1) C   5 - C   6        /197. BD*(   1) C   6 - H  12            0.84    1.15    0.028
  14. BD (   1) C   5 - H  11        / 81. RY*(   1) C   4                    1.42    1.53    0.042
  14. BD (   1) C   5 - H  11        /115. RY*(   1) C   6                    1.32    1.62    0.041
  14. BD (   1) C   5 - H  11        /184. BD*(   1) C   1 - C   6            3.53    1.10    0.056
  14. BD (   1) C   5 - H  11        /190. BD*(   1) C   3 - C   4            4.42    1.09    0.062
  14. BD (   1) C   5 - H  11        /192. BD*(   1) C   4 - C   5            0.95    1.09    0.029
  14. BD (   1) C   5 - H  11        /195. BD*(   1) C   5 - C   6            0.79    1.10    0.026
  14. BD (   1) C   5 - H  11        /197. BD*(   1) C   6 - H  12            0.54    0.97    0.020
  15. BD (   1) C   6 - H  12        / 30. RY*(   1) C   1                    1.38    1.63    0.043
  15. BD (   1) C   6 - H  12        / 98. RY*(   1) C   5                    1.32    1.55    0.041
  15. BD (   1) C   6 - H  12        /183. BD*(   1) C   1 - C   2            3.67    1.10    0.057
  15. BD (   1) C   6 - H  12        /184. BD*(   1) C   1 - C   6            0.61    1.10    0.023
  15. BD (   1) C   6 - H  12        /186. BD*(   1) C   1 - H   8            0.52    0.97    0.020
  15. BD (   1) C   6 - H  12        /192. BD*(   1) C   4 - C   5            3.48    1.09    0.055
  15. BD (   1) C   6 - H  12        /195. BD*(   1) C   5 - C   6            0.55    1.10    0.022
  16. CR (   1) C   1                / 48. RY*(   2) C   2                    1.45   11.34    0.114
  16. CR (   1) C   1                /116. RY*(   2) C   6                    1.45   11.34    0.114
  16. CR (   1) C   1                /187. BD*(   1) C   2 - C   3            0.71   10.61    0.078
  16. CR (   1) C   1                /195. BD*(   1) C   5 - C   6            0.71   10.61    0.078
  17. CR (   1) C   2                / 31. RY*(   2) C   1                    1.51   11.32    0.117
  17. CR (   1) C   2                / 64. RY*(   1) C   3                    0.57   11.07    0.071
  17. CR (   1) C   2                / 65. RY*(   2) C   3                    0.95   11.06    0.092
  17. CR (   1) C   2                / 67. RY*(   4) C   3                    0.65   10.95    0.075
  17. CR (   1) C   2                /184. BD*(   1) C   1 - C   6            0.69   10.62    0.077
  17. CR (   1) C   2                /190. BD*(   1) C   3 - C   4            0.69   10.60    0.077
  18. CR (   1) C   3                / 48. RY*(   2) C   2                    1.54   11.34    0.118
  18. CR (   1) C   3                / 81. RY*(   1) C   4                    0.51   11.04    0.067
  18. CR (   1) C   3                / 82. RY*(   2) C   4                    2.46   10.91    0.146
  18. CR (   1) C   3                /183. BD*(   1) C   1 - C   2            0.73   10.61    0.079
  18. CR (   1) C   3                /192. BD*(   1) C   4 - C   5            0.98   10.60    0.092
  18. CR (   1) C   3                /194. BD*(   1) C   4 -Cl   7            0.97   10.18    0.090
  19. CR (   1) C   4                / 65. RY*(   2) C   3                    1.90   11.13    0.130
  19. CR (   1) C   4                / 99. RY*(   2) C   5                    1.90   11.13    0.130
  19. CR (   1) C   4                /187. BD*(   1) C   2 - C   3            0.63   10.68    0.073
  19. CR (   1) C   4                /190. BD*(   1) C   3 - C   4            0.71   10.67    0.078
  19. CR (   1) C   4                /192. BD*(   1) C   4 - C   5            0.71   10.67    0.078
  19. CR (   1) C   4                /194. BD*(   1) C   4 -Cl   7            2.63   10.25    0.148
  19. CR (   1) C   4                /195. BD*(   1) C   5 - C   6            0.63   10.68    0.073
  20. CR (   1) C   5                / 81. RY*(   1) C   4                    0.51   11.04    0.067
  20. CR (   1) C   5                / 82. RY*(   2) C   4                    2.46   10.91    0.146
  20. CR (   1) C   5                /116. RY*(   2) C   6                    1.54   11.34    0.118
  20. CR (   1) C   5                /184. BD*(   1) C   1 - C   6            0.73   10.61    0.079
  20. CR (   1) C   5                /190. BD*(   1) C   3 - C   4            0.98   10.60    0.092
  20. CR (   1) C   5                /194. BD*(   1) C   4 -Cl   7            0.97   10.18    0.090
  21. CR (   1) C   6                / 31. RY*(   2) C   1                    1.51   11.32    0.117
  21. CR (   1) C   6                / 98. RY*(   1) C   5                    0.57   11.07    0.071
  21. CR (   1) C   6                / 99. RY*(   2) C   5                    0.95   11.06    0.092
  21. CR (   1) C   6                /101. RY*(   4) C   5                    0.65   10.95    0.075
  21. CR (   1) C   6                /183. BD*(   1) C   1 - C   2            0.69   10.62    0.077
  21. CR (   1) C   6                /192. BD*(   1) C   4 - C   5            0.69   10.60    0.077
  23. CR (   2)Cl   7                / 81. RY*(   1) C   4                    1.96   11.48    0.134
  23. CR (   2)Cl   7                / 84. RY*(   4) C   4                    0.68   11.45    0.079
  23. CR (   2)Cl   7                /190. BD*(   1) C   3 - C   4            0.67   11.04    0.077
  23. CR (   2)Cl   7                /192. BD*(   1) C   4 - C   5            0.67   11.04    0.077
  27. LP (   1)Cl   7                / 81. RY*(   1) C   4                    3.25    1.94    0.071
  27. LP (   1)Cl   7                / 84. RY*(   4) C   4                    0.61    1.90    0.031
  27. LP (   1)Cl   7                /190. BD*(   1) C   3 - C   4            1.64    1.49    0.044
  27. LP (   1)Cl   7                /192. BD*(   1) C   4 - C   5            1.64    1.49    0.044
  28. LP (   2)Cl   7                / 82. RY*(   2) C   4                    1.21    1.19    0.034
  28. LP (   2)Cl   7                /190. BD*(   1) C   3 - C   4            4.08    0.88    0.053
  28. LP (   2)Cl   7                /192. BD*(   1) C   4 - C   5            4.08    0.88    0.053
  29. LP (   3)Cl   7                / 83. RY*(   3) C   4                    0.98    1.46    0.034
  29. LP (   3)Cl   7                /193. BD*(   2) C   4 - C   5           12.21    0.33    0.062
 185. BD*(   2) C   1 - C   6        / 32. RY*(   3) C   1                    2.99    0.48    0.082
 185. BD*(   2) C   1 - C   6        /117. RY*(   3) C   6                    1.51    0.98    0.084
 185. BD*(   2) C   1 - C   6        /125. RY*(  11) C   6                    0.71    0.38    0.036
 188. BD*(   2) C   2 - C   3        / 50. RY*(   4) C   2                    1.51    1.07    0.089
 188. BD*(   2) C   2 - C   3        / 57. RY*(  11) C   2                    0.51    0.37    0.030
 188. BD*(   2) C   2 - C   3        / 66. RY*(   3) C   3                    1.28    0.59    0.061
 188. BD*(   2) C   2 - C   3        / 68. RY*(   5) C   3                    0.65    1.46    0.068
 193. BD*(   2) C   4 - C   5        / 66. RY*(   3) C   3                    0.91    0.61    0.047
 193. BD*(   2) C   4 - C   5        / 83. RY*(   3) C   4                    1.00    1.13    0.068
 193. BD*(   2) C   4 - C   5        /100. RY*(   3) C   5                    3.46    0.70    0.100
 193. BD*(   2) C   4 - C   5        /118. RY*(   4) C   6                    0.53    1.16    0.050
 193. BD*(   2) C   4 - C   5        /132. RY*(   1)Cl   7                    0.82    0.66    0.047
 193. BD*(   2) C   4 - C   5        /185. BD*(   2) C   1 - C   6          222.49    0.01    0.084
 193. BD*(   2) C   4 - C   5        /188. BD*(   2) C   2 - C   3          232.13    0.01    0.081


 Natural Bond Orbitals (Summary):

                                                            Principal Delocalizations
           NBO                        Occupancy    Energy   (geminal,vicinal,remote)
 ====================================================================================
 Molecular unit  1  (C6H5Cl)
     1. BD (   1) C   1 - C   2          1.97981    -0.71074  184(g),187(g),197(v),191(v)
                                                    65(v),116(v),115(v),189(g)
                                                    186(g)
     2. BD (   1) C   1 - C   6          1.97981    -0.71074  183(g),195(g),189(v),196(v)
                                                    99(v),48(v),47(v),197(g)
                                                    186(g)
     3. BD (   2) C   1 - C   6          1.66069    -0.26297  193(v),188(v),49(v),102(v)
     4. BD (   1) C   1 - H   8          1.98015    -0.52824  187(v),195(v),47(v),115(v)
                                                    183(g),184(g),189(v),197(v)
     5. BD (   1) C   2 - C   3          1.97151    -0.71087  194(v),190(g),183(g),186(v)
                                                    31(v),82(v),191(g),30(v)
                                                    189(g),81(v)
     6. BD (   2) C   2 - C   3          1.66502    -0.26486  193(v),185(v),32(v),83(v)
                                                    66(g)
     7. BD (   1) C   2 - H   9          1.97957    -0.52934  184(v),190(v),30(v),64(v)
                                                    183(g),187(g),186(v)
     8. BD (   1) C   3 - C   4          1.97991    -0.73552  192(g),187(g),196(v),189(v)
                                                    48(v),98(v),191(g),47(v)
                                                    99(v)
     9. BD (   1) C   3 - H  10          1.97835    -0.53230  192(v),183(v),81(v),47(v)
                                                    190(g),187(g),189(v)
    10. BD (   1) C   4 - C   5          1.97991    -0.73552  190(g),195(g),191(v),197(v)
                                                    116(v),64(v),196(g),115(v)
                                                    65(v)
    11. BD (   2) C   4 - C   5          1.67912    -0.27903  188(v),185(v),66(v),132(v)
                                                    118(v)
    12. BD (   1) C   4 -Cl   7          1.98871    -0.71736  187(v),195(v),64(v),98(v)
    13. BD (   1) C   5 - C   6          1.97151    -0.71087  194(v),192(g),184(g),186(v)
                                                    31(v),82(v),196(g),30(v)
                                                    197(g),81(v)
    14. BD (   1) C   5 - H  11          1.97835    -0.53230  190(v),184(v),81(v),115(v)
                                                    192(g),195(g),197(v)
    15. BD (   1) C   6 - H  12          1.97957    -0.52934  183(v),192(v),30(v),98(v)
                                                    184(g),195(g),186(v)
    16. CR (   1) C   1                  1.99915   -10.04370  48(v),116(v),187(v),195(v)
    17. CR (   1) C   2                  1.99916   -10.04770  31(v),65(v),190(v),184(v)
                                                    67(v),64(v)
    18. CR (   1) C   3                  1.99896   -10.04390  82(v),48(v),192(v),194(v)
                                                    183(v),81(v)
    19. CR (   1) C   4                  1.99858   -10.11478  194(g),65(v),99(v),190(g)
                                                    192(g),187(v),195(v)
    20. CR (   1) C   5                  1.99896   -10.04390  82(v),116(v),190(v),194(v)
                                                    184(v),81(v)
    21. CR (   1) C   6                  1.99916   -10.04770  31(v),99(v),192(v),183(v)
                                                    101(v),98(v)
    22. CR (   1)Cl   7                  2.00000  -100.22211   
    23. CR (   2)Cl   7                  1.99972   -10.48005  81(v),84(v),190(v),192(v)
    24. CR (   3)Cl   7                  1.99991    -7.22834   
    25. CR (   4)Cl   7                  1.99999    -7.22031   
    26. CR (   5)Cl   7                  1.99999    -7.22060   
    27. LP (   1)Cl   7                  1.99202    -0.93694  81(v),190(v),192(v),84(v)
    28. LP (   2)Cl   7                  1.97216    -0.32357  190(v),192(v),82(v)
    29. LP (   3)Cl   7                  1.93049    -0.32231  193(v),83(v)
    30. RY*(   1) C   1                  0.00584     1.09873   
    31. RY*(   2) C   1                  0.00220     1.26820   
    32. RY*(   3) C   1                  0.00084     0.49437   
    33. RY*(   4) C   1                  0.00055     1.64047   
    34. RY*(   5) C   1                  0.00038     0.85808   
    35. RY*(   6) C   1                  0.00027     1.24536   
    36. RY*(   7) C   1                  0.00011     2.65274   
    37. RY*(   8) C   1                  0.00007     2.98735   
    38. RY*(   9) C   1                  0.00004     1.81867   
    39. RY*(  10) C   1                  0.00002     0.72672   
    40. RY*(  11) C   1                  0.00000     0.37479   
    41. RY*(  12) C   1                  0.00000     2.73910   
    42. RY*(  13) C   1                  0.00000     2.72982   
    43. RY*(  14) C   1                  0.00000     1.48955   
    44. RY*(  15) C   1                  0.00000     1.64830   
    45. RY*(  16) C   1                  0.00000    21.89348   
    46. RY*(  17) C   1                  0.00000     1.54173   
    47. RY*(   1) C   2                  0.00607     1.08610   
    48. RY*(   2) C   2                  0.00222     1.29813   
    49. RY*(   3) C   2                  0.00069     1.07007   
    50. RY*(   4) C   2                  0.00057     1.09128   
    51. RY*(   5) C   2                  0.00039     0.86228   
    52. RY*(   6) C   2                  0.00026     0.95172   
    53. RY*(   7) C   2                  0.00011     2.63924   
    54. RY*(   8) C   2                  0.00008     2.46651   
    55. RY*(   9) C   2                  0.00005     2.25536   
    56. RY*(  10) C   2                  0.00002     1.74313   
    57. RY*(  11) C   2                  0.00000     0.38718   
    58. RY*(  12) C   2                  0.00001     2.48079   
    59. RY*(  13) C   2                  0.00000    20.69966   
    60. RY*(  14) C   2                  0.00000     2.79800   
    61. RY*(  15) C   2                  0.00000     1.45078   
    62. RY*(  16) C   2                  0.00000     1.11530   
    63. RY*(  17) C   2                  0.00000     2.73239   
    64. RY*(   1) C   3                  0.00579     1.02321   
    65. RY*(   2) C   3                  0.00276     1.01061   
    66. RY*(   3) C   3                  0.00092     0.61081   
    67. RY*(   4) C   3                  0.00089     0.90234   
    68. RY*(   5) C   3                  0.00055     1.47215   
    69. RY*(   6) C   3                  0.00022     0.64503   
    70. RY*(   7) C   3                  0.00022     1.43329   
    71. RY*(   8) C   3                  0.00019     2.22272   
    72. RY*(   9) C   3                  0.00011     2.81214   
    73. RY*(  10) C   3                  0.00006     2.11887   
    74. RY*(  11) C   3                  0.00005     2.09893   
    75. RY*(  12) C   3                  0.00000     2.74986   
    76. RY*(  13) C   3                  0.00001     1.07676   
    77. RY*(  14) C   3                  0.00000     2.53963   
    78. RY*(  15) C   3                  0.00000     1.25841   
    79. RY*(  16) C   3                  0.00000    21.71094   
    80. RY*(  17) C   3                  0.00001     1.56542   
    81. RY*(   1) C   4                  0.00748     0.99827   
    82. RY*(   2) C   4                  0.00669     0.86673   
    83. RY*(   3) C   4                  0.00236     1.13766   
    84. RY*(   4) C   4                  0.00077     0.96698   
    85. RY*(   5) C   4                  0.00074     1.63798   
    86. RY*(   6) C   4                  0.00057     2.20478   
    87. RY*(   7) C   4                  0.00024     1.59146   
    88. RY*(   8) C   4                  0.00013     1.84601   
    89. RY*(   9) C   4                  0.00014     3.21472   
    90. RY*(  10) C   4                  0.00010     0.53274   
    91. RY*(  11) C   4                  0.00004     1.44355   
    92. RY*(  12) C   4                  0.00002     1.39354   
    93. RY*(  13) C   4                  0.00001     1.99371   
    94. RY*(  14) C   4                  0.00000     1.55630   
    95. RY*(  15) C   4                  0.00000     0.61854   
    96. RY*(  16) C   4                  0.00000     2.71883   
    97. RY*(  17) C   4                  0.00000    21.98127   
    98. RY*(   1) C   5                  0.00579     1.02321   
    99. RY*(   2) C   5                  0.00276     1.01061   
   100. RY*(   3) C   5                  0.00106     0.70847   
   101. RY*(   4) C   5                  0.00089     0.90234   
   102. RY*(   5) C   5                  0.00051     1.34769   
   103. RY*(   6) C   5                  0.00022     0.67082   
   104. RY*(   7) C   5                  0.00022     1.43329   
   105. RY*(   8) C   5                  0.00019     2.22272   
   106. RY*(   9) C   5                  0.00011     2.81214   
   107. RY*(  10) C   5                  0.00006     2.13307   
   108. RY*(  11) C   5                  0.00005     2.08473   
   109. RY*(  12) C   5                  0.00000     2.74967   
   110. RY*(  13) C   5                  0.00000     2.41012   
   111. RY*(  14) C   5                  0.00000    21.55375   
   112. RY*(  15) C   5                  0.00000     1.25860   
   113. RY*(  16) C   5                  0.00001     1.33525   
   114. RY*(  17) C   5                  0.00000     1.59364   
   115. RY*(   1) C   6                  0.00607     1.08610   
   116. RY*(   2) C   6                  0.00222     1.29813   
   117. RY*(   3) C   6                  0.00077     0.99698   
   118. RY*(   4) C   6                  0.00051     1.16436   
   119. RY*(   5) C   6                  0.00039     0.86228   
   120. RY*(   6) C   6                  0.00026     0.95172   
   121. RY*(   7) C   6                  0.00011     2.63924   
   122. RY*(   8) C   6                  0.00008     2.46651   
   123. RY*(   9) C   6                  0.00005     2.25537   
   124. RY*(  10) C   6                  0.00002     1.73492   
   125. RY*(  11) C   6                  0.00000     0.40342   
   126. RY*(  12) C   6                  0.00001     2.48900   
   127. RY*(  13) C   6                  0.00000    21.64270   
   128. RY*(  14) C   6                  0.00000     1.62029   
   129. RY*(  15) C   6                  0.00000     1.43543   
   130. RY*(  16) C   6                  0.00000     1.34997   
   131. RY*(  17) C   6                  0.00000     2.73122   
   132. RY*(   1)Cl   7                  0.00330     0.66725   
   133. RY*(   2)Cl   7                  0.00235     0.59452   
   134. RY*(   3)Cl   7                  0.00085     0.56073   
   135. RY*(   4)Cl   7                  0.00011     1.42789   
   136. RY*(   5)Cl   7                  0.00007     0.79689   
   137. RY*(   6)Cl   7                  0.00005     1.64001   
   138. RY*(   7)Cl   7                  0.00004     0.86677   
   139. RY*(   8)Cl   7                  0.00001     0.72363   
   140. RY*(   9)Cl   7                  0.00000    17.02721   
   141. RY*(  10)Cl   7                  0.00000   207.79895   
   142. RY*(  11)Cl   7                  0.00000     3.44572   
   143. RY*(  12)Cl   7                  0.00000    24.27702   
   144. RY*(  13)Cl   7                  0.00000     0.75738   
   145. RY*(  14)Cl   7                  0.00000     0.44438   
   146. RY*(  15)Cl   7                  0.00000     3.30511   
   147. RY*(  16)Cl   7                  0.00000    24.43453   
   148. RY*(  17)Cl   7                  0.00000     0.93878   
   149. RY*(  18)Cl   7                  0.00000    24.24463   
   150. RY*(  19)Cl   7                  0.00001     0.80937   
   151. RY*(  20)Cl   7                  0.00001     0.77931   
   152. RY*(  21)Cl   7                  0.00001     3.46392   
   153. RY*(   1) H   8                  0.00078     0.69664   
   154. RY*(   2) H   8                  0.00020     2.26718   
   155. RY*(   3) H   8                  0.00019     1.58531   
   156. RY*(   4) H   8                  0.00012     1.96160   
   157. RY*(   5) H   8                  0.00002     0.20991   
   158. RY*(   6) H   8                  0.00003     2.45735   
   159. RY*(   1) H   9                  0.00077     0.63879   
   160. RY*(   2) H   9                  0.00020     2.30326   
   161. RY*(   3) H   9                  0.00019     1.58266   
   162. RY*(   4) H   9                  0.00011     1.95197   
   163. RY*(   5) H   9                  0.00003     2.45350   
   164. RY*(   6) H   9                  0.00001     0.23292   
   165. RY*(   1) H  10                  0.00088     0.72084   
   166. RY*(   2) H  10                  0.00025     0.98577   
   167. RY*(   3) H  10                  0.00019     1.92866   
   168. RY*(   4) H  10                  0.00018     1.58825   
   169. RY*(   5) H  10                  0.00011     1.56825   
   170. RY*(   6) H  10                  0.00003     2.42941   
   171. RY*(   1) H  11                  0.00088     0.72084   
   172. RY*(   2) H  11                  0.00025     0.98577   
   173. RY*(   3) H  11                  0.00019     1.92866   
   174. RY*(   4) H  11                  0.00018     1.58825   
   175. RY*(   5) H  11                  0.00011     1.56825   
   176. RY*(   6) H  11                  0.00003     2.42941   
   177. RY*(   1) H  12                  0.00077     0.63879   
   178. RY*(   2) H  12                  0.00020     2.30326   
   179. RY*(   3) H  12                  0.00019     1.58266   
   180. RY*(   4) H  12                  0.00011     1.95197   
   181. RY*(   5) H  12                  0.00003     2.45350   
   182. RY*(   6) H  12                  0.00001     0.23292   
   183. BD*(   1) C   1 - C   2          0.01586     0.56751   
   184. BD*(   1) C   1 - C   6          0.01586     0.56751   
   185. BD*(   2) C   1 - C   6          0.33275     0.01884  188(v),193(v),32(g),117(g)
                                                    125(g)
   186. BD*(   1) C   1 - H   8          0.01334     0.43686   
   187. BD*(   1) C   2 - C   3          0.01688     0.56568   
   188. BD*(   2) C   2 - C   3          0.32752     0.01710  185(v),193(v),50(g),66(g)
                                                    68(g),57(g)
   189. BD*(   1) C   2 - H   9          0.01310     0.43490   
   190. BD*(   1) C   3 - C   4          0.02791     0.55704   
   191. BD*(   1) C   3 - H  10          0.01349     0.42958   
   192. BD*(   1) C   4 - C   5          0.02791     0.55704   
   193. BD*(   2) C   4 - C   5          0.38946     0.00452  188(v),185(v),100(g),83(g)
                                                    66(v),132(v),118(v)
   194. BD*(   1) C   4 -Cl   7          0.03379     0.13787   
   195. BD*(   1) C   5 - C   6          0.01688     0.56568   
   196. BD*(   1) C   5 - H  11          0.01349     0.42958   
   197. BD*(   1) C   6 - H  12          0.01310     0.43490   
       -------------------------------
              Total Lewis   56.64025  ( 97.6556%)
        Valence non-Lewis    1.27136  (  2.1920%)
        Rydberg non-Lewis    0.08839  (  0.1524%)
       -------------------------------
            Total unit  1   58.00000  (100.0000%)
           Charge unit  1    0.00000
 Calling FoFJK, ICntrl=    100127 FMM=F ISym2X=0 I1Cent= 0 IOpClX= 0 NMat=1 NMatS=1 NMatT=0.
 Full mass-weighted force constant matrix:
 Low frequencies ---   -7.1733   -4.3826   -2.1562   -0.0030    0.0023    0.0026
 Low frequencies ---  186.3004  297.3851  414.2018
 Diagonal vibrational polarizability:
        4.7620866       0.3007920       5.5775559
 Harmonic frequencies (cm**-1), IR intensities (KM/Mole), Raman scattering
 activities (A**4/AMU), depolarization ratios for plane and unpolarized
 incident light, reduced masses (AMU), force constants (mDyne/A),
 and normal coordinates:
                      1                      2                      3
                      A                      A                      A
 Frequencies --    186.3003               297.3851               414.2018
 Red. masses --      5.1044                 5.7464                11.7267
 Frc consts  --      0.1044                 0.2994                 1.1854
 IR Inten    --      0.1550                 0.0672                 5.1692
  Atom  AN      X      Y      Z        X      Y      Z        X      Y      Z
     1   6    -0.00  -0.00   0.28    -0.00   0.11  -0.00    -0.38  -0.00  -0.00
     2   6    -0.00   0.00   0.03     0.16   0.01  -0.00    -0.25  -0.09  -0.00
     3   6     0.00   0.00  -0.27     0.13  -0.23  -0.00    -0.18  -0.09   0.00
     4   6    -0.00  -0.00  -0.27     0.00  -0.29   0.00     0.07   0.00  -0.00
     5   6     0.00  -0.00  -0.27    -0.13  -0.23   0.00    -0.18   0.09  -0.00
     6   6    -0.00  -0.00   0.03    -0.16   0.01   0.00    -0.25   0.09   0.00
     7  17     0.00   0.00   0.15     0.00   0.21  -0.00     0.44  -0.00  -0.00
     8   1    -0.00   0.00   0.62    -0.00   0.25  -0.00    -0.38  -0.00  -0.00
     9   1     0.00   0.00   0.13     0.31   0.10  -0.00    -0.13  -0.02  -0.00
    10   1     0.00   0.00  -0.36     0.29  -0.33  -0.00    -0.35   0.01   0.00
    11   1     0.00  -0.00  -0.36    -0.29  -0.33   0.00    -0.35  -0.01   0.00
    12   1    -0.00  -0.00   0.13    -0.31   0.10   0.00    -0.13   0.02   0.00
                      4                      5                      6
                      A                      A                      A
 Frequencies --    415.2128               480.0097               627.6522
 Red. masses --      2.9480                 3.2481                 6.4539
 Frc consts  --      0.2995                 0.4409                 1.4980
 IR Inten    --      0.0000                 8.6026                 0.2743
  Atom  AN      X      Y      Z        X      Y      Z        X      Y      Z
     1   6    -0.00   0.00   0.00    -0.00  -0.00   0.21     0.00  -0.14  -0.00
     2   6    -0.00  -0.00   0.21    -0.00  -0.00  -0.14     0.26  -0.24   0.00
     3   6    -0.00  -0.00  -0.21    -0.00  -0.00  -0.04     0.24   0.20   0.00
     4   6     0.00  -0.00   0.00     0.00   0.00   0.34    -0.00   0.14  -0.00
     5   6    -0.00  -0.00   0.21    -0.00   0.00  -0.04    -0.24   0.20  -0.00
     6   6    -0.00   0.00  -0.21    -0.00  -0.00  -0.14    -0.26  -0.24  -0.00
     7  17     0.00   0.00  -0.00     0.00   0.00  -0.03     0.00   0.02   0.00
     8   1    -0.00   0.00   0.00    -0.00   0.00   0.34     0.00   0.29  -0.00
     9   1    -0.00  -0.00   0.45     0.00   0.00  -0.46     0.12  -0.32  -0.00
    10   1     0.00   0.00  -0.45    -0.00   0.00  -0.36     0.10   0.29   0.00
    11   1    -0.00   0.00   0.45    -0.00  -0.00  -0.36    -0.10   0.29  -0.00
    12   1    -0.00  -0.00  -0.45     0.00  -0.00  -0.46    -0.12  -0.32   0.00
                      7                      8                      9
                      A                      A                      A
 Frequencies --    703.2230               709.5499               755.6319
 Red. masses --      2.2110                 6.8434                 1.5423
 Frc consts  --      0.6442                 2.0300                 0.5188
 IR Inten    --     26.2485                27.4770                62.1790
  Atom  AN      X      Y      Z        X      Y      Z        X      Y      Z
     1   6     0.00  -0.00   0.12    -0.30   0.00   0.00     0.00   0.00  -0.11
     2   6    -0.00   0.00  -0.17     0.08  -0.26  -0.00    -0.00   0.00  -0.01
     3   6    -0.00   0.00   0.11     0.08  -0.25   0.00     0.00   0.00  -0.08
     4   6    -0.00   0.00  -0.13     0.32   0.00  -0.00    -0.00   0.00   0.15
     5   6    -0.00  -0.00   0.11     0.08   0.25   0.00     0.00  -0.00  -0.08
     6   6    -0.00  -0.00  -0.17     0.08   0.26  -0.00    -0.00  -0.00  -0.01
     7  17     0.00   0.00  -0.00    -0.13   0.00   0.00     0.00   0.00  -0.01
     8   1    -0.00  -0.00   0.58    -0.29   0.00   0.00    -0.00   0.00   0.53
     9   1    -0.00   0.00   0.05     0.41  -0.08   0.00    -0.00  -0.00   0.55
    10   1     0.00  -0.00   0.53    -0.15  -0.11   0.00    -0.00  -0.00   0.18
    11   1     0.00   0.00   0.53    -0.15   0.11   0.00    -0.00   0.00   0.18
    12   1    -0.00  -0.00   0.05     0.41   0.08   0.00    -0.00   0.00   0.55
                     10                     11                     12
                      A                      A                      A
 Frequencies --    841.1314               915.4476               975.5909
 Red. masses --      1.2472                 1.3675                 1.3574
 Frc consts  --      0.5199                 0.6752                 0.7612
 IR Inten    --      0.0000                 2.8378                 0.0000
  Atom  AN      X      Y      Z        X      Y      Z        X      Y      Z
     1   6     0.00  -0.00   0.00     0.00   0.00  -0.10    -0.00  -0.00   0.00
     2   6     0.00   0.00  -0.07    -0.00   0.00  -0.01     0.00   0.00  -0.10
     3   6    -0.00   0.00  -0.08    -0.00  -0.00   0.10    -0.00  -0.00   0.08
     4   6     0.00  -0.00  -0.00     0.00  -0.00  -0.06     0.00   0.00   0.00
     5   6     0.00   0.00   0.08    -0.00   0.00   0.10     0.00  -0.00  -0.08
     6   6    -0.00   0.00   0.07    -0.00  -0.00  -0.01    -0.00   0.00   0.10
     7  17    -0.00   0.00   0.00    -0.00   0.00   0.00    -0.00  -0.00  -0.00
     8   1     0.00  -0.00   0.00    -0.00  -0.00   0.57    -0.00  -0.00  -0.00
     9   1     0.00  -0.00   0.45    -0.00  -0.00   0.08     0.00  -0.00   0.53
    10   1    -0.00  -0.00   0.53     0.00   0.00  -0.56     0.00   0.00  -0.45
    11   1     0.00  -0.00  -0.53     0.00  -0.00  -0.56    -0.00   0.00   0.45
    12   1     0.00  -0.00  -0.45    -0.00   0.00   0.08     0.00  -0.00  -0.53
                     13                     14                     15
                      A                      A                      A
 Frequencies --    995.2629              1015.0343              1041.4624
 Red. masses --      1.2826                 6.3665                 2.9437
 Frc consts  --      0.7485                 3.8647                 1.8812
 IR Inten    --      0.0913                 3.9234                21.1668
  Atom  AN      X      Y      Z        X      Y      Z        X      Y      Z
     1   6     0.00   0.00  -0.10     0.40   0.00   0.00    -0.15  -0.00  -0.00
     2   6     0.00  -0.00   0.08    -0.04   0.07   0.00    -0.06   0.24   0.00
     3   6     0.00   0.00  -0.03    -0.20  -0.34  -0.00     0.06  -0.06  -0.00
     4   6    -0.00   0.00  -0.00     0.10   0.00   0.00     0.13  -0.00   0.00
     5   6     0.00  -0.00  -0.03    -0.20   0.34  -0.00     0.06   0.06  -0.00
     6   6     0.00   0.00   0.08    -0.04  -0.07   0.00    -0.06  -0.24   0.00
     7  17     0.00  -0.00  -0.00    -0.00  -0.00  -0.00    -0.02   0.00   0.00
     8   1    -0.00   0.00   0.59     0.42   0.00  -0.00    -0.17  -0.00   0.00
     9   1    -0.00  -0.00  -0.51    -0.07   0.04  -0.00     0.23   0.43  -0.00
    10   1    -0.00  -0.00   0.23    -0.23  -0.33   0.00     0.34  -0.21   0.00
    11   1    -0.00   0.00   0.23    -0.23   0.33   0.00     0.34   0.21   0.00
    12   1    -0.00   0.00  -0.51    -0.07  -0.04  -0.00     0.23  -0.43  -0.00
                     16                     17                     18
                      A                      A                      A
 Frequencies --   1096.1260              1097.6769              1181.8907
 Red. masses --      1.5577                 2.7183                 1.1144
 Frc consts  --      1.1027                 1.9297                 0.9171
 IR Inten    --      5.4488                44.3555                 0.0371
  Atom  AN      X      Y      Z        X      Y      Z        X      Y      Z
     1   6     0.00   0.09   0.00     0.05  -0.00   0.00    -0.00   0.07   0.00
     2   6     0.06  -0.06   0.00    -0.09   0.04  -0.00    -0.04  -0.03  -0.00
     3   6    -0.10  -0.05  -0.00     0.01   0.09   0.00     0.00  -0.01  -0.00
     4   6     0.00   0.05   0.00     0.34  -0.00  -0.00     0.00   0.01  -0.00
     5   6     0.10  -0.05   0.00     0.01  -0.09   0.00    -0.00  -0.01   0.00
     6   6    -0.06  -0.06  -0.00    -0.09  -0.04  -0.00     0.04  -0.03   0.00
     7  17    -0.00  -0.00   0.00    -0.04   0.00   0.00    -0.00  -0.00  -0.00
     8   1     0.00   0.55  -0.00     0.05  -0.00  -0.00     0.00   0.68  -0.00
     9   1     0.28   0.06   0.00    -0.39  -0.12  -0.00    -0.41  -0.24   0.00
    10   1    -0.47   0.16  -0.00    -0.38   0.34   0.00     0.15  -0.10   0.00
    11   1     0.47   0.16   0.00    -0.38  -0.34   0.00    -0.15  -0.10  -0.00
    12   1    -0.28   0.06  -0.00    -0.39   0.12  -0.00     0.41  -0.24  -0.00
                     19                     20                     21
                      A                      A                      A
 Frequencies --   1196.7989              1317.5205              1342.0940
 Red. masses --      1.1386                 3.4180                 1.6622
 Frc consts  --      0.9608                 3.4957                 1.7641
 IR Inten    --      0.0024                 0.0934                 0.4126
  Atom  AN      X      Y      Z        X      Y      Z        X      Y      Z
     1   6     0.00  -0.00  -0.00     0.00   0.13   0.00    -0.00  -0.12  -0.00
     2   6     0.05   0.03   0.00    -0.14  -0.11  -0.00     0.05   0.01   0.00
     3   6    -0.05   0.02  -0.00     0.10  -0.10  -0.00    -0.13   0.05  -0.00
     4   6    -0.01  -0.00  -0.00     0.00   0.31  -0.00    -0.00   0.03  -0.00
     5   6    -0.05  -0.02  -0.00    -0.10  -0.10   0.00     0.13   0.05   0.00
     6   6     0.05  -0.03   0.00     0.14  -0.11   0.00    -0.05   0.01  -0.00
     7  17     0.00  -0.00  -0.00    -0.00  -0.00   0.00     0.00  -0.00  -0.00
     8   1     0.00  -0.00   0.00     0.00  -0.07  -0.00    -0.00   0.33   0.00
     9   1     0.44   0.25   0.00     0.44   0.22   0.00     0.25   0.12  -0.00
    10   1    -0.42   0.24  -0.00     0.31  -0.23   0.00     0.49  -0.32  -0.00
    11   1    -0.42  -0.24  -0.00    -0.31  -0.23  -0.00    -0.49  -0.32   0.00
    12   1     0.44  -0.25   0.00    -0.44   0.22  -0.00    -0.25   0.12   0.00
                     22                     23                     24
                      A                      A                      A
 Frequencies --   1474.9733              1506.5487              1621.1470
 Red. masses --      2.1262                 2.0922                 5.4699
 Frc consts  --      2.7254                 2.7978                 8.4698
 IR Inten    --      5.3548                45.5550                27.9318
  Atom  AN      X      Y      Z        X      Y      Z        X      Y      Z
     1   6     0.00  -0.14  -0.00     0.09   0.00   0.00    -0.16   0.00  -0.00
     2   6    -0.14   0.01  -0.00    -0.08  -0.10  -0.00     0.30   0.09   0.00
     3   6     0.09   0.06   0.00    -0.10   0.11   0.00    -0.28   0.07  -0.00
     4   6    -0.00  -0.14   0.00     0.12  -0.00   0.00     0.14  -0.00   0.00
     5   6    -0.09   0.06  -0.00    -0.10  -0.11  -0.00    -0.28  -0.07  -0.00
     6   6     0.14   0.01   0.00    -0.08   0.10  -0.00     0.30  -0.09   0.00
     7  17    -0.00   0.00   0.00    -0.00   0.00   0.00     0.00   0.00   0.00
     8   1     0.00   0.67   0.00     0.11  -0.00   0.00    -0.18  -0.00   0.00
     9   1     0.31   0.29   0.00     0.43   0.18   0.00    -0.31  -0.27  -0.00
    10   1    -0.10   0.19   0.00     0.44  -0.19   0.00     0.23  -0.24  -0.00
    11   1     0.10   0.19  -0.00     0.44   0.19   0.00     0.23   0.24  -0.00
    12   1    -0.31   0.29  -0.00     0.43  -0.18   0.00    -0.31   0.27  -0.00
                     25                     26                     27
                      A                      A                      A
 Frequencies --   1623.8724              3167.7612              3176.6208
 Red. masses --      5.9571                 1.0857                 1.0895
 Frc consts  --      9.2552                 6.4188                 6.4774
 IR Inten    --      2.6309                 0.0983                 8.7900
  Atom  AN      X      Y      Z        X      Y      Z        X      Y      Z
     1   6     0.00   0.38   0.00    -0.05   0.00  -0.00     0.00   0.00  -0.00
     2   6    -0.08  -0.22  -0.00     0.02  -0.04  -0.00     0.03  -0.05  -0.00
     3   6    -0.10   0.20   0.00     0.01   0.01   0.00     0.01   0.02   0.00
     4   6    -0.00  -0.32   0.00     0.00  -0.00   0.00    -0.00  -0.00  -0.00
     5   6     0.10   0.20  -0.00     0.01  -0.01   0.00    -0.01   0.02  -0.00
     6   6     0.08  -0.22   0.00     0.02   0.04  -0.00    -0.03  -0.05   0.00
     7  17    -0.00   0.00  -0.00    -0.00  -0.00  -0.00     0.00  -0.00  -0.00
     8   1     0.00  -0.49  -0.00     0.59  -0.00   0.00    -0.00  -0.00   0.00
     9   1     0.27  -0.04   0.00    -0.27   0.48   0.00    -0.33   0.58   0.00
    10   1     0.29  -0.01  -0.00    -0.07  -0.13  -0.00    -0.11  -0.19  -0.00
    11   1    -0.29  -0.01   0.00    -0.07   0.13  -0.00     0.11  -0.19   0.00
    12   1    -0.27  -0.04  -0.00    -0.27  -0.48   0.00     0.33   0.58  -0.00
                     28                     29                     30
                      A                      A                      A
 Frequencies --   3189.8992              3199.9736              3202.2178
 Red. masses --      1.0938                 1.0939                 1.0963
 Frc consts  --      6.5575                 6.5997                 6.6235
 IR Inten    --     13.2497                 5.5993                 1.0351
  Atom  AN      X      Y      Z        X      Y      Z        X      Y      Z
     1   6    -0.07   0.00  -0.00     0.00   0.00   0.00    -0.02   0.00  -0.00
     2   6    -0.01   0.03   0.00     0.01  -0.02  -0.00    -0.01   0.02   0.00
     3   6    -0.01  -0.02  -0.00    -0.03  -0.05  -0.00     0.03   0.05   0.00
     4   6    -0.00   0.00   0.00    -0.00   0.00   0.00     0.00   0.00   0.00
     5   6    -0.01   0.02  -0.00     0.03  -0.05   0.00     0.03  -0.05   0.00
     6   6    -0.01  -0.03   0.00    -0.01  -0.02   0.00    -0.01  -0.02   0.00
     7  17     0.00  -0.00  -0.00     0.00  -0.00  -0.00    -0.00  -0.00  -0.00
     8   1     0.76  -0.00   0.00    -0.00  -0.00   0.00     0.26  -0.00   0.00
     9   1     0.15  -0.28  -0.00    -0.11   0.19   0.00     0.15  -0.26  -0.00
    10   1     0.16   0.28   0.00     0.34   0.58   0.00    -0.31  -0.52  -0.00
    11   1     0.16  -0.28   0.00    -0.34   0.58  -0.00    -0.31   0.52  -0.00
    12   1     0.15   0.28  -0.00     0.11   0.19  -0.00     0.15   0.26  -0.00

 -------------------
 - Thermochemistry -
 -------------------
 Temperature   298.150 Kelvin.  Pressure   1.00000 Atm.
 Atom     1 has atomic number  6 and mass  12.00000
 Atom     2 has atomic number  6 and mass  12.00000
 Atom     3 has atomic number  6 and mass  12.00000
 Atom     4 has atomic number  6 and mass  12.00000
 Atom     5 has atomic number  6 and mass  12.00000
 Atom     6 has atomic number  6 and mass  12.00000
 Atom     7 has atomic number 17 and mass  34.96885
 Atom     8 has atomic number  1 and mass   1.00783
 Atom     9 has atomic number  1 and mass   1.00783
 Atom    10 has atomic number  1 and mass   1.00783
 Atom    11 has atomic number  1 and mass   1.00783
 Atom    12 has atomic number  1 and mass   1.00783
 Molecular mass:   112.00798 amu.
 Principal axes and moments of inertia in atomic units:
                           1         2         3
     Eigenvalues --   317.062971157.234151474.29712
           X            1.00000  -0.00000   0.00000
           Y            0.00000   1.00000  -0.00000
           Z           -0.00000   0.00000   1.00000
 This molecule is an asymmetric top.
 Rotational symmetry number  1.
 Rotational temperatures (Kelvin)      0.27318     0.07485     0.05875
 Rotational constants (GHZ):           5.69206     1.55953     1.22414
 Zero-point vibrational energy     237866.8 (Joules/Mol)
                                   56.85152 (Kcal/Mol)
 Warning -- explicit consideration of   5 degrees of freedom as
           vibrations may cause significant error
 Vibrational temperatures:    268.04   427.87   595.94   597.40   690.63
          (Kelvin)            903.05  1011.78  1020.88  1087.19  1210.20
                             1317.12  1403.66  1431.96  1460.41  1498.43
                             1577.08  1579.31  1700.48  1721.93  1895.62
                             1930.97  2122.16  2167.59  2332.47  2336.39
                             4557.70  4570.45  4589.55  4604.05  4607.28
 
 Zero-point correction=                           0.090599 (Hartree/Particle)
 Thermal correction to Energy=                    0.096109
 Thermal correction to Enthalpy=                  0.097053
 Thermal correction to Gibbs Free Energy=         0.060807
 Sum of electronic and zero-point Energies=           -691.843690
 Sum of electronic and thermal Energies=              -691.838180
 Sum of electronic and thermal Enthalpies=            -691.837236
 Sum of electronic and thermal Free Energies=         -691.873482
 
                     E (Thermal)             CV                S
                      KCal/Mol        Cal/Mol-Kelvin    Cal/Mol-Kelvin
 Total                   60.309             21.061             76.286
 Electronic               0.000              0.000              0.000
 Translational            0.889              2.981             40.056
 Rotational               0.889              2.981             27.783
 Vibrational             58.532             15.099              8.447
 Vibration     1          0.632              1.859              2.264
 Vibration     2          0.691              1.679              1.432
 Vibration     3          0.778              1.439              0.912
 Vibration     4          0.779              1.437              0.908
 Vibration     5          0.836              1.294              0.710
                       Q            Log10(Q)             Ln(Q)
 Total Bot       0.107360D-27        -27.969158        -64.401367
 Total V=0       0.505007D+14         13.703298         31.553009
 Vib (Bot)       0.875171D-41        -41.057907        -94.539325
 Vib (Bot)    1  0.107572D+01          0.031699          0.072991
 Vib (Bot)    2  0.640434D+00         -0.193526         -0.445609
 Vib (Bot)    3  0.425793D+00         -0.370802         -0.853803
 Vib (Bot)    4  0.424432D+00         -0.372192         -0.857005
 Vib (Bot)    5  0.348420D+00         -0.457897         -1.054347
 Vib (V=0)       0.411670D+01          0.614549          1.415051
 Vib (V=0)    1  0.168624D+01          0.226920          0.522503
 Vib (V=0)    2  0.131250D+01          0.118099          0.271933
 Vib (V=0)    3  0.115673D+01          0.063233          0.145600
 Vib (V=0)    4  0.115585D+01          0.062902          0.144838
 Vib (V=0)    5  0.110942D+01          0.045097          0.103840
 Electronic      0.100000D+01          0.000000          0.000000
 Translational   0.465937D+08          7.668327         17.656976
 Rotational      0.263282D+06          5.420421         12.480982
 ***** Axes restored to original set *****
 -------------------------------------------------------------------
 Center     Atomic                   Forces (Hartrees/Bohr)
 Number     Number              X              Y              Z
 -------------------------------------------------------------------
      1        6           0.000129678   -0.000039697    0.000017024
      2        6          -0.000094979   -0.000089933   -0.000003159
      3        6           0.000227631    0.000044466    0.000021112
      4        6          -0.000198023    0.000060606   -0.000026145
      5        6           0.000162624   -0.000163905    0.000030447
      6        6          -0.000027192    0.000127327   -0.000012887
      7       17          -0.000004968    0.000001523   -0.000000624
      8        1          -0.000041570    0.000012725   -0.000005434
      9        1          -0.000033742    0.000029815   -0.000006002
     10        1          -0.000048180   -0.000023426   -0.000003402
     11        1          -0.000026436    0.000046262   -0.000006529
     12        1          -0.000044843   -0.000005764   -0.000004401
 -------------------------------------------------------------------
 Cartesian Forces:  Max     0.000227631 RMS     0.000077603
 FormGI is forming the generalized inverse of G from B-inverse, IUseBI=4.

 GradGradGradGradGradGradGradGradGradGradGradGradGradGradGradGradGradGrad
 Berny optimization.
 Internal  Forces:  Max     0.000090939 RMS     0.000036312
 Search for a local minimum.
 Step number   1 out of a maximum of    2
 All quantities printed in internal units (Hartrees-Bohrs-Radians)
 Second derivative matrix not updated -- analytic derivatives used.
 ITU=  0
     Eigenvalues ---    0.01670   0.01701   0.01793   0.02241   0.02384
     Eigenvalues ---    0.02627   0.02809   0.02853   0.03103   0.10741
     Eigenvalues ---    0.11193   0.11463   0.12218   0.12432   0.15887
     Eigenvalues ---    0.18305   0.19415   0.19901   0.25530   0.28576
     Eigenvalues ---    0.35515   0.35614   0.35841   0.36044   0.36204
     Eigenvalues ---    0.41121   0.41472   0.46389   0.46454   0.50680
 Angle between quadratic step and forces=  19.88 degrees.
 Linear search not attempted -- first point.
 Iteration  1 RMS(Cart)=  0.00022187 RMS(Int)=  0.00000005
 Iteration  2 RMS(Cart)=  0.00000007 RMS(Int)=  0.00000001
 Variable       Old X    -DE/DX   Delta X   Delta X   Delta X     New X
                                 (Linear)    (Quad)   (Total)
    R1        2.63397   0.00001   0.00000   0.00002   0.00002   2.63399
    R2        2.63397   0.00001   0.00000   0.00002   0.00002   2.63399
    R3        2.04767   0.00004   0.00000   0.00015   0.00015   2.04782
    R4        2.63405   0.00006   0.00000   0.00019   0.00019   2.63424
    R5        2.04854   0.00000   0.00000  -0.00001  -0.00001   2.04853
    R6        2.62979  -0.00007   0.00000  -0.00022  -0.00022   2.62957
    R7        2.04560   0.00001   0.00000   0.00002   0.00002   2.04562
    R8        2.62979  -0.00007   0.00000  -0.00022  -0.00022   2.62957
    R9        3.32693  -0.00001   0.00000   0.00017   0.00017   3.32710
   R10        2.63405   0.00006   0.00000   0.00019   0.00019   2.63424
   R11        2.04560   0.00001   0.00000   0.00002   0.00002   2.04562
   R12        2.04854   0.00000   0.00000  -0.00001  -0.00001   2.04853
    A1        2.08955   0.00008   0.00000   0.00045   0.00045   2.08999
    A2        2.09682  -0.00004   0.00000  -0.00022  -0.00022   2.09660
    A3        2.09682  -0.00004   0.00000  -0.00022  -0.00022   2.09660
    A4        2.10267  -0.00006   0.00000  -0.00030  -0.00030   2.10236
    A5        2.09819  -0.00002   0.00000  -0.00026  -0.00026   2.09793
    A6        2.08233   0.00008   0.00000   0.00056   0.00056   2.08289
    A7        2.07640  -0.00002   0.00000  -0.00016  -0.00016   2.07624
    A8        2.11134  -0.00004   0.00000  -0.00034  -0.00034   2.11100
    A9        2.09545   0.00007   0.00000   0.00050   0.00050   2.09594
   A10        2.11870   0.00009   0.00000   0.00047   0.00047   2.11917
   A11        2.08224  -0.00005   0.00000  -0.00023  -0.00023   2.08201
   A12        2.08224  -0.00005   0.00000  -0.00023  -0.00023   2.08201
   A13        2.07640  -0.00002   0.00000  -0.00016  -0.00016   2.07624
   A14        2.09545   0.00007   0.00000   0.00050   0.00050   2.09594
   A15        2.11134  -0.00004   0.00000  -0.00034  -0.00034   2.11100
   A16        2.10267  -0.00006   0.00000  -0.00030  -0.00030   2.10236
   A17        2.09819  -0.00002   0.00000  -0.00026  -0.00026   2.09793
   A18        2.08233   0.00008   0.00000   0.00056   0.00056   2.08289
    D1       -0.00000   0.00000   0.00000   0.00000   0.00000   0.00000
    D2        3.14159   0.00000   0.00000   0.00000   0.00000   3.14159
    D3        3.14159   0.00000   0.00000   0.00000   0.00000   3.14159
    D4       -0.00000   0.00000   0.00000   0.00000   0.00000   0.00000
    D5        0.00000  -0.00000   0.00000  -0.00000  -0.00000   0.00000
    D6       -3.14159  -0.00000   0.00000  -0.00000  -0.00000  -3.14159
    D7       -3.14159  -0.00000   0.00000  -0.00000  -0.00000   3.14159
    D8        0.00000  -0.00000   0.00000  -0.00000  -0.00000   0.00000
    D9       -0.00000  -0.00000   0.00000   0.00000  -0.00000  -0.00000
   D10        3.14159   0.00000   0.00000   0.00000   0.00000   3.14159
   D11       -3.14159  -0.00000   0.00000  -0.00000  -0.00000  -3.14159
   D12       -0.00000   0.00000   0.00000   0.00000   0.00000   0.00000
   D13        0.00000  -0.00000   0.00000  -0.00000  -0.00000   0.00000
   D14       -3.14159  -0.00000   0.00000  -0.00000  -0.00000  -3.14159
   D15       -3.14159  -0.00000   0.00000  -0.00000  -0.00000   3.14159
   D16        0.00000  -0.00000   0.00000  -0.00000  -0.00000   0.00000
   D17       -0.00000   0.00000   0.00000   0.00000   0.00000   0.00000
   D18        3.14159   0.00000   0.00000   0.00000   0.00000   3.14159
   D19        3.14159   0.00000   0.00000   0.00000   0.00000   3.14159
   D20       -0.00000   0.00000   0.00000   0.00000   0.00000  -0.00000
   D21       -0.00000   0.00000   0.00000   0.00000   0.00000   0.00000
   D22        3.14159   0.00000   0.00000   0.00000   0.00000   3.14159
   D23       -3.14159  -0.00000   0.00000  -0.00000  -0.00000  -3.14159
   D24        0.00000  -0.00000   0.00000  -0.00000  -0.00000  -0.00000
         Item               Value     Threshold  Converged?
 Maximum Force            0.000091     0.000450     YES
 RMS     Force            0.000036     0.000300     YES
 Maximum Displacement     0.000722     0.001800     YES
 RMS     Displacement     0.000222     0.001200     YES
 Predicted change in Energy=-2.005824D-07
 Optimization completed.
    -- Stationary point found.
                           ----------------------------
                           !   Optimized Parameters   !
                           ! (Angstroms and Degrees)  !
 --------------------------                            --------------------------
 ! Name  Definition              Value          Derivative Info.                !
 --------------------------------------------------------------------------------
 ! R1    R(1,2)                  1.3938         -DE/DX =    0.0                 !
 ! R2    R(1,6)                  1.3938         -DE/DX =    0.0                 !
 ! R3    R(1,8)                  1.0836         -DE/DX =    0.0                 !
 ! R4    R(2,3)                  1.3939         -DE/DX =    0.0001              !
 ! R5    R(2,9)                  1.084          -DE/DX =    0.0                 !
 ! R6    R(3,4)                  1.3916         -DE/DX =   -0.0001              !
 ! R7    R(3,10)                 1.0825         -DE/DX =    0.0                 !
 ! R8    R(4,5)                  1.3916         -DE/DX =   -0.0001              !
 ! R9    R(4,7)                  1.7605         -DE/DX =    0.0                 !
 ! R10   R(5,6)                  1.3939         -DE/DX =    0.0001              !
 ! R11   R(5,11)                 1.0825         -DE/DX =    0.0                 !
 ! R12   R(6,12)                 1.084          -DE/DX =    0.0                 !
 ! A1    A(2,1,6)              119.7222         -DE/DX =    0.0001              !
 ! A2    A(2,1,8)              120.1389         -DE/DX =    0.0                 !
 ! A3    A(6,1,8)              120.1389         -DE/DX =    0.0                 !
 ! A4    A(1,2,3)              120.4738         -DE/DX =   -0.0001              !
 ! A5    A(1,2,9)              120.2175         -DE/DX =    0.0                 !
 ! A6    A(3,2,9)              119.3086         -DE/DX =    0.0001              !
 ! A7    A(2,3,4)              118.9687         -DE/DX =    0.0                 !
 ! A8    A(2,3,10)             120.9711         -DE/DX =    0.0                 !
 ! A9    A(4,3,10)             120.0603         -DE/DX =    0.0001              !
 ! A10   A(3,4,5)              121.3928         -DE/DX =    0.0001              !
 ! A11   A(3,4,7)              119.3036         -DE/DX =    0.0                 !
 ! A12   A(5,4,7)              119.3036         -DE/DX =    0.0                 !
 ! A13   A(4,5,6)              118.9687         -DE/DX =    0.0                 !
 ! A14   A(4,5,11)             120.0603         -DE/DX =    0.0001              !
 ! A15   A(6,5,11)             120.9711         -DE/DX =    0.0                 !
 ! A16   A(1,6,5)              120.4738         -DE/DX =   -0.0001              !
 ! A17   A(1,6,12)             120.2175         -DE/DX =    0.0                 !
 ! A18   A(5,6,12)             119.3086         -DE/DX =    0.0001              !
 ! D1    D(6,1,2,3)              0.0            -DE/DX =    0.0                 !
 ! D2    D(6,1,2,9)            179.9999         -DE/DX =    0.0                 !
 ! D3    D(8,1,2,3)            179.9999         -DE/DX =    0.0                 !
 ! D4    D(8,1,2,9)             -0.0001         -DE/DX =    0.0                 !
 ! D5    D(2,1,6,5)              0.0            -DE/DX =    0.0                 !
 ! D6    D(2,1,6,12)          -180.0            -DE/DX =    0.0                 !
 ! D7    D(8,1,6,5)            180.0001         -DE/DX =    0.0                 !
 ! D8    D(8,1,6,12)             0.0001         -DE/DX =    0.0                 !
 ! D9    D(1,2,3,4)              0.0            -DE/DX =    0.0                 !
 ! D10   D(1,2,3,10)           179.9999         -DE/DX =    0.0                 !
 ! D11   D(9,2,3,4)           -180.0            -DE/DX =    0.0                 !
 ! D12   D(9,2,3,10)             0.0            -DE/DX =    0.0                 !
 ! D13   D(2,3,4,5)              0.0            -DE/DX =    0.0                 !
 ! D14   D(2,3,4,7)           -180.0            -DE/DX =    0.0                 !
 ! D15   D(10,3,4,5)           180.0001         -DE/DX =    0.0                 !
 ! D16   D(10,3,4,7)             0.0001         -DE/DX =    0.0                 !
 ! D17   D(3,4,5,6)              0.0            -DE/DX =    0.0                 !
 ! D18   D(3,4,5,11)           179.9999         -DE/DX =    0.0                 !
 ! D19   D(7,4,5,6)            180.0            -DE/DX =    0.0                 !
 ! D20   D(7,4,5,11)            -0.0001         -DE/DX =    0.0                 !
 ! D21   D(4,5,6,1)              0.0            -DE/DX =    0.0                 !
 ! D22   D(4,5,6,12)           180.0            -DE/DX =    0.0                 !
 ! D23   D(11,5,6,1)          -179.9999         -DE/DX =    0.0                 !
 ! D24   D(11,5,6,12)            0.0            -DE/DX =    0.0                 !
 --------------------------------------------------------------------------------
 GradGradGradGradGradGradGradGradGradGradGradGradGradGradGradGradGradGrad


 ----------------------------------------------------------------------

 Electric dipole moment (input orientation):
 (Debye = 10**-18 statcoulomb cm , SI units = C m)
                  (au)            (Debye)         (10**-30 SI)
   Tot        0.731988D+00      0.186053D+01      0.620605D+01
   x         -0.694442D+00     -0.176510D+01     -0.588772D+01
   y          0.212561D+00      0.540277D+00      0.180217D+01
   z         -0.915137D-01     -0.232605D+00     -0.775885D+00

 Dipole polarizability, Alpha (input orientation).
 (esu units = cm**3 , SI units = C**2 m**2 J**-1)
 Alpha(0;0):
               (au)            (10**-24 esu)      (10**-40 SI)
   iso        0.791386D+02      0.117271D+02      0.130482D+02
   aniso      0.527721D+02      0.782002D+01      0.870095D+01
   xx         0.104367D+03      0.154655D+02      0.172077D+02
   yx        -0.618608D+01     -0.916683D+00     -0.101995D+01
   yy         0.853430D+02      0.126465D+02      0.140712D+02
   zx         0.670216D+01      0.993157D+00      0.110504D+01
   zy        -0.369348D+01     -0.547318D+00     -0.608973D+00
   zz         0.477061D+02      0.706932D+01      0.786568D+01

 ----------------------------------------------------------------------

 Dipole orientation:
     6          0.00000355          0.00000125          2.74508496
     6         -0.75962693          2.14748929          1.42257582
     6         -0.76476488          2.16200485         -1.21143413
     6         -0.00000242         -0.00000084         -2.49855270
     6          0.76476231         -2.16200573         -1.21143412
     6          0.75963032         -2.14748810          1.42257582
    17         -0.00000403         -0.00000140         -5.82547903
     1          0.00000745          0.00000262          4.79275698
     1         -1.35336473          3.82600010          2.43579190
     1         -1.35171851          3.82132781         -2.25383869
     1          1.35170964         -3.82133090         -2.25383869
     1          1.35336823         -3.82599889          2.43579188

 Electric dipole moment (dipole orientation):
 (Debye = 10**-18 statcoulomb cm , SI units = C m)
                  (au)            (Debye)         (10**-30 SI)
   Tot        0.731988D+00      0.186053D+01      0.620605D+01
   x          0.000000D+00      0.000000D+00      0.000000D+00
   y          0.000000D+00      0.000000D+00      0.000000D+00
   z          0.731988D+00      0.186053D+01      0.620605D+01

 Dipole polarizability, Alpha (dipole orientation).
 (esu units = cm**3 , SI units = C**2 m**2 J**-1)
 Alpha(0;0):
               (au)            (10**-24 esu)      (10**-40 SI)
   iso        0.791386D+02      0.117271D+02      0.130482D+02
   aniso      0.527721D+02      0.782002D+01      0.870095D+01
   xx         0.507961D+02      0.752721D+01      0.837515D+01
   yx        -0.115959D+02     -0.171834D+01     -0.191191D+01
   yy         0.794763D+02      0.117772D+02      0.131039D+02
   zx         0.562057D-04      0.832883D-05      0.926707D-05
   zy         0.195872D-04      0.290252D-05      0.322949D-05
   zz         0.107143D+03      0.158770D+02      0.176655D+02

 ----------------------------------------------------------------------
 Unable to Open any file for archive entry.
 1\1\GINC-CCC067\Freq\RB3LYP\6-311++G(d,p)\C6H5Cl1\ROOT\12-Jun-2024\0\\
 #N Geom=AllCheck Guess=TCheck SCRF=Check GenChk RB3LYP/6-311++G(d,p) F
 req\\C1=CC=C(C=C1)Cl\\0,1\C,-1.3781253753,0.4218295747,-0.1816116266\C
 ,-1.0728479955,-0.9310559262,-0.0427553274\C,0.2470894727,-1.343588409
 6,0.1318546673\C,1.2543579028,-0.3839456835,0.1653008844\C,0.969272258
 5,0.9712729431,0.0284391564\C,-0.3555142493,1.3682624843,-0.1454764351
 \Cl,2.9245874581,-0.8951853204,0.3854049632\H,-2.4061258211,0.73648958
 7,-0.3170839188\H,-1.8618564384,-1.6739494436,-0.0696434966\H,0.493276
 5549,-2.3920917232,0.2405051508\H,1.7697295667,1.6994095911,0.05771922
 75\H,-0.5838433366,2.4225523079,-0.252653255\\Version=ES64L-G16RevC.02
 \State=1-A\HF=-691.9342891\RMSD=6.556e-09\RMSF=7.760e-05\ZeroPoint=0.0
 905987\Thermal=0.0961088\ETot=-691.8381804\HTot=-691.8372362\GTot=-691
 .8734824\Dipole=-0.6944419,0.2125614,-0.0915137\DipoleDeriv=0.0187111,
 -0.0310772,0.0196881,-0.0310772,-0.0744105,-0.0085909,0.019689,-0.0085
 911,-0.1385332,0.0760011,0.0553798,0.0167848,0.0020503,0.0630015,-0.01
 41028,0.0209605,-0.0083535,-0.1169981,-0.3094073,0.0127217,-0.0219924,
 0.0039555,0.0122029,-0.0095079,-0.0213059,-0.0085632,-0.1162822,1.1300
 909,-0.327705,0.1487077,-0.327705,0.1584455,-0.0486161,0.1487072,-0.04
 8616,0.0086258,-0.2141109,0.1421009,-0.0218499,0.1508672,-0.0812951,0.
 0136528,-0.022536,0.0127083,-0.1180806,0.0459758,-0.0414755,0.0211324,
 0.0118539,0.0924602,-0.0153526,0.016956,-0.021102,-0.1164315,-0.778118
 6,0.2088,-0.0920014,0.2088,-0.1595077,0.0290171,-0.0920013,0.0290171,-
 0.0886162,-0.0759369,0.0452335,-0.0269417,0.0452335,0.0593034,0.011282
 4,-0.0269421,0.0112825,0.1373146,-0.0274523,-0.0742504,-0.0119681,-0.0
 751022,-0.0035166,0.0029453,-0.0119013,0.0030373,0.1359688,0.0740395,0
 .0366093,-0.0100871,0.0290204,-0.0249017,0.0161213,-0.0094927,0.016939
 7,0.1386604,0.0106691,-0.0628438,-0.0091311,-0.0552549,0.0372728,0.002
 1665,-0.0097255,0.0013479,0.1398563,0.0495385,0.0365066,-0.012341,0.03
 73584,-0.0790545,0.0209851,-0.0124077,0.0208931,0.1345159\Polar=104.36
 65132,-6.1860815,85.343018,6.7021568,-3.6934826,47.706138\Quadrupole=0
 .5361892,2.9689787,-3.5051679,0.8658837,0.3758091,-0.4193787\PG=C01 [X
 (C6H5Cl1)]\NImag=0\\0.72558304,-0.01942913,0.65802903,0.06564302,-0.04
 337929,0.14130563,-0.13718725,0.01094320,-0.00896134,0.68906161,0.0740
 0328,-0.31885368,0.02809130,0.04374659,0.69098052,-0.01389952,0.021292
 70,-0.06518175,0.05649865,-0.03896046,0.14237843,0.00707871,0.08284085
 ,-0.00657466,-0.30891240,0.02414187,-0.02865553,0.64946513,0.03687530,
 0.00067588,0.00454052,0.09077576,-0.14592589,0.01646417,-0.02179835,0.
 73704050,-0.00297513,0.00949615,0.00682538,-0.03387359,0.00928025,-0.0
 6503442,0.05783389,-0.04997635,0.13901319,-0.00577313,-0.02131285,0.00
 181891,-0.05476760,0.00216272,-0.00680984,-0.20590489,-0.13748062,-0.0
 0456500,0.50519951,-0.02131285,-0.06759126,0.00243427,-0.05487632,0.05
 969960,-0.01005683,-0.07280149,-0.22662560,0.00490960,0.04647506,0.632
 75846,0.00181890,0.00243428,-0.00715813,-0.00234315,-0.00390735,0.0068
 7906,-0.00963001,-0.00206360,-0.06457940,0.03741052,-0.03479528,0.1312
 0089,-0.05130200,-0.04775566,-0.00264186,-0.03003309,0.03251796,-0.005
 19273,0.05008021,-0.00947497,0.00515863,-0.11460840,-0.00513365,-0.005
 08623,0.70156400,-0.00179010,0.05795488,-0.00411357,0.03266959,-0.0375
 6599,0.00603418,-0.05494903,-0.04408442,-0.00175822,0.05954547,-0.3161
 9927,0.02619250,0.05372622,0.68592486,-0.00624141,-0.00906919,0.007927
 08,-0.00520460,0.00601785,-0.00652021,0.00871967,0.00314443,0.00980802
 ,-0.01015121,0.01921928,-0.06630223,0.05753675,-0.03783038,0.13802998,
 -0.23652822,-0.07000527,-0.01333248,0.05252465,-0.05763421,0.00932298,
 -0.06328264,-0.01568190,-0.00500293,0.00677838,0.09138218,-0.00716118,
 -0.31160086,0.02024458,-0.02864020,0.65194154,-0.13306535,-0.22138739,
 -0.00186577,-0.01135592,-0.04832800,0.00317988,-0.01553027,-0.00494388
 ,-0.00171695,0.03434314,-0.00068496,0.00429074,0.08687846,-0.14328817,
 0.01583740,-0.01006409,0.72740014,-0.00839428,0.00493283,-0.06330708,0
 .00569895,-0.00180947,0.00866880,-0.00501479,-0.00173329,-0.00589277,-
 0.00269449,0.01044022,0.00571763,-0.03385826,0.00865349,-0.06498368,0.
 05671074,-0.04761341,0.14307888,-0.00216150,0.00133779,-0.00024379,0.0
 0175817,-0.00687594,0.00018827,-0.04204413,0.01353875,-0.00603572,-0.1
 3799941,0.02979638,-0.01472769,-0.02647109,0.00946034,-0.00403739,0.00
 375889,0.00265639,-0.00034250,0.20362635,0.00133779,0.00174146,-0.0000
 6042,-0.00024394,-0.00233439,0.00054855,-0.01311493,0.00744630,-0.0016
 7552,0.02979637,-0.04944197,0.00528023,0.03611403,-0.00783285,0.004828
 43,-0.00397561,-0.00429736,0.00029994,-0.05094274,0.05230446,-0.000243
 79,-0.00006042,-0.00089345,-0.00033109,-0.00016646,0.00498365,-0.00394
 849,0.00119805,0.00358649,-0.01472768,0.00528022,-0.02503711,-0.006124
 62,0.00195486,0.00329261,0.00017684,0.00101495,0.00494590,0.02469776,-
 0.00868401,0.01488815,-0.30880416,0.07641193,-0.03546598,-0.00248100,-
 0.00063819,-0.00049105,0.00178826,0.00105797,-0.00063428,0.00064344,-0
 .00071816,0.00017119,-0.00126552,-0.00399679,-0.00056768,-0.01692877,0
 .00929911,-0.00282688,-0.00006812,0.00011507,0.00007554,0.32669820,0.0
 7641192,-0.08210429,0.01189977,0.03024316,-0.00400622,0.00377300,0.000
 43009,-0.00537160,0.00100759,-0.00071816,-0.00145882,0.00000370,-0.003
 36891,-0.00237545,0.00036338,-0.02158224,0.01016890,-0.00292446,0.0001
 1507,0.00025070,-0.00007397,-0.08207814,0.08303913,-0.03546601,0.01189
 979,-0.04010169,-0.00290934,0.00044360,0.00218882,-0.00058510,0.001075
 27,0.00675566,0.00017120,0.00000370,-0.00040462,-0.00061684,0.00029568
 ,0.00681329,-0.00040856,0.00040493,0.00246147,0.00007553,-0.00007397,-
 0.00083838,0.03894489,-0.01338721,0.03033473,0.00875818,0.00656103,0.0
 0008770,-0.20525294,-0.13838314,-0.00737239,-0.01755293,-0.02197852,-0
 .00051062,-0.00292745,0.00244198,-0.00130565,-0.00025191,0.00094513,-0
 .00000409,0.00114864,0.00184334,-0.00075947,-0.00154832,-0.00040653,-0
 .00014109,0.00065595,-0.00042379,0.00052166,0.21577066,-0.02416530,-0.
 01511166,-0.00117295,-0.13850571,-0.18882584,-0.00299250,0.00877547,0.
 00955649,0.00044422,0.00209676,0.00091341,0.00073475,0.00098104,-0.000
 26272,0.00005582,0.00257252,-0.00495755,0.00120232,0.00071951,0.000106
 64,0.00007358,0.00038168,0.00095657,-0.00033720,0.14878256,0.19775077,
 0.00249386,0.00213967,0.00328042,-0.00736279,-0.00297926,-0.03691526,-
 0.00291895,-0.00287142,0.00305775,-0.00127863,0.00077196,0.00721099,-0
 .00000691,0.00005196,-0.00090532,-0.00081657,0.00112371,0.00667813,-0.
 00022927,-0.00004782,0.00003468,0.00045859,-0.00042404,-0.00379222,0.0
 0887903,0.00253931,0.02610242,-0.00510690,0.00070236,-0.00138420,-0.00
 155741,0.02942822,-0.00280390,-0.07036750,0.06244032,-0.00869928,0.007
 02694,-0.02300703,0.00228354,-0.00328131,-0.00314771,-0.00072763,-0.00
 111817,-0.00030373,0.00000380,0.00107236,-0.00061727,0.00044002,-0.000
 21318,0.00139318,-0.00015381,0.00094208,-0.00037159,0.00057486,0.07207
 464,0.00127342,0.00175840,0.00056515,-0.00032150,-0.00363423,0.0004907
 0,0.05959071,-0.32370236,0.02903041,0.00821849,-0.01700827,0.00241824,
 -0.00387245,-0.00067741,0.00008616,-0.00042717,0.00062854,-0.00016832,
 0.00041697,0.00124635,-0.00025317,-0.00012560,-0.00025727,0.00002238,0
 .00028214,0.00070896,-0.00034775,-0.06541385,0.34175438,-0.00142892,0.
 00050357,0.00702850,-0.00047421,0.00369807,0.00273384,-0.00847612,0.02
 933767,-0.03824342,-0.00016174,-0.00094826,0.00261430,-0.00067088,0.00
 016430,0.00566894,0.00001347,-0.00015501,-0.00091917,0.00035903,-0.000
 36467,-0.00249339,-0.00003487,0.00018613,0.00018317,0.00052367,-0.0004
 1823,-0.00403091,0.01026377,-0.03190542,0.02799295,-0.00388439,0.00304
 561,-0.00143591,-0.00020894,0.00089087,0.00000827,0.00080945,0.0020576
 7,-0.00069424,0.00621177,0.00703679,-0.00015706,-0.21015373,-0.1430489
 0,-0.00767834,-0.01594745,-0.02118186,-0.00039208,0.00124524,0.0006675
 8,0.00035804,-0.00082613,-0.00101415,-0.00003137,-0.00001076,-0.000087
 37,0.00009992,0.00044983,0.00033665,-0.00001261,0.22137561,0.00247455,
 0.00055896,0.00078856,0.00101432,-0.00026352,0.00005695,0.00278240,-0.
 00469097,0.00111792,-0.02418873,-0.01620849,-0.00113830,-0.14019929,-0
 .18655406,-0.00324978,0.00856786,0.01048425,0.00034347,-0.00036665,0.0
 0107673,-0.00032437,0.00050464,0.00034411,0.00004324,-0.00007305,0.000
 01593,-0.00007757,-0.00115943,-0.00074531,-0.00004140,0.15101870,0.195
 27089,-0.00139117,0.00085013,0.00700543,-0.00000139,0.00004363,-0.0009
 3632,-0.00075099,0.00103979,0.00559174,0.00228818,0.00222822,0.0026296
 8,-0.00790151,-0.00355704,-0.03560549,-0.00272174,-0.00286390,0.003005
 39,0.00043903,-0.00021287,-0.00249665,-0.00015031,-0.00012050,0.000194
 74,0.00009880,-0.00007912,-0.00085726,0.00010455,0.00011990,0.00032414
 ,0.00941168,0.00290010,0.02517547,0.00932760,-0.02333985,0.00249060,-0
 .00294379,-0.00336003,-0.00079321,-0.00115726,-0.00033140,-0.00000173,
 -0.00387917,0.00071712,-0.00127319,-0.00267630,0.03034121,-0.00300387,
 -0.07074600,0.05648079,-0.00813073,-0.00116845,0.00127018,-0.00023144,
 0.00080102,0.00059197,0.00045776,0.00026879,-0.00117956,0.00010685,0.0
 0007862,0.00004220,0.00009941,0.00093951,-0.00037532,0.00057488,0.0711
 5542,0.00738649,-0.01567033,0.00227243,-0.00408921,-0.00094235,0.00016
 967,-0.00036731,0.00062555,-0.00015910,0.00106234,0.00184716,0.0005501
 0,-0.00041278,-0.00503940,0.00059661,0.05660336,-0.32079453,0.02837667
 ,0.00014415,-0.00026607,0.00004073,-0.00021350,0.00081425,-0.00039022,
 0.00040884,-0.00085100,0.00012126,0.00005652,-0.00007177,-0.00005674,0
 .00027841,0.00071148,-0.00034834,-0.06085732,0.33963700,0.00008446,-0.
 00104021,0.00326967,-0.00073611,0.00024828,0.00675536,0.00000107,-0.00
 015523,-0.00088823,-0.00130022,0.00051289,0.00722895,-0.00059554,0.003
 91225,0.00277702,-0.00814036,0.02836344,-0.03945351,-0.00014326,0.0001
 6214,0.00002751,0.00052084,-0.00030338,-0.00379496,-0.00001754,-0.0000
 4999,0.00013657,0.00009829,-0.00005828,-0.00085894,0.00052369,-0.00041
 882,-0.00403086,0.00970468,-0.03117308,0.02883142\\-0.00012968,0.00003
 970,-0.00001702,0.00009498,0.00008993,0.00000316,-0.00022763,-0.000044
 47,-0.00002111,0.00019802,-0.00006061,0.00002615,-0.00016262,0.0001639
 1,-0.00003045,0.00002719,-0.00012733,0.00001289,0.00000497,-0.00000152
 ,0.00000062,0.00004157,-0.00001273,0.00000543,0.00003374,-0.00002982,0
 .00000600,0.00004818,0.00002343,0.00000340,0.00002644,-0.00004626,0.00
 000653,0.00004484,0.00000576,0.00000440\\\@
 The archive entry for this job was punched.


 Human beings, who are almost unique in having the
 ability to learn from the experience of others, are
 also remarkable for their apparent disinclination to do so.
                               -- Douglas Adams,
                                Last Chance to See
 Job cpu time:       0 days  0 hours  7 minutes 14.4 seconds.
 Elapsed time:       0 days  0 hours  1 minutes  1.1 seconds.
 File lengths (MBytes):  RWF=     52 Int=      0 D2E=      0 Chk=      4 Scr=      1
 Normal termination of Gaussian 16 at Wed Jun 12 21:52:52 2024.
