 Entering Gaussian System, Link 0=/apl/gaussian/16c02/g16/._.g16
 Initial command:
 /apl/gaussian/16c02/g16/l1.exe "/lwork/users/eso/6527418.ccpbs1/gaussian/Gau-1608639.inp" -scrdir="/lwork/users/eso/6527418.ccpbs1/gaussian/"
 Default CPUs for threads: 24,25,26,27,28,29,30,31
 Default is to use a total of   8 processors:
                                8 via shared-memory
                                1 via Linda
 Entering Link 1 = /apl/gaussian/16c02/g16/l1.exe PID=   1608640.
  
 Copyright (c) 1988-2021, Gaussian, Inc.  All Rights Reserved.
  
 This is part of the Gaussian(R) 16 program.  It is based on
 the Gaussian(R) 09 system (copyright 2009, Gaussian, Inc.),
 the Gaussian(R) 03 system (copyright 2003, Gaussian, Inc.),
 the Gaussian(R) 98 system (copyright 1998, Gaussian, Inc.),
 the Gaussian(R) 94 system (copyright 1995, Gaussian, Inc.),
 the Gaussian 92(TM) system (copyright 1992, Gaussian, Inc.),
 the Gaussian 90(TM) system (copyright 1990, Gaussian, Inc.),
 the Gaussian 88(TM) system (copyright 1988, Gaussian, Inc.),
 the Gaussian 86(TM) system (copyright 1986, Carnegie Mellon
 University), and the Gaussian 82(TM) system (copyright 1983,
 Carnegie Mellon University). Gaussian is a federally registered
 trademark of Gaussian, Inc.
  
 This software contains proprietary and confidential information,
 including trade secrets, belonging to Gaussian, Inc.
  
 This software is provided under written license and may be
 used, copied, transmitted, or stored only in accord with that
 written license.
  
 The following legend is applicable only to US Government
 contracts under FAR:
  
                    RESTRICTED RIGHTS LEGEND
  
 Use, reproduction and disclosure by the US Government is
 subject to restrictions as set forth in subparagraphs (a)
 and (c) of the Commercial Computer Software - Restricted
 Rights clause in FAR 52.227-19.
  
 Gaussian, Inc.
 340 Quinnipiac St., Bldg. 40, Wallingford CT 06492
  
  
 ---------------------------------------------------------------
 Warning -- This program may not be used in any manner that
 competes with the business of Gaussian, Inc. or will provide
 assistance to any competitor of Gaussian, Inc.  The licensee
 of this program is prohibited from giving any competitor of
 Gaussian, Inc. access to this program.  By using this program,
 the user acknowledges that Gaussian, Inc. is engaged in the
 business of creating and licensing software in the field of
 computational chemistry and represents and warrants to the
 licensee that it is not a competitor of Gaussian, Inc. and that
 it will not use this program in any manner prohibited above.
 ---------------------------------------------------------------
  

 Cite this work as:
 Gaussian 16, Revision C.02,
 M. J. Frisch, G. W. Trucks, H. B. Schlegel, G. E. Scuseria, 
 M. A. Robb, J. R. Cheeseman, G. Scalmani, V. Barone, 
 G. A. Petersson, H. Nakatsuji, X. Li, M. Caricato, A. V. Marenich, 
 J. Bloino, B. G. Janesko, R. Gomperts, B. Mennucci, H. P. Hratchian, 
 J. V. Ortiz, A. F. Izmaylov, J. L. Sonnenberg, D. Williams-Young, 
 F. Ding, F. Lipparini, F. Egidi, J. Goings, B. Peng, A. Petrone, 
 T. Henderson, D. Ranasinghe, V. G. Zakrzewski, J. Gao, N. Rega, 
 G. Zheng, W. Liang, M. Hada, M. Ehara, K. Toyota, R. Fukuda, 
 J. Hasegawa, M. Ishida, T. Nakajima, Y. Honda, O. Kitao, H. Nakai, 
 T. Vreven, K. Throssell, J. A. Montgomery, Jr., J. E. Peralta, 
 F. Ogliaro, M. J. Bearpark, J. J. Heyd, E. N. Brothers, K. N. Kudin, 
 V. N. Staroverov, T. A. Keith, R. Kobayashi, J. Normand, 
 K. Raghavachari, A. P. Rendell, J. C. Burant, S. S. Iyengar, 
 J. Tomasi, M. Cossi, J. M. Millam, M. Klene, C. Adamo, R. Cammi, 
 J. W. Ochterski, R. L. Martin, K. Morokuma, O. Farkas, 
 J. B. Foresman, and D. J. Fox, Gaussian, Inc., Wallingford CT, 2019.
 
 ******************************************
 Gaussian 16:  ES64L-G16RevC.02  7-Dec-2021
                12-Jun-2024 
 ******************************************
 %chk=C1COCCO1.chk
 %mem=9600MB
 SetSPE:  set environment variable "OMP_PROC_BIND" = "true"
 SetSPE:  set environment variable "OMP_PLACES" = "{24},{25},{26},{27},{28},{29},{30},{31}"
 --------------------------------------------------------
 # opt freq b3lyp/6-311++g(d,p) pop=nbo geom=connectivity
 --------------------------------------------------------
 1/18=20,19=15,26=3,38=1,57=2/1,3;
 2/9=110,12=2,17=6,18=5,40=1/2;
 3/5=4,6=6,7=1111,11=2,25=1,30=1,71=1,74=-5/1,2,3;
 4//1;
 5/5=2,38=5/2;
 6/7=2,8=2,9=2,10=2,28=1,40=1/1,7;
 7//1,2,3,16;
 1/18=20,19=15,26=3/3(2);
 2/9=110/2;
 99//99;
 2/9=110/2;
 3/5=4,6=6,7=1111,11=2,25=1,30=1,71=1,74=-5/1,2,3;
 4/5=5,16=3,69=1/1;
 5/5=2,38=5/2;
 7//1,2,3,16;
 1/18=20,19=15,26=3/3(-5);
 2/9=110/2;
 6/7=2,8=2,9=2,10=2,19=2,28=1,40=1/1,7;
 99/9=1/99;
 --------
 C1COCCO1
 --------
 Symbolic Z-matrix:
 Charge =  0 Multiplicity = 1
 C                    -1.24244   0.64811  -0.04499 
 C                    -1.06161  -0.83065  -0.38568 
 O                     0.04587  -1.38361   0.34105 
 C                     1.24244  -0.64811   0.04498 
 C                     1.06161   0.83064   0.38569 
 O                    -0.04586   1.38361  -0.34106 
 H                    -1.47691   0.77902   1.01776 
 H                    -2.05867   1.07834  -0.63276 
 H                    -0.87604  -0.96544  -1.45757 
 H                    -1.95878  -1.39661  -0.11816 
 H                     1.47691  -0.77901  -1.01777 
 H                     2.05867  -1.07834   0.63275 
 H                     1.95878   1.39662   0.11819 
 H                     0.87602   0.96542   1.45757 
 

 GradGradGradGradGradGradGradGradGradGradGradGradGradGradGradGradGradGrad
 Berny optimization.
 Initialization pass.
                           ----------------------------
                           !    Initial Parameters    !
                           ! (Angstroms and Degrees)  !
 --------------------------                            --------------------------
 ! Name  Definition              Value          Derivative Info.                !
 --------------------------------------------------------------------------------
 ! R1    R(1,2)                  1.5282         estimate D2E/DX2                !
 ! R2    R(1,6)                  1.4354         estimate D2E/DX2                !
 ! R3    R(1,7)                  1.0961         estimate D2E/DX2                !
 ! R4    R(1,8)                  1.094          estimate D2E/DX2                !
 ! R5    R(2,3)                  1.4354         estimate D2E/DX2                !
 ! R6    R(2,9)                  1.0962         estimate D2E/DX2                !
 ! R7    R(2,10)                 1.094          estimate D2E/DX2                !
 ! R8    R(3,4)                  1.4354         estimate D2E/DX2                !
 ! R9    R(4,5)                  1.5282         estimate D2E/DX2                !
 ! R10   R(4,11)                 1.0961         estimate D2E/DX2                !
 ! R11   R(4,12)                 1.094          estimate D2E/DX2                !
 ! R12   R(5,6)                  1.4354         estimate D2E/DX2                !
 ! R13   R(5,13)                 1.094          estimate D2E/DX2                !
 ! R14   R(5,14)                 1.0961         estimate D2E/DX2                !
 ! A1    A(2,1,6)              110.5598         estimate D2E/DX2                !
 ! A2    A(2,1,7)              110.9168         estimate D2E/DX2                !
 ! A3    A(2,1,8)              110.4288         estimate D2E/DX2                !
 ! A4    A(6,1,7)              108.4872         estimate D2E/DX2                !
 ! A5    A(6,1,8)              108.0372         estimate D2E/DX2                !
 ! A6    A(7,1,8)              108.3213         estimate D2E/DX2                !
 ! A7    A(1,2,3)              110.56           estimate D2E/DX2                !
 ! A8    A(1,2,9)              110.9169         estimate D2E/DX2                !
 ! A9    A(1,2,10)             110.4286         estimate D2E/DX2                !
 ! A10   A(3,2,9)              108.4873         estimate D2E/DX2                !
 ! A11   A(3,2,10)             108.0372         estimate D2E/DX2                !
 ! A12   A(9,2,10)             108.3211         estimate D2E/DX2                !
 ! A13   A(2,3,4)              109.9587         estimate D2E/DX2                !
 ! A14   A(3,4,5)              110.5597         estimate D2E/DX2                !
 ! A15   A(3,4,11)             108.4874         estimate D2E/DX2                !
 ! A16   A(3,4,12)             108.037          estimate D2E/DX2                !
 ! A17   A(5,4,11)             110.9167         estimate D2E/DX2                !
 ! A18   A(5,4,12)             110.4286         estimate D2E/DX2                !
 ! A19   A(11,4,12)            108.3217         estimate D2E/DX2                !
 ! A20   A(4,5,6)              110.5595         estimate D2E/DX2                !
 ! A21   A(4,5,13)             110.4288         estimate D2E/DX2                !
 ! A22   A(4,5,14)             110.9169         estimate D2E/DX2                !
 ! A23   A(6,5,13)             108.0373         estimate D2E/DX2                !
 ! A24   A(6,5,14)             108.4871         estimate D2E/DX2                !
 ! A25   A(13,5,14)            108.3215         estimate D2E/DX2                !
 ! A26   A(1,6,5)              109.9585         estimate D2E/DX2                !
 ! D1    D(6,1,2,3)             57.9912         estimate D2E/DX2                !
 ! D2    D(6,1,2,9)            -62.4009         estimate D2E/DX2                !
 ! D3    D(6,1,2,10)           177.5025         estimate D2E/DX2                !
 ! D4    D(7,1,2,3)            -62.4005         estimate D2E/DX2                !
 ! D5    D(7,1,2,9)            177.2074         estimate D2E/DX2                !
 ! D6    D(7,1,2,10)            57.1108         estimate D2E/DX2                !
 ! D7    D(8,1,2,3)            177.5025         estimate D2E/DX2                !
 ! D8    D(8,1,2,9)             57.1105         estimate D2E/DX2                !
 ! D9    D(8,1,2,10)           -62.9862         estimate D2E/DX2                !
 ! D10   D(2,1,6,5)            -57.6391         estimate D2E/DX2                !
 ! D11   D(7,1,6,5)             64.1943         estimate D2E/DX2                !
 ! D12   D(8,1,6,5)           -178.5826         estimate D2E/DX2                !
 ! D13   D(1,2,3,4)            -57.6387         estimate D2E/DX2                !
 ! D14   D(9,2,3,4)             64.195          estimate D2E/DX2                !
 ! D15   D(10,2,3,4)          -178.582          estimate D2E/DX2                !
 ! D16   D(2,3,4,5)             57.6393         estimate D2E/DX2                !
 ! D17   D(2,3,4,11)           -64.1941         estimate D2E/DX2                !
 ! D18   D(2,3,4,12)           178.5824         estimate D2E/DX2                !
 ! D19   D(3,4,5,6)            -57.9923         estimate D2E/DX2                !
 ! D20   D(3,4,5,13)          -177.5035         estimate D2E/DX2                !
 ! D21   D(3,4,5,14)            62.3992         estimate D2E/DX2                !
 ! D22   D(11,4,5,6)            62.3995         estimate D2E/DX2                !
 ! D23   D(11,4,5,13)          -57.1117         estimate D2E/DX2                !
 ! D24   D(11,4,5,14)         -177.209          estimate D2E/DX2                !
 ! D25   D(12,4,5,6)          -177.5032         estimate D2E/DX2                !
 ! D26   D(12,4,5,13)           62.9856         estimate D2E/DX2                !
 ! D27   D(12,4,5,14)          -57.1117         estimate D2E/DX2                !
 ! D28   D(4,5,6,1)             57.6397         estimate D2E/DX2                !
 ! D29   D(13,5,6,1)           178.583          estimate D2E/DX2                !
 ! D30   D(14,5,6,1)           -64.1936         estimate D2E/DX2                !
 --------------------------------------------------------------------------------
 Trust Radius=3.00D-01 FncErr=1.00D-07 GrdErr=1.00D-06 EigMax=2.50D+02 EigMin=1.00D-04
 Number of steps in this run=     80 maximum allowed number of steps=    100.
 GradGradGradGradGradGradGradGradGradGradGradGradGradGradGradGradGradGrad

                          Input orientation:                          
 ---------------------------------------------------------------------
 Center     Atomic      Atomic             Coordinates (Angstroms)
 Number     Number       Type             X           Y           Z
 ---------------------------------------------------------------------
      1          6           0       -1.242441    0.648113   -0.044987
      2          6           0       -1.061607   -0.830648   -0.385680
      3          8           0        0.045870   -1.383614    0.341049
      4          6           0        1.242445   -0.648110    0.044979
      5          6           0        1.061609    0.830645    0.385688
      6          8           0       -0.045864    1.383613   -0.341056
      7          1           0       -1.476912    0.779024    1.017759
      8          1           0       -2.058666    1.078339   -0.632761
      9          1           0       -0.876039   -0.965436   -1.457568
     10          1           0       -1.958778   -1.396613   -0.118163
     11          1           0        1.476911   -0.779009   -1.017769
     12          1           0        2.058670   -1.078338    0.632751
     13          1           0        1.958781    1.396615    0.118188
     14          1           0        0.876019    0.965419    1.457571
 ---------------------------------------------------------------------
                    Distance matrix (angstroms):
                    1          2          3          4          5
     1  C    0.000000
     2  C    1.528237   0.000000
     3  O    2.436531   1.435414   0.000000
     4  C    2.804094   2.351051   1.435414   0.000000
     5  C    2.351052   2.804095   2.436526   1.528234   0.000000
     6  O    1.435415   2.436530   2.851531   2.436526   1.435418
     7  H    1.096149   2.175584   2.730166   3.221477   2.616537
     8  H    1.093981   2.167811   3.382098   3.786461   3.291611
     9  H    2.175586   1.096151   2.063932   2.616547   3.221487
    10  H    2.167809   1.093983   2.056614   3.291610   3.786460
    11  H    3.221468   2.616539   2.063931   1.096150   2.175581
    12  H    3.786462   3.291607   2.056610   1.093981   2.167807
    13  H    3.291612   3.786466   3.382096   2.167809   1.093982
    14  H    2.616531   3.221463   2.730151   2.175582   1.096148
                    6          7          8          9         10
     6  O    0.000000
     7  H    2.063929   0.000000
     8  H    2.056613   1.775456   0.000000
     9  H    2.730169   3.087302   2.501185   0.000000
    10  H    3.382097   2.501183   2.529857   1.775456   0.000000
    11  H    2.730150   3.910999   4.012265   2.400948   3.604814
    12  H    3.382095   4.012277   4.817180   3.604816   4.099397
    13  H    2.056617   3.604807   4.099403   4.012293   4.817183
    14  H    2.063931   2.400928   3.604804   3.911002   4.012257
                   11         12         13         14
    11  H    0.000000
    12  H    1.775460   0.000000
    13  H    2.501187   2.529851   0.000000
    14  H    3.087298   2.501186   1.775458   0.000000
 Stoichiometry    C4H8O2
 Framework group  C1[X(C4H8O2)]
 Deg. of freedom    36
 Full point group                 C1      NOp   1
 Largest Abelian subgroup         C1      NOp   1
 Largest concise Abelian subgroup C1      NOp   1
                         Standard orientation:                         
 ---------------------------------------------------------------------
 Center     Atomic      Atomic             Coordinates (Angstroms)
 Number     Number       Type             X           Y           Z
 ---------------------------------------------------------------------
      1          6           0       -1.175527   -0.738417   -0.196505
      2          6           0       -1.175524    0.738421    0.196503
      3          8           0        0.000004    1.393103   -0.303433
      4          6           0        1.175527    0.738414    0.196511
      5          6           0        1.175525   -0.738418   -0.196512
      6          8           0       -0.000002   -1.393102    0.303439
      7          1           0       -1.200471   -0.853358   -1.286326
      8          1           0       -2.049701   -1.245144    0.222831
      9          1           0       -1.200480    0.853364    1.286325
     10          1           0       -2.049697    1.245148   -0.222841
     11          1           0        1.200467    0.853342    1.286334
     12          1           0        2.049701    1.245142   -0.222823
     13          1           0        2.049702   -1.245149    0.222814
     14          1           0        1.200457   -0.853349   -1.286333
 ---------------------------------------------------------------------
 Rotational constants (GHZ):           5.0225529           4.6317684           2.7077666
 Standard basis: 6-311++G(d,p) (5D, 7F)
 There are   194 symmetry adapted cartesian basis functions of A   symmetry.
 There are   188 symmetry adapted basis functions of A   symmetry.
   188 basis functions,   288 primitive gaussians,   194 cartesian basis functions
    24 alpha electrons       24 beta electrons
       nuclear repulsion energy       262.7349847509 Hartrees.
 NAtoms=   14 NActive=   14 NUniq=   14 SFac= 1.00D+00 NAtFMM=   60 NAOKFM=F Big=F
 Integral buffers will be    131072 words long.
 Raffenetti 2 integral format.
 Two-electron integral symmetry is turned on.
 One-electron integrals computed using PRISM.
 NBasis=   188 RedAO= T EigKep=  1.90D-05  NBF=   188
 NBsUse=   188 1.00D-06 EigRej= -1.00D+00 NBFU=   188
 ExpMin= 3.60D-02 ExpMax= 8.59D+03 ExpMxC= 1.30D+03 IAcc=3 IRadAn=         5 AccDes= 0.00D+00
 Harris functional with IExCor=  402 and IRadAn=       5 diagonalized for initial guess.
 HarFok:  IExCor=  402 AccDes= 0.00D+00 IRadAn=         5 IDoV= 1 UseB2=F ITyADJ=14
 ICtDFT=  3500011 ScaDFX=  1.000000  1.000000  1.000000  1.000000
 FoFCou: FMM=F IPFlag=           0 FMFlag=      100000 FMFlg1=           0
         NFxFlg=           0 DoJE=T BraDBF=F KetDBF=T FulRan=T
         wScrn=  0.000000 ICntrl=       500 IOpCl=  0 I1Cent=   200000004 NGrid=           0
         NMat0=    1 NMatS0=      1 NMatT0=    0 NMatD0=    1 NMtDS0=    0 NMtDT0=    0
 Petite list used in FoFCou.
 Requested convergence on RMS density matrix=1.00D-08 within 128 cycles.
 Requested convergence on MAX density matrix=1.00D-06.
 Requested convergence on             energy=1.00D-06.
 No special actions if energy rises.
 SCF Done:  E(RB3LYP) =  -307.750938629     A.U. after   10 cycles
            NFock= 10  Conv=0.33D-08     -V/T= 2.0041

 **********************************************************************

            Population analysis using the SCF Density.

 **********************************************************************

 Orbital symmetries:
       Occupied  (A) (A) (A) (A) (A) (A) (A) (A) (A) (A) (A) (A)
                 (A) (A) (A) (A) (A) (A) (A) (A) (A) (A) (A) (A)
       Virtual   (A) (A) (A) (A) (A) (A) (A) (A) (A) (A) (A) (A)
                 (A) (A) (A) (A) (A) (A) (A) (A) (A) (A) (A) (A)
                 (A) (A) (A) (A) (A) (A) (A) (A) (A) (A) (A) (A)
                 (A) (A) (A) (A) (A) (A) (A) (A) (A) (A) (A) (A)
                 (A) (A) (A) (A) (A) (A) (A) (A) (A) (A) (A) (A)
                 (A) (A) (A) (A) (A) (A) (A) (A) (A) (A) (A) (A)
                 (A) (A) (A) (A) (A) (A) (A) (A) (A) (A) (A) (A)
                 (A) (A) (A) (A) (A) (A) (A) (A) (A) (A) (A) (A)
                 (A) (A) (A) (A) (A) (A) (A) (A) (A) (A) (A) (A)
                 (A) (A) (A) (A) (A) (A) (A) (A) (A) (A) (A) (A)
                 (A) (A) (A) (A) (A) (A) (A) (A) (A) (A) (A) (A)
                 (A) (A) (A) (A) (A) (A) (A) (A) (A) (A) (A) (A)
                 (A) (A) (A) (A) (A) (A) (A) (A) (A) (A) (A) (A)
                 (A) (A) (A) (A) (A) (A) (A) (A)
 The electronic state is 1-A.
 Alpha  occ. eigenvalues --  -19.13210 -19.13209 -10.22417 -10.22416 -10.22395
 Alpha  occ. eigenvalues --  -10.22393  -1.05758  -1.02083  -0.78517  -0.70364
 Alpha  occ. eigenvalues --   -0.66867  -0.58880  -0.51185  -0.48411  -0.48390
 Alpha  occ. eigenvalues --   -0.48076  -0.45593  -0.40723  -0.37924  -0.37570
 Alpha  occ. eigenvalues --   -0.37308  -0.31030  -0.29149  -0.25069
 Alpha virt. eigenvalues --   -0.00574   0.00571   0.00765   0.02382   0.03288
 Alpha virt. eigenvalues --    0.03664   0.03997   0.04482   0.07110   0.07199
 Alpha virt. eigenvalues --    0.07458   0.09772   0.09825   0.11094   0.11507
 Alpha virt. eigenvalues --    0.12085   0.12439   0.13351   0.13396   0.13839
 Alpha virt. eigenvalues --    0.14149   0.15216   0.15518   0.16352   0.16492
 Alpha virt. eigenvalues --    0.16512   0.20426   0.21299   0.21488   0.21782
 Alpha virt. eigenvalues --    0.22886   0.25163   0.26607   0.26910   0.27435
 Alpha virt. eigenvalues --    0.29876   0.30839   0.31079   0.31634   0.32374
 Alpha virt. eigenvalues --    0.32974   0.34568   0.34655   0.36294   0.37969
 Alpha virt. eigenvalues --    0.38932   0.45929   0.47885   0.48703   0.50034
 Alpha virt. eigenvalues --    0.54785   0.56226   0.58390   0.59015   0.61189
 Alpha virt. eigenvalues --    0.63643   0.64399   0.65659   0.67299   0.67591
 Alpha virt. eigenvalues --    0.68654   0.70346   0.71059   0.72850   0.73305
 Alpha virt. eigenvalues --    0.87162   0.88711   0.91715   0.95951   1.02140
 Alpha virt. eigenvalues --    1.03014   1.04707   1.05389   1.15678   1.18838
 Alpha virt. eigenvalues --    1.19854   1.23704   1.25993   1.26281   1.32182
 Alpha virt. eigenvalues --    1.33733   1.36126   1.49406   1.50854   1.52302
 Alpha virt. eigenvalues --    1.52389   1.56366   1.57511   1.57736   1.59346
 Alpha virt. eigenvalues --    1.59828   1.61709   1.64534   1.68146   1.68843
 Alpha virt. eigenvalues --    1.69899   1.70168   1.72533   1.77062   1.78540
 Alpha virt. eigenvalues --    1.83776   1.86936   1.90680   1.94987   1.99457
 Alpha virt. eigenvalues --    1.99748   2.08636   2.09487   2.10474   2.12200
 Alpha virt. eigenvalues --    2.17154   2.22741   2.27669   2.28677   2.38477
 Alpha virt. eigenvalues --    2.44663   2.47931   2.51074   2.51246   2.54863
 Alpha virt. eigenvalues --    2.58710   2.60100   2.66859   2.67330   2.68247
 Alpha virt. eigenvalues --    2.75814   2.78097   2.79257   2.80289   2.89731
 Alpha virt. eigenvalues --    2.91673   2.93471   2.97397   2.97677   3.07432
 Alpha virt. eigenvalues --    3.09884   3.17155   3.18806   3.22887   3.31076
 Alpha virt. eigenvalues --    3.34081   3.34963   3.76316   3.81170   3.81182
 Alpha virt. eigenvalues --    3.82262   3.96910   4.04786   4.05399   4.07147
 Alpha virt. eigenvalues --    4.17179   4.27455   5.08070   5.12112   5.34895
 Alpha virt. eigenvalues --    5.39293   5.62313   5.63673  23.80132  23.85710
 Alpha virt. eigenvalues --   23.89452  23.89716  49.88041  49.93133
          Condensed to atoms (all electrons):
               1          2          3          4          5          6
     1  C    5.577534  -0.055195  -0.095921   0.257384  -0.368751   0.246950
     2  C   -0.055195   5.577533   0.246951  -0.368748   0.257384  -0.095921
     3  O   -0.095921   0.246951   8.114277   0.246948  -0.095920  -0.024035
     4  C    0.257384  -0.368748   0.246948   5.577535  -0.055189  -0.095921
     5  C   -0.368751   0.257384  -0.095920  -0.055189   5.577537   0.246948
     6  O    0.246950  -0.095921  -0.024035  -0.095921   0.246948   8.114278
     7  H    0.397556  -0.077875   0.000094  -0.017822  -0.017514  -0.043695
     8  H    0.363044  -0.006775   0.006270  -0.004488   0.031177  -0.083659
     9  H   -0.077875   0.397556  -0.043695  -0.017515  -0.017821   0.000094
    10  H   -0.006776   0.363045  -0.083660   0.031177  -0.004489   0.006270
    11  H   -0.017822  -0.017513  -0.043693   0.397554  -0.077876   0.000094
    12  H   -0.004488   0.031176  -0.083661   0.363043  -0.006775   0.006271
    13  H    0.031176  -0.004488   0.006270  -0.006775   0.363043  -0.083659
    14  H   -0.017512  -0.017823   0.000094  -0.077875   0.397554  -0.043693
               7          8          9         10         11         12
     1  C    0.397556   0.363044  -0.077875  -0.006776  -0.017822  -0.004488
     2  C   -0.077875  -0.006775   0.397556   0.363045  -0.017513   0.031176
     3  O    0.000094   0.006270  -0.043695  -0.083660  -0.043693  -0.083661
     4  C   -0.017822  -0.004488  -0.017515   0.031177   0.397554   0.363043
     5  C   -0.017514   0.031177  -0.017821  -0.004489  -0.077876  -0.006775
     6  O   -0.043695  -0.083659   0.000094   0.006270   0.000094   0.006271
     7  H    0.622939  -0.039598   0.009165  -0.005048   0.004802  -0.001392
     8  H   -0.039598   0.572793  -0.005047   0.009048  -0.001393   0.001514
     9  H    0.009165  -0.005047   0.622939  -0.039599   0.032954  -0.008339
    10  H   -0.005048   0.009048  -0.039599   0.572795  -0.008339   0.004761
    11  H    0.004802  -0.001393   0.032954  -0.008339   0.622938  -0.039599
    12  H   -0.001392   0.001514  -0.008339   0.004761  -0.039599   0.572795
    13  H   -0.008339   0.004761  -0.001392   0.001514  -0.005047   0.009048
    14  H    0.032954  -0.008339   0.004802  -0.001393   0.009165  -0.005047
              13         14
     1  C    0.031176  -0.017512
     2  C   -0.004488  -0.017823
     3  O    0.006270   0.000094
     4  C   -0.006775  -0.077875
     5  C    0.363043   0.397554
     6  O   -0.083659  -0.043693
     7  H   -0.008339   0.032954
     8  H    0.004761  -0.008339
     9  H   -0.001392   0.004802
    10  H    0.001514  -0.001393
    11  H   -0.005047   0.009165
    12  H    0.009048  -0.005047
    13  H    0.572793  -0.039598
    14  H   -0.039598   0.622938
 Mulliken charges:
               1
     1  C   -0.229305
     2  C   -0.229308
     3  O   -0.150321
     4  C   -0.229307
     5  C   -0.229308
     6  O   -0.150324
     7  H    0.143773
     8  H    0.160694
     9  H    0.143774
    10  H    0.160694
    11  H    0.143774
    12  H    0.160694
    13  H    0.160695
    14  H    0.143774
 Sum of Mulliken charges =  -0.00000
 Mulliken charges with hydrogens summed into heavy atoms:
               1
     1  C    0.075163
     2  C    0.075160
     3  O   -0.150321
     4  C    0.075161
     5  C    0.075161
     6  O   -0.150324
 Electronic spatial extent (au):  <R**2>=            505.3707
 Charge=             -0.0000 electrons
 Dipole moment (field-independent basis, Debye):
    X=              0.0000    Y=              0.0000    Z=             -0.0000  Tot=              0.0000
 Quadrupole moment (field-independent basis, Debye-Ang):
   XX=            -30.6586   YY=            -43.6714   ZZ=            -37.6540
   XY=             -0.0000   XZ=             -0.0000   YZ=              2.8961
 Traceless Quadrupole moment (field-independent basis, Debye-Ang):
   XX=              6.6694   YY=             -6.3434   ZZ=             -0.3260
   XY=             -0.0000   XZ=             -0.0000   YZ=              2.8961
 Octapole moment (field-independent basis, Debye-Ang**2):
  XXX=              0.0001  YYY=             -0.0000  ZZZ=             -0.0000  XYY=             -0.0000
  XXY=             -0.0001  XXZ=             -0.0000  XZZ=              0.0000  YZZ=              0.0000
  YYZ=             -0.0000  XYZ=              0.0000
 Hexadecapole moment (field-independent basis, Debye-Ang**3):
 XXXX=           -288.1876 YYYY=           -303.7821 ZZZZ=            -81.5162 XXXY=              0.0000
 XXXZ=             -0.0001 YYYX=             -0.0001 YYYZ=              2.0998 ZZZX=             -0.0000
 ZZZY=              1.8244 XXYY=            -85.9084 XXZZ=            -64.3301 YYZZ=            -61.6419
 XXYZ=             -4.8077 YYXZ=             -0.0000 ZZXY=             -0.0000
 N-N= 2.627349847509D+02 E-N=-1.245490101142D+03  KE= 3.064795341450D+02
 ******************************Gaussian NBO Version 3.1******************************
             N A T U R A L   A T O M I C   O R B I T A L   A N D
          N A T U R A L   B O N D   O R B I T A L   A N A L Y S I S
 ******************************Gaussian NBO Version 3.1******************************
       /RESON  / : Allow strongly delocalized NBO set

 Analyzing the SCF density

 Job title: C1COCCO1                                                        

 Storage needed:    106904 in NPA,    142158 in NBO (1258290080 available)
 GSVD:  LWork=        9360 too small for GESVD, short by       41600 words or       41600 for optimal perf.


 NATURAL POPULATIONS:  Natural atomic orbital occupancies 
                                                          
   NAO  Atom  No  lang   Type(AO)    Occupancy      Energy
 ----------------------------------------------------------
     1    C    1  S      Cor( 1S)     1.99919     -10.10026
     2    C    1  S      Val( 2S)     1.02231      -0.25138
     3    C    1  S      Ryd( 4S)     0.00229       1.02626
     4    C    1  S      Ryd( 3S)     0.00028       0.95997
     5    C    1  S      Ryd( 5S)     0.00001      23.15833
     6    C    1  px     Val( 2p)     0.89855      -0.08379
     7    C    1  px     Ryd( 4p)     0.00309       0.78702
     8    C    1  px     Ryd( 3p)     0.00040       0.47188
     9    C    1  px     Ryd( 5p)     0.00011       2.76950
    10    C    1  py     Val( 2p)     0.99537      -0.09282
    11    C    1  py     Ryd( 4p)     0.00422       0.72816
    12    C    1  py     Ryd( 3p)     0.00022       0.51909
    13    C    1  py     Ryd( 5p)     0.00018       2.68090
    14    C    1  pz     Val( 2p)     1.11721      -0.09625
    15    C    1  pz     Ryd( 4p)     0.00219       0.75936
    16    C    1  pz     Ryd( 3p)     0.00032       0.55279
    17    C    1  pz     Ryd( 5p)     0.00011       2.74784
    18    C    1  dxy    Ryd( 3d)     0.00185       2.05012
    19    C    1  dxz    Ryd( 3d)     0.00150       1.92297
    20    C    1  dyz    Ryd( 3d)     0.00078       1.93007
    21    C    1  dx2y2  Ryd( 3d)     0.00155       2.13729
    22    C    1  dz2    Ryd( 3d)     0.00161       2.22288
 
    23    C    2  S      Cor( 1S)     1.99919     -10.10026
    24    C    2  S      Val( 2S)     1.02231      -0.25138
    25    C    2  S      Ryd( 4S)     0.00229       1.02625
    26    C    2  S      Ryd( 3S)     0.00028       0.95997
    27    C    2  S      Ryd( 5S)     0.00001      23.15833
    28    C    2  px     Val( 2p)     0.89855      -0.08379
    29    C    2  px     Ryd( 4p)     0.00309       0.78702
    30    C    2  px     Ryd( 3p)     0.00040       0.47188
    31    C    2  px     Ryd( 5p)     0.00011       2.76950
    32    C    2  py     Val( 2p)     0.99537      -0.09282
    33    C    2  py     Ryd( 4p)     0.00422       0.72816
    34    C    2  py     Ryd( 3p)     0.00022       0.51909
    35    C    2  py     Ryd( 5p)     0.00018       2.68090
    36    C    2  pz     Val( 2p)     1.11721      -0.09625
    37    C    2  pz     Ryd( 4p)     0.00219       0.75936
    38    C    2  pz     Ryd( 3p)     0.00032       0.55278
    39    C    2  pz     Ryd( 5p)     0.00011       2.74784
    40    C    2  dxy    Ryd( 3d)     0.00185       2.05012
    41    C    2  dxz    Ryd( 3d)     0.00150       1.92297
    42    C    2  dyz    Ryd( 3d)     0.00078       1.93007
    43    C    2  dx2y2  Ryd( 3d)     0.00155       2.13729
    44    C    2  dz2    Ryd( 3d)     0.00161       2.22288
 
    45    O    3  S      Cor( 1S)     1.99980     -18.93609
    46    O    3  S      Val( 2S)     1.63582      -0.86804
    47    O    3  S      Ryd( 3S)     0.00419       0.69679
    48    O    3  S      Ryd( 4S)     0.00024       1.41189
    49    O    3  S      Ryd( 5S)     0.00000      49.65076
    50    O    3  px     Val( 2p)     1.34026      -0.27654
    51    O    3  px     Ryd( 3p)     0.00318       0.79627
    52    O    3  px     Ryd( 4p)     0.00106       0.91091
    53    O    3  px     Ryd( 5p)     0.00001       5.18855
    54    O    3  py     Val( 2p)     1.77291      -0.30711
    55    O    3  py     Ryd( 3p)     0.00514       0.54353
    56    O    3  py     Ryd( 4p)     0.00087       0.91245
    57    O    3  py     Ryd( 5p)     0.00005       5.07030
    58    O    3  pz     Val( 2p)     1.83056      -0.30034
    59    O    3  pz     Ryd( 3p)     0.00260       0.50270
    60    O    3  pz     Ryd( 4p)     0.00069       0.87620
    61    O    3  pz     Ryd( 5p)     0.00002       5.02577
    62    O    3  dxy    Ryd( 3d)     0.00086       3.35482
    63    O    3  dxz    Ryd( 3d)     0.00054       3.19579
    64    O    3  dyz    Ryd( 3d)     0.00086       3.07838
    65    O    3  dx2y2  Ryd( 3d)     0.00061       3.16171
    66    O    3  dz2    Ryd( 3d)     0.00073       3.08428
 
    67    C    4  S      Cor( 1S)     1.99919     -10.10026
    68    C    4  S      Val( 2S)     1.02231      -0.25138
    69    C    4  S      Ryd( 4S)     0.00229       1.02626
    70    C    4  S      Ryd( 3S)     0.00028       0.95998
    71    C    4  S      Ryd( 5S)     0.00001      23.15832
    72    C    4  px     Val( 2p)     0.89855      -0.08379
    73    C    4  px     Ryd( 4p)     0.00309       0.78702
    74    C    4  px     Ryd( 3p)     0.00040       0.47188
    75    C    4  px     Ryd( 5p)     0.00011       2.76950
    76    C    4  py     Val( 2p)     0.99537      -0.09282
    77    C    4  py     Ryd( 4p)     0.00422       0.72816
    78    C    4  py     Ryd( 3p)     0.00022       0.51908
    79    C    4  py     Ryd( 5p)     0.00018       2.68090
    80    C    4  pz     Val( 2p)     1.11721      -0.09625
    81    C    4  pz     Ryd( 4p)     0.00219       0.75936
    82    C    4  pz     Ryd( 3p)     0.00032       0.55278
    83    C    4  pz     Ryd( 5p)     0.00011       2.74785
    84    C    4  dxy    Ryd( 3d)     0.00185       2.05012
    85    C    4  dxz    Ryd( 3d)     0.00150       1.92297
    86    C    4  dyz    Ryd( 3d)     0.00078       1.93008
    87    C    4  dx2y2  Ryd( 3d)     0.00155       2.13729
    88    C    4  dz2    Ryd( 3d)     0.00161       2.22288
 
    89    C    5  S      Cor( 1S)     1.99919     -10.10026
    90    C    5  S      Val( 2S)     1.02231      -0.25138
    91    C    5  S      Ryd( 4S)     0.00229       1.02626
    92    C    5  S      Ryd( 3S)     0.00028       0.95998
    93    C    5  S      Ryd( 5S)     0.00001      23.15832
    94    C    5  px     Val( 2p)     0.89855      -0.08379
    95    C    5  px     Ryd( 4p)     0.00309       0.78703
    96    C    5  px     Ryd( 3p)     0.00040       0.47188
    97    C    5  px     Ryd( 5p)     0.00011       2.76950
    98    C    5  py     Val( 2p)     0.99537      -0.09282
    99    C    5  py     Ryd( 4p)     0.00422       0.72816
   100    C    5  py     Ryd( 3p)     0.00022       0.51908
   101    C    5  py     Ryd( 5p)     0.00018       2.68090
   102    C    5  pz     Val( 2p)     1.11720      -0.09624
   103    C    5  pz     Ryd( 4p)     0.00219       0.75936
   104    C    5  pz     Ryd( 3p)     0.00032       0.55278
   105    C    5  pz     Ryd( 5p)     0.00011       2.74785
   106    C    5  dxy    Ryd( 3d)     0.00185       2.05012
   107    C    5  dxz    Ryd( 3d)     0.00150       1.92297
   108    C    5  dyz    Ryd( 3d)     0.00078       1.93007
   109    C    5  dx2y2  Ryd( 3d)     0.00155       2.13729
   110    C    5  dz2    Ryd( 3d)     0.00161       2.22288
 
   111    O    6  S      Cor( 1S)     1.99980     -18.93609
   112    O    6  S      Val( 2S)     1.63583      -0.86804
   113    O    6  S      Ryd( 3S)     0.00419       0.69679
   114    O    6  S      Ryd( 4S)     0.00024       1.41189
   115    O    6  S      Ryd( 5S)     0.00000      49.65076
   116    O    6  px     Val( 2p)     1.34026      -0.27654
   117    O    6  px     Ryd( 3p)     0.00318       0.79626
   118    O    6  px     Ryd( 4p)     0.00106       0.91092
   119    O    6  px     Ryd( 5p)     0.00001       5.18855
   120    O    6  py     Val( 2p)     1.77291      -0.30711
   121    O    6  py     Ryd( 3p)     0.00514       0.54353
   122    O    6  py     Ryd( 4p)     0.00087       0.91245
   123    O    6  py     Ryd( 5p)     0.00005       5.07030
   124    O    6  pz     Val( 2p)     1.83056      -0.30034
   125    O    6  pz     Ryd( 3p)     0.00260       0.50270
   126    O    6  pz     Ryd( 4p)     0.00069       0.87620
   127    O    6  pz     Ryd( 5p)     0.00002       5.02577
   128    O    6  dxy    Ryd( 3d)     0.00086       3.35481
   129    O    6  dxz    Ryd( 3d)     0.00054       3.19580
   130    O    6  dyz    Ryd( 3d)     0.00086       3.07838
   131    O    6  dx2y2  Ryd( 3d)     0.00061       3.16170
   132    O    6  dz2    Ryd( 3d)     0.00073       3.08427
 
   133    H    7  S      Val( 1S)     0.83305       0.01007
   134    H    7  S      Ryd( 2S)     0.00177       0.80091
   135    H    7  S      Ryd( 4S)     0.00022       1.42856
   136    H    7  S      Ryd( 3S)     0.00016       0.82847
   137    H    7  px     Ryd( 2p)     0.00010       1.82801
   138    H    7  py     Ryd( 2p)     0.00023       1.81506
   139    H    7  pz     Ryd( 2p)     0.00046       2.70231
 
   140    H    8  S      Val( 1S)     0.80810       0.01757
   141    H    8  S      Ryd( 2S)     0.00108       0.55050
   142    H    8  S      Ryd( 3S)     0.00013       0.80640
   143    H    8  S      Ryd( 4S)     0.00010       1.61211
   144    H    8  px     Ryd( 2p)     0.00031       2.39430
   145    H    8  py     Ryd( 2p)     0.00030       1.94584
   146    H    8  pz     Ryd( 2p)     0.00018       1.92750
 
   147    H    9  S      Val( 1S)     0.83305       0.01007
   148    H    9  S      Ryd( 2S)     0.00177       0.80090
   149    H    9  S      Ryd( 4S)     0.00022       1.42857
   150    H    9  S      Ryd( 3S)     0.00016       0.82847
   151    H    9  px     Ryd( 2p)     0.00010       1.82801
   152    H    9  py     Ryd( 2p)     0.00023       1.81506
   153    H    9  pz     Ryd( 2p)     0.00046       2.70231
 
   154    H   10  S      Val( 1S)     0.80810       0.01757
   155    H   10  S      Ryd( 2S)     0.00108       0.55050
   156    H   10  S      Ryd( 3S)     0.00013       0.80644
   157    H   10  S      Ryd( 4S)     0.00010       1.61207
   158    H   10  px     Ryd( 2p)     0.00031       2.39430
   159    H   10  py     Ryd( 2p)     0.00030       1.94584
   160    H   10  pz     Ryd( 2p)     0.00018       1.92750
 
   161    H   11  S      Val( 1S)     0.83304       0.01007
   162    H   11  S      Ryd( 2S)     0.00177       0.80092
   163    H   11  S      Ryd( 4S)     0.00022       1.42857
   164    H   11  S      Ryd( 3S)     0.00016       0.82845
   165    H   11  px     Ryd( 2p)     0.00010       1.82801
   166    H   11  py     Ryd( 2p)     0.00023       1.81506
   167    H   11  pz     Ryd( 2p)     0.00046       2.70232
 
   168    H   12  S      Val( 1S)     0.80810       0.01757
   169    H   12  S      Ryd( 2S)     0.00108       0.55050
   170    H   12  S      Ryd( 3S)     0.00013       0.80640
   171    H   12  S      Ryd( 4S)     0.00010       1.61211
   172    H   12  px     Ryd( 2p)     0.00031       2.39430
   173    H   12  py     Ryd( 2p)     0.00030       1.94585
   174    H   12  pz     Ryd( 2p)     0.00018       1.92749
 
   175    H   13  S      Val( 1S)     0.80810       0.01757
   176    H   13  S      Ryd( 2S)     0.00108       0.55050
   177    H   13  S      Ryd( 3S)     0.00013       0.80635
   178    H   13  S      Ryd( 4S)     0.00010       1.61216
   179    H   13  px     Ryd( 2p)     0.00031       2.39430
   180    H   13  py     Ryd( 2p)     0.00030       1.94585
   181    H   13  pz     Ryd( 2p)     0.00018       1.92749
 
   182    H   14  S      Val( 1S)     0.83304       0.01007
   183    H   14  S      Ryd( 2S)     0.00177       0.80092
   184    H   14  S      Ryd( 4S)     0.00022       1.42857
   185    H   14  S      Ryd( 3S)     0.00016       0.82845
   186    H   14  px     Ryd( 2p)     0.00010       1.82801
   187    H   14  py     Ryd( 2p)     0.00023       1.81506
   188    H   14  pz     Ryd( 2p)     0.00046       2.70232

 WARNING:  Population inversion found on atom  C    1
           Population inversion found on atom  C    2
           Population inversion found on atom  C    4
           Population inversion found on atom  C    5
           Population inversion found on atom  H    7
           Population inversion found on atom  H    9
           Population inversion found on atom  H   11
           Population inversion found on atom  H   14


 Summary of Natural Population Analysis:                  
                                                          
                                       Natural Population 
                Natural  -----------------------------------------------
    Atom  No    Charge         Core      Valence    Rydberg      Total
 -----------------------------------------------------------------------
      C    1   -0.05333      1.99919     4.03344    0.02071     6.05333
      C    2   -0.05333      1.99919     4.03344    0.02071     6.05333
      O    3   -0.60099      1.99980     6.57955    0.02164     8.60099
      C    4   -0.05333      1.99919     4.03344    0.02071     6.05333
      C    5   -0.05333      1.99919     4.03344    0.02071     6.05333
      O    6   -0.60099      1.99980     6.57955    0.02164     8.60099
      H    7    0.16402      0.00000     0.83305    0.00293     0.83598
      H    8    0.18981      0.00000     0.80810    0.00210     0.81019
      H    9    0.16402      0.00000     0.83305    0.00293     0.83598
      H   10    0.18981      0.00000     0.80810    0.00210     0.81019
      H   11    0.16402      0.00000     0.83304    0.00293     0.83598
      H   12    0.18981      0.00000     0.80810    0.00210     0.81019
      H   13    0.18981      0.00000     0.80810    0.00210     0.81019
      H   14    0.16402      0.00000     0.83304    0.00293     0.83598
 =======================================================================
   * Total *    0.00000     11.99635    35.85742    0.14623    48.00000

                                 Natural Population      
 --------------------------------------------------------
   Core                      11.99635 ( 99.9696% of  12)
   Valence                   35.85742 ( 99.6040% of  36)
   Natural Minimal Basis     47.85377 ( 99.6954% of  48)
   Natural Rydberg Basis      0.14623 (  0.3046% of  48)
 --------------------------------------------------------

    Atom  No          Natural Electron Configuration
 ----------------------------------------------------------------------------
      C    1      [core]2S( 1.02)2p( 3.01)3d( 0.01)4p( 0.01)
      C    2      [core]2S( 1.02)2p( 3.01)3d( 0.01)4p( 0.01)
      O    3      [core]2S( 1.64)2p( 4.94)3p( 0.01)
      C    4      [core]2S( 1.02)2p( 3.01)3d( 0.01)4p( 0.01)
      C    5      [core]2S( 1.02)2p( 3.01)3d( 0.01)4p( 0.01)
      O    6      [core]2S( 1.64)2p( 4.94)3p( 0.01)
      H    7            1S( 0.83)
      H    8            1S( 0.81)
      H    9            1S( 0.83)
      H   10            1S( 0.81)
      H   11            1S( 0.83)
      H   12            1S( 0.81)
      H   13            1S( 0.81)
      H   14            1S( 0.83)


 NATURAL BOND ORBITAL ANALYSIS:

                       Occupancies       Lewis Structure    Low   High
           Occ.    -------------------  -----------------   occ   occ
  Cycle   Thresh.   Lewis   Non-Lewis     CR  BD  3C  LP    (L)   (NL)   Dev
 =============================================================================
   1(1)    1.90    47.59315   0.40685      6  14   0   4     0      0    0.03
 -----------------------------------------------------------------------------

 Structure accepted: No low occupancy Lewis orbitals

 --------------------------------------------------------
   Core                     11.99633 ( 99.969% of  12)
   Valence Lewis            35.59682 ( 98.880% of  36)
  ==================       ============================
   Total Lewis              47.59315 ( 99.152% of  48)
  -----------------------------------------------------
   Valence non-Lewis         0.31995 (  0.667% of  48)
   Rydberg non-Lewis         0.08690 (  0.181% of  48)
  ==================       ============================
   Total non-Lewis           0.40685 (  0.848% of  48)
 --------------------------------------------------------


       (Occupancy)   Bond orbital/ Coefficients/ Hybrids
 ---------------------------------------------------------------------------------
     1. (1.99309) BD ( 1) C   1 - C   2  
                ( 50.00%)   0.7071* C   1 s( 29.85%)p 2.35( 70.10%)d 0.00(  0.05%)
                                            0.0002  0.5462 -0.0107 -0.0057 -0.0001
                                            0.0119  0.0238  0.0007  0.0011  0.8074
                                           -0.0089 -0.0073  0.0013  0.2196 -0.0020
                                           -0.0003  0.0027  0.0028 -0.0012  0.0102
                                           -0.0174 -0.0090
                ( 50.00%)   0.7071* C   2 s( 29.85%)p 2.35( 70.10%)d 0.00(  0.05%)
                                            0.0002  0.5462 -0.0107 -0.0057 -0.0001
                                            0.0119  0.0238  0.0007  0.0011 -0.8074
                                            0.0089  0.0073 -0.0013 -0.2196  0.0020
                                            0.0003 -0.0027 -0.0028  0.0012  0.0102
                                           -0.0174 -0.0090
     2. (1.99023) BD ( 1) C   1 - O   6  
                ( 32.61%)   0.5711* C   1 s( 20.79%)p 3.80( 78.93%)d 0.01(  0.28%)
                                           -0.0000 -0.4546  0.0343 -0.0071  0.0001
                                           -0.7311  0.0134  0.0060  0.0040  0.3994
                                           -0.0530  0.0019 -0.0040 -0.3023  0.0288
                                           -0.0023  0.0034  0.0321 -0.0264  0.0129
                                           -0.0246  0.0188
                ( 67.39%)   0.8209* O   6 s( 27.10%)p 2.69( 72.83%)d 0.00(  0.07%)
                                            0.0000 -0.5201  0.0215 -0.0014  0.0000
                                            0.7061 -0.0317 -0.0035  0.0007 -0.3754
                                           -0.0063  0.0081  0.0019  0.2962  0.0016
                                           -0.0047 -0.0013  0.0170 -0.0127  0.0136
                                           -0.0013  0.0054
     3. (1.98545) BD ( 1) C   1 - H   7  
                ( 58.87%)   0.7673* C   1 s( 24.71%)p 3.04( 75.22%)d 0.00(  0.08%)
                                            0.0000 -0.4965 -0.0231  0.0016  0.0002
                                            0.0068 -0.0119 -0.0042  0.0039  0.1013
                                           -0.0091 -0.0002  0.0019  0.8611  0.0124
                                            0.0022  0.0036 -0.0045  0.0021 -0.0037
                                            0.0014 -0.0269
                ( 41.13%)   0.6413* H   7 s( 99.96%)p 0.00(  0.04%)
                                           -0.9998 -0.0052 -0.0001  0.0006 -0.0020
                                           -0.0037 -0.0200
     4. (1.98011) BD ( 1) C   1 - H   8  
                ( 59.63%)   0.7722* C   1 s( 24.75%)p 3.04( 75.19%)d 0.00(  0.06%)
                                           -0.0002  0.4974  0.0051  0.0040  0.0004
                                           -0.6782 -0.0215 -0.0030 -0.0022 -0.4184
                                            0.0035 -0.0033  0.0025  0.3410  0.0110
                                            0.0034 -0.0020  0.0165 -0.0151 -0.0069
                                            0.0083 -0.0045
                ( 40.37%)   0.6354* H   8 s( 99.95%)p 0.00(  0.05%)
                                            0.9998  0.0022  0.0001 -0.0000  0.0168
                                            0.0117 -0.0071
     5. (1.99023) BD ( 1) C   2 - O   3  
                ( 32.61%)   0.5711* C   2 s( 20.79%)p 3.80( 78.93%)d 0.01(  0.28%)
                                           -0.0000 -0.4546  0.0343 -0.0071  0.0001
                                           -0.7311  0.0134  0.0060  0.0040 -0.3994
                                            0.0530 -0.0019  0.0040  0.3023 -0.0288
                                            0.0023 -0.0034 -0.0321  0.0264  0.0129
                                           -0.0246  0.0188
                ( 67.39%)   0.8209* O   3 s( 27.10%)p 2.69( 72.83%)d 0.00(  0.07%)
                                            0.0000 -0.5201  0.0215 -0.0014  0.0000
                                            0.7061 -0.0317 -0.0035  0.0007  0.3754
                                            0.0063 -0.0081 -0.0019 -0.2962 -0.0016
                                            0.0047  0.0013 -0.0170  0.0127  0.0136
                                           -0.0013  0.0054
     6. (1.98545) BD ( 1) C   2 - H   9  
                ( 58.87%)   0.7673* C   2 s( 24.71%)p 3.04( 75.22%)d 0.00(  0.08%)
                                           -0.0000  0.4965  0.0231 -0.0016 -0.0002
                                           -0.0068  0.0119  0.0042 -0.0039  0.1013
                                           -0.0091 -0.0002  0.0019  0.8611  0.0124
                                            0.0022  0.0036 -0.0045  0.0021  0.0037
                                           -0.0014  0.0269
                ( 41.13%)   0.6413* H   9 s( 99.96%)p 0.00(  0.04%)
                                            0.9998  0.0052  0.0001 -0.0006  0.0020
                                           -0.0037 -0.0200
     7. (1.98011) BD ( 1) C   2 - H  10  
                ( 59.63%)   0.7722* C   2 s( 24.75%)p 3.04( 75.19%)d 0.00(  0.06%)
                                           -0.0002  0.4974  0.0051  0.0040  0.0004
                                           -0.6782 -0.0215 -0.0030 -0.0022  0.4184
                                           -0.0035  0.0033 -0.0025 -0.3410 -0.0110
                                           -0.0034  0.0020 -0.0165  0.0151 -0.0069
                                            0.0083 -0.0045
                ( 40.37%)   0.6354* H  10 s( 99.95%)p 0.00(  0.05%)
                                            0.9998  0.0022  0.0001 -0.0000  0.0168
                                           -0.0117  0.0071
     8. (1.99023) BD ( 1) O   3 - C   4  
                ( 67.39%)   0.8209* O   3 s( 27.10%)p 2.69( 72.83%)d 0.00(  0.07%)
                                           -0.0000  0.5201 -0.0215  0.0014 -0.0000
                                            0.7061 -0.0317 -0.0035  0.0007 -0.3754
                                           -0.0063  0.0081  0.0019  0.2962  0.0016
                                           -0.0047 -0.0013 -0.0170  0.0127 -0.0136
                                            0.0013 -0.0054
                ( 32.61%)   0.5711* C   4 s( 20.79%)p 3.80( 78.93%)d 0.01(  0.28%)
                                            0.0000  0.4546 -0.0343  0.0071 -0.0001
                                           -0.7311  0.0134  0.0060  0.0040  0.3994
                                           -0.0530  0.0019 -0.0040 -0.3023  0.0288
                                           -0.0023  0.0034 -0.0321  0.0264 -0.0129
                                            0.0246 -0.0188
     9. (1.99309) BD ( 1) C   4 - C   5  
                ( 50.00%)   0.7071* C   4 s( 29.85%)p 2.35( 70.10%)d 0.00(  0.05%)
                                            0.0002  0.5462 -0.0107 -0.0057 -0.0001
                                           -0.0119 -0.0238 -0.0007 -0.0011 -0.8074
                                            0.0089  0.0073 -0.0013 -0.2197  0.0020
                                            0.0003 -0.0027  0.0028 -0.0012  0.0102
                                           -0.0174 -0.0090
                ( 50.00%)   0.7071* C   5 s( 29.85%)p 2.35( 70.10%)d 0.00(  0.05%)
                                            0.0002  0.5462 -0.0107 -0.0057 -0.0001
                                           -0.0119 -0.0238 -0.0007 -0.0011  0.8074
                                           -0.0089 -0.0073  0.0013  0.2197 -0.0020
                                           -0.0003  0.0027 -0.0028  0.0012  0.0102
                                           -0.0174 -0.0090
    10. (1.98545) BD ( 1) C   4 - H  11  
                ( 58.87%)   0.7673* C   4 s( 24.71%)p 3.04( 75.22%)d 0.00(  0.08%)
                                           -0.0000  0.4965  0.0231 -0.0016 -0.0002
                                            0.0068 -0.0119 -0.0042  0.0039  0.1013
                                           -0.0091 -0.0002  0.0019  0.8611  0.0124
                                            0.0022  0.0036  0.0045 -0.0021  0.0037
                                           -0.0014  0.0269
                ( 41.13%)   0.6413* H  11 s( 99.96%)p 0.00(  0.04%)
                                            0.9998  0.0052  0.0001 -0.0006 -0.0020
                                           -0.0037 -0.0200
    11. (1.98011) BD ( 1) C   4 - H  12  
                ( 59.63%)   0.7722* C   4 s( 24.75%)p 3.04( 75.19%)d 0.00(  0.06%)
                                           -0.0002  0.4974  0.0051  0.0040  0.0004
                                            0.6782  0.0215  0.0030  0.0022  0.4184
                                           -0.0035  0.0033 -0.0025 -0.3410 -0.0110
                                           -0.0034  0.0020  0.0165 -0.0151 -0.0069
                                            0.0083 -0.0045
                ( 40.37%)   0.6354* H  12 s( 99.95%)p 0.00(  0.05%)
                                            0.9998  0.0022  0.0001 -0.0000 -0.0168
                                           -0.0117  0.0071
    12. (1.99023) BD ( 1) C   5 - O   6  
                ( 32.61%)   0.5711* C   5 s( 20.79%)p 3.80( 78.93%)d 0.01(  0.28%)
                                            0.0000  0.4546 -0.0343  0.0071 -0.0001
                                           -0.7311  0.0134  0.0060  0.0040 -0.3994
                                            0.0530 -0.0019  0.0040  0.3023 -0.0288
                                            0.0023 -0.0034  0.0321 -0.0264 -0.0129
                                            0.0246 -0.0188
                ( 67.39%)   0.8209* O   6 s( 27.10%)p 2.69( 72.83%)d 0.00(  0.07%)
                                           -0.0000  0.5201 -0.0215  0.0014 -0.0000
                                            0.7061 -0.0317 -0.0035  0.0007  0.3754
                                            0.0063 -0.0081 -0.0019 -0.2962 -0.0016
                                            0.0047  0.0013  0.0170 -0.0127 -0.0136
                                            0.0013 -0.0054
    13. (1.98011) BD ( 1) C   5 - H  13  
                ( 59.63%)   0.7722* C   5 s( 24.75%)p 3.04( 75.19%)d 0.00(  0.06%)
                                           -0.0002  0.4974  0.0051  0.0040  0.0004
                                            0.6782  0.0215  0.0030  0.0022 -0.4184
                                            0.0035 -0.0033  0.0025  0.3410  0.0110
                                            0.0034 -0.0020 -0.0165  0.0151 -0.0069
                                            0.0083 -0.0045
                ( 40.37%)   0.6354* H  13 s( 99.95%)p 0.00(  0.05%)
                                            0.9998  0.0022  0.0001 -0.0000 -0.0168
                                            0.0117 -0.0071
    14. (1.98545) BD ( 1) C   5 - H  14  
                ( 58.87%)   0.7673* C   5 s( 24.71%)p 3.04( 75.22%)d 0.00(  0.08%)
                                            0.0000 -0.4965 -0.0231  0.0016  0.0002
                                           -0.0068  0.0119  0.0042 -0.0039  0.1013
                                           -0.0091 -0.0002  0.0019  0.8611  0.0124
                                            0.0022  0.0036  0.0045 -0.0021 -0.0037
                                            0.0014 -0.0269
                ( 41.13%)   0.6413* H  14 s( 99.96%)p 0.00(  0.04%)
                                           -0.9998 -0.0052 -0.0001  0.0006  0.0020
                                           -0.0037 -0.0200
    15. (1.99919) CR ( 1) C   1           s(100.00%)p 0.00(  0.00%)
                                            1.0000 -0.0000  0.0000  0.0000  0.0000
                                           -0.0002 -0.0000 -0.0000 -0.0000 -0.0002
                                            0.0000  0.0000  0.0000 -0.0000  0.0000
                                            0.0000 -0.0000  0.0000 -0.0000 -0.0000
                                            0.0000  0.0000
    16. (1.99919) CR ( 1) C   2           s(100.00%)p 0.00(  0.00%)
                                            1.0000 -0.0000  0.0000  0.0000  0.0000
                                           -0.0002 -0.0000 -0.0000 -0.0000  0.0002
                                           -0.0000 -0.0000 -0.0000  0.0000 -0.0000
                                           -0.0000  0.0000 -0.0000  0.0000 -0.0000
                                            0.0000  0.0000
    17. (1.99980) CR ( 1) O   3           s(100.00%)p 0.00(  0.00%)
                                            1.0000  0.0001 -0.0000  0.0000  0.0000
                                            0.0000 -0.0000  0.0000  0.0000  0.0001
                                            0.0000  0.0000  0.0000  0.0001  0.0000
                                           -0.0000 -0.0000 -0.0000  0.0000 -0.0000
                                            0.0000  0.0000
    18. (1.99919) CR ( 1) C   4           s(100.00%)p 0.00(  0.00%)
                                            1.0000 -0.0000  0.0000  0.0000  0.0000
                                            0.0002  0.0000  0.0000  0.0000  0.0002
                                           -0.0000 -0.0000 -0.0000  0.0000 -0.0000
                                           -0.0000  0.0000  0.0000 -0.0000 -0.0000
                                            0.0000  0.0000
    19. (1.99919) CR ( 1) C   5           s(100.00%)p 0.00(  0.00%)
                                            1.0000 -0.0000  0.0000  0.0000  0.0000
                                            0.0002  0.0000  0.0000  0.0000 -0.0002
                                            0.0000  0.0000  0.0000 -0.0000  0.0000
                                            0.0000 -0.0000 -0.0000  0.0000 -0.0000
                                            0.0000  0.0000
    20. (1.99980) CR ( 1) O   6           s(100.00%)p 0.00(  0.00%)
                                            1.0000  0.0001 -0.0000  0.0000  0.0000
                                            0.0000 -0.0000  0.0000  0.0000 -0.0001
                                           -0.0000 -0.0000 -0.0000 -0.0001 -0.0000
                                            0.0000  0.0000  0.0000 -0.0000 -0.0000
                                            0.0000  0.0000
    21. (1.96734) LP ( 1) O   3           s( 45.87%)p 1.18( 54.10%)d 0.00(  0.03%)
                                           -0.0001  0.6769  0.0232 -0.0011  0.0000
                                            0.0000  0.0000 -0.0000  0.0000  0.5592
                                            0.0097  0.0052  0.0027 -0.4777 -0.0044
                                           -0.0019 -0.0022 -0.0000  0.0000  0.0124
                                            0.0110 -0.0029
    22. (1.92639) LP ( 2) O   3           s(  0.06%)p99.99( 99.90%)d 0.68(  0.04%)
                                           -0.0001  0.0193 -0.0151  0.0030  0.0002
                                           -0.0000  0.0000  0.0000  0.0000  0.6357
                                            0.0177  0.0066 -0.0018  0.7710  0.0105
                                            0.0012 -0.0006 -0.0000 -0.0000 -0.0042
                                            0.0102  0.0170
    23. (1.96734) LP ( 1) O   6           s( 45.87%)p 1.18( 54.10%)d 0.00(  0.03%)
                                           -0.0001  0.6769  0.0232 -0.0011  0.0000
                                            0.0000 -0.0000  0.0000  0.0000 -0.5591
                                           -0.0097 -0.0052 -0.0027  0.4777  0.0044
                                            0.0019  0.0022  0.0000 -0.0000  0.0124
                                            0.0110 -0.0029
    24. (1.92639) LP ( 2) O   6           s(  0.06%)p99.99( 99.90%)d 0.68(  0.04%)
                                           -0.0001  0.0193 -0.0151  0.0030  0.0002
                                           -0.0000 -0.0000  0.0000  0.0000 -0.6357
                                           -0.0177 -0.0066  0.0018 -0.7710 -0.0105
                                           -0.0012  0.0006  0.0000  0.0000 -0.0042
                                            0.0102  0.0170
    25. (0.00357) RY*( 1) C   1           s(  0.97%)p79.59( 77.16%)d22.56( 21.87%)
                                            0.0000  0.0221  0.0927 -0.0171 -0.0179
                                            0.0331  0.4654  0.1140 -0.0403 -0.0450
                                           -0.6674  0.0167  0.1275  0.0144  0.2702
                                            0.0409  0.0186 -0.2387 -0.1788 -0.0819
                                           -0.3490 -0.0361
    26. (0.00293) RY*( 2) C   1           s( 17.46%)p 3.14( 54.75%)d 1.59( 27.79%)
                                            0.0000 -0.0109  0.4104  0.0775  0.0076
                                           -0.0134  0.5449  0.1115 -0.0130 -0.0074
                                            0.3338 -0.0388 -0.0426  0.0331 -0.3360
                                           -0.0016 -0.0947  0.0368  0.2787 -0.1362
                                           -0.2247  0.3604
    27. (0.00251) RY*( 3) C   1           s( 13.98%)p 2.95( 41.30%)d 3.20( 44.72%)
                                           -0.0000  0.0167  0.3504  0.1294 -0.0026
                                            0.0387 -0.2223 -0.0466 -0.1458  0.0016
                                           -0.3107  0.0958 -0.0421  0.0173  0.3827
                                           -0.2803 -0.0763  0.4531  0.3460 -0.1418
                                            0.1572  0.2782
    28. (0.00093) RY*( 4) C   1           s(  2.05%)p10.87( 22.30%)d36.88( 75.65%)
                                           -0.0000  0.0033  0.1379  0.0348  0.0168
                                            0.0326  0.2212  0.1501 -0.0217 -0.0176
                                           -0.1379 -0.2250 -0.0402  0.0185 -0.0926
                                            0.2599  0.0439  0.4676 -0.3473  0.5620
                                            0.3023  0.0995
    29. (0.00065) RY*( 5) C   1           s(  4.27%)p18.35( 78.30%)d 4.09( 17.43%)
                                           -0.0000 -0.0032  0.1387  0.1523 -0.0148
                                           -0.0019  0.3744 -0.1843  0.0168  0.0078
                                            0.4254 -0.0082 -0.1005 -0.0073  0.6436
                                            0.0073  0.0556 -0.1219 -0.1411 -0.0639
                                            0.3086 -0.2006
    30. (0.00043) RY*( 6) C   1           s(  8.27%)p 8.58( 70.96%)d 2.51( 20.77%)
                                            0.0000  0.0009  0.2232 -0.1793  0.0274
                                           -0.0107  0.1819 -0.6867  0.1033 -0.0022
                                           -0.2673  0.1334  0.0092 -0.0004 -0.3214
                                           -0.0045  0.0392 -0.1095  0.2009  0.0876
                                            0.3196 -0.2135
    31. (0.00025) RY*( 7) C   1           s( 55.05%)p 0.32( 17.84%)d 0.49( 27.11%)
                                            0.0000 -0.0047 -0.5179  0.5307  0.0260
                                           -0.0099  0.2589 -0.1588  0.1073 -0.0025
                                           -0.1379 -0.1419 -0.1073 -0.0173 -0.1443
                                            0.0516  0.0077  0.3530  0.0750 -0.3596
                                            0.0416 -0.0989
    32. (0.00021) RY*( 8) C   1           s( 11.64%)p 5.37( 62.44%)d 2.23( 25.92%)
                                           -0.0000 -0.0021  0.2468 -0.2196  0.0849
                                            0.0163 -0.1282 -0.1256  0.1189  0.0018
                                            0.0864 -0.4689  0.4674 -0.0046  0.0345
                                            0.1940  0.3052  0.2675 -0.0796 -0.3699
                                           -0.1433 -0.1547
    33. (0.00013) RY*( 9) C   1           s(  4.87%)p13.01( 63.32%)d 6.53( 31.81%)
                                           -0.0000  0.0030  0.1754  0.1150 -0.0685
                                            0.0177 -0.1691 -0.3689  0.0322 -0.0114
                                            0.0189 -0.4012 -0.5015  0.0040  0.0411
                                           -0.1574 -0.1664  0.0248 -0.1681  0.1779
                                           -0.4988 -0.0941
    34. (0.00003) RY*(10) C   1           s(  6.16%)p12.68( 78.08%)d 2.56( 15.76%)
    35. (0.00000) RY*(11) C   1           s(  4.52%)p13.98( 63.20%)d 7.14( 32.28%)
    36. (0.00001) RY*(12) C   1           s(  3.57%)p20.78( 74.14%)d 6.24( 22.29%)
    37. (0.00001) RY*(13) C   1           s(  0.93%)p95.39( 88.47%)d11.43( 10.60%)
    38. (0.00001) RY*(14) C   1           s( 53.26%)p 0.61( 32.28%)d 0.27( 14.46%)
    39. (0.00001) RY*(15) C   1           s(  0.32%)p99.99( 53.39%)d99.99( 46.29%)
    40. (0.00000) RY*(16) C   1           s( 97.88%)p 0.02(  1.73%)d 0.00(  0.39%)
    41. (0.00001) RY*(17) C   1           s( 14.73%)p 1.42( 20.91%)d 4.37( 64.36%)
    42. (0.00357) RY*( 1) C   2           s(  0.97%)p79.57( 77.16%)d22.56( 21.87%)
                                           -0.0000  0.0221  0.0927 -0.0171 -0.0179
                                            0.0331  0.4654  0.1140 -0.0403  0.0450
                                            0.6674 -0.0167 -0.1275 -0.0144 -0.2702
                                           -0.0409 -0.0186  0.2387  0.1788 -0.0819
                                           -0.3490 -0.0361
    43. (0.00293) RY*( 2) C   2           s( 17.46%)p 3.14( 54.75%)d 1.59( 27.79%)
                                           -0.0000 -0.0109  0.4104  0.0775  0.0076
                                           -0.0134  0.5449  0.1115 -0.0130  0.0074
                                           -0.3338  0.0388  0.0426 -0.0331  0.3360
                                            0.0016  0.0947 -0.0368 -0.2787 -0.1362
                                           -0.2247  0.3604
    44. (0.00251) RY*( 3) C   2           s( 13.98%)p 2.95( 41.30%)d 3.20( 44.72%)
                                           -0.0000  0.0167  0.3504  0.1294 -0.0026
                                            0.0387 -0.2223 -0.0466 -0.1458 -0.0016
                                            0.3106 -0.0958  0.0421 -0.0173 -0.3827
                                            0.2803  0.0763 -0.4531 -0.3460 -0.1418
                                            0.1572  0.2782
    45. (0.00093) RY*( 4) C   2           s(  2.05%)p10.87( 22.30%)d36.87( 75.65%)
                                           -0.0000  0.0033  0.1379  0.0348  0.0168
                                            0.0326  0.2212  0.1501 -0.0217  0.0176
                                            0.1379  0.2250  0.0402 -0.0185  0.0926
                                           -0.2599 -0.0439 -0.4677  0.3473  0.5620
                                            0.3023  0.0995
    46. (0.00065) RY*( 5) C   2           s(  4.27%)p18.35( 78.30%)d 4.09( 17.43%)
                                            0.0000 -0.0032  0.1387  0.1523 -0.0148
                                           -0.0019  0.3744 -0.1843  0.0168 -0.0078
                                           -0.4254  0.0082  0.1005  0.0073 -0.6436
                                           -0.0073 -0.0556  0.1219  0.1411 -0.0639
                                            0.3086 -0.2006
    47. (0.00043) RY*( 6) C   2           s(  8.27%)p 8.58( 70.96%)d 2.51( 20.77%)
                                            0.0000  0.0009  0.2232 -0.1793  0.0274
                                           -0.0107  0.1819 -0.6867  0.1033  0.0022
                                            0.2673 -0.1334 -0.0092  0.0004  0.3214
                                            0.0045 -0.0392  0.1095 -0.2009  0.0876
                                            0.3196 -0.2135
    48. (0.00025) RY*( 7) C   2           s( 55.05%)p 0.32( 17.84%)d 0.49( 27.11%)
                                            0.0000 -0.0047 -0.5179  0.5307  0.0260
                                           -0.0098  0.2588 -0.1588  0.1073  0.0025
                                            0.1379  0.1419  0.1073  0.0173  0.1443
                                           -0.0516 -0.0077 -0.3530 -0.0750 -0.3596
                                            0.0416 -0.0989
    49. (0.00021) RY*( 8) C   2           s( 11.64%)p 5.37( 62.44%)d 2.23( 25.92%)
                                           -0.0000 -0.0021  0.2469 -0.2196  0.0849
                                            0.0163 -0.1282 -0.1256  0.1189 -0.0018
                                           -0.0864  0.4689 -0.4674  0.0046 -0.0345
                                           -0.1940 -0.3052 -0.2675  0.0796 -0.3699
                                           -0.1433 -0.1547
    50. (0.00013) RY*( 9) C   2           s(  4.87%)p13.01( 63.32%)d 6.53( 31.81%)
                                           -0.0000  0.0030  0.1754  0.1150 -0.0685
                                            0.0177 -0.1691 -0.3690  0.0322  0.0114
                                           -0.0189  0.4012  0.5015 -0.0040 -0.0411
                                            0.1574  0.1664 -0.0248  0.1681  0.1779
                                           -0.4988 -0.0941
    51. (0.00003) RY*(10) C   2           s(  6.16%)p12.68( 78.08%)d 2.56( 15.76%)
    52. (0.00000) RY*(11) C   2           s(  4.52%)p13.98( 63.20%)d 7.14( 32.28%)
    53. (0.00001) RY*(12) C   2           s(  3.57%)p20.77( 74.14%)d 6.24( 22.29%)
    54. (0.00001) RY*(13) C   2           s(  0.93%)p95.40( 88.48%)d11.43( 10.60%)
    55. (0.00001) RY*(14) C   2           s( 53.26%)p 0.61( 32.28%)d 0.27( 14.46%)
    56. (0.00001) RY*(15) C   2           s(  0.32%)p99.99( 53.39%)d99.99( 46.29%)
    57. (0.00000) RY*(16) C   2           s( 97.88%)p 0.02(  1.73%)d 0.00(  0.39%)
    58. (0.00001) RY*(17) C   2           s( 14.73%)p 1.42( 20.91%)d 4.37( 64.36%)
    59. (0.00654) RY*( 1) O   3           s( 12.22%)p 7.12( 86.92%)d 0.07(  0.86%)
                                           -0.0000  0.0044  0.3424  0.0701  0.0007
                                            0.0000  0.0000 -0.0000 -0.0000  0.0085
                                           -0.7296 -0.0905 -0.0164  0.0212 -0.5295
                                            0.2175 -0.0170 -0.0000 -0.0000 -0.0168
                                            0.0501  0.0764
    60. (0.00205) RY*( 2) O   3           s( 22.74%)p 3.02( 68.64%)d 0.38(  8.62%)
                                           -0.0000  0.0114  0.4746  0.0454 -0.0003
                                           -0.0000  0.0000 -0.0000 -0.0000 -0.0197
                                            0.6054 -0.3413  0.0045  0.0186 -0.3495
                                            0.2831 -0.0167  0.0000 -0.0000 -0.0526
                                           -0.2572  0.1316
    61. (0.00135) RY*( 3) O   3           s(  0.00%)p 1.00( 93.50%)d 0.07(  6.50%)
                                            0.0000  0.0000  0.0000  0.0000 -0.0000
                                            0.0339  0.4898  0.8323 -0.0345 -0.0000
                                           -0.0000 -0.0000 -0.0000  0.0000  0.0000
                                            0.0000  0.0000  0.2089 -0.1463  0.0000
                                            0.0000 -0.0000
    62. (0.00059) RY*( 4) O   3           s( 20.47%)p 3.85( 78.90%)d 0.03(  0.62%)
                                            0.0000  0.0098  0.4328  0.1315  0.0085
                                            0.0000  0.0000 -0.0000  0.0000 -0.0048
                                           -0.2228 -0.5691 -0.0230  0.0149  0.6117
                                           -0.2011  0.0010 -0.0000 -0.0000  0.0695
                                           -0.0267 -0.0263
    63. (0.00037) RY*( 5) O   3           s(  0.00%)p 1.00( 94.30%)d 0.06(  5.70%)
                                            0.0000 -0.0000  0.0000 -0.0000  0.0000
                                            0.0357  0.8229 -0.5038 -0.1037 -0.0000
                                            0.0000  0.0000 -0.0000  0.0000  0.0000
                                           -0.0000  0.0000  0.1715  0.1661 -0.0000
                                            0.0000  0.0000
    64. (0.00028) RY*( 6) O   3           s( 53.57%)p 0.83( 44.55%)d 0.04(  1.89%)
                                           -0.0000 -0.0046 -0.0911  0.7262 -0.0008
                                            0.0000  0.0000 -0.0000  0.0000  0.0018
                                            0.1069 -0.0872 -0.1613 -0.0026 -0.3164
                                           -0.5428  0.0757 -0.0000  0.0000 -0.0041
                                            0.1119 -0.0795
    65. (0.00022) RY*( 7) O   3           s( 41.94%)p 1.27( 53.20%)d 0.12(  4.86%)
                                           -0.0000 -0.0039  0.6190 -0.1895  0.0181
                                           -0.0000 -0.0000  0.0000  0.0000 -0.0107
                                            0.0485  0.5885 -0.1014  0.0215  0.0052
                                           -0.4075  0.0794 -0.0000 -0.0000  0.1094
                                           -0.1179 -0.1508
    66. (0.00009) RY*( 8) O   3           s(  0.00%)p 1.00(  5.57%)d16.95( 94.43%)
    67. (0.00003) RY*( 9) O   3           s( 42.17%)p 1.30( 55.02%)d 0.07(  2.81%)
    68. (0.00000) RY*(10) O   3           s( 99.78%)p 0.00(  0.22%)d 0.00(  0.00%)
    69. (0.00001) RY*(11) O   3           s(  0.00%)p 1.00( 99.49%)d 0.01(  0.51%)
    70. (0.00000) RY*(12) O   3           s(  0.32%)p99.99( 99.64%)d 0.14(  0.05%)
    71. (0.00001) RY*(13) O   3           s(  0.00%)p 1.00(  7.24%)d12.82( 92.76%)
    72. (0.00000) RY*(14) O   3           s(  0.16%)p99.99( 99.78%)d 0.40(  0.06%)
    73. (0.00000) RY*(15) O   3           s(  0.97%)p 2.18(  2.11%)d99.99( 96.92%)
    74. (0.00001) RY*(16) O   3           s(  5.21%)p 1.13(  5.91%)d17.04( 88.87%)
    75. (0.00000) RY*(17) O   3           s(  0.34%)p15.94(  5.35%)d99.99( 94.31%)
    76. (0.00357) RY*( 1) C   4           s(  0.97%)p79.59( 77.16%)d22.56( 21.87%)
                                            0.0000  0.0221  0.0927 -0.0171 -0.0179
                                           -0.0331 -0.4654 -0.1140  0.0403  0.0450
                                            0.6674 -0.0167 -0.1275 -0.0144 -0.2702
                                           -0.0409 -0.0186 -0.2387 -0.1788 -0.0819
                                           -0.3490 -0.0361
    77. (0.00293) RY*( 2) C   4           s( 17.46%)p 3.14( 54.76%)d 1.59( 27.79%)
                                            0.0000 -0.0109  0.4103  0.0775  0.0076
                                            0.0134 -0.5449 -0.1116  0.0130  0.0074
                                           -0.3338  0.0388  0.0426 -0.0331  0.3360
                                            0.0015  0.0947  0.0368  0.2787 -0.1362
                                           -0.2247  0.3603
    78. (0.00251) RY*( 3) C   4           s( 13.98%)p 2.95( 41.29%)d 3.20( 44.73%)
                                           -0.0000  0.0167  0.3504  0.1294 -0.0026
                                           -0.0387  0.2223  0.0466  0.1458 -0.0016
                                            0.3106 -0.0958  0.0421 -0.0173 -0.3827
                                            0.2803  0.0763  0.4531  0.3460 -0.1418
                                            0.1572  0.2782
    79. (0.00093) RY*( 4) C   4           s(  2.05%)p10.87( 22.30%)d36.88( 75.65%)
                                            0.0000  0.0033  0.1379  0.0348  0.0168
                                           -0.0326 -0.2212 -0.1501  0.0217  0.0176
                                            0.1379  0.2250  0.0402 -0.0185  0.0926
                                           -0.2599 -0.0439  0.4677 -0.3473  0.5620
                                            0.3023  0.0996
    80. (0.00065) RY*( 5) C   4           s(  4.27%)p18.35( 78.30%)d 4.09( 17.43%)
                                           -0.0000 -0.0032  0.1387  0.1523 -0.0148
                                            0.0019 -0.3744  0.1843 -0.0168 -0.0078
                                           -0.4254  0.0082  0.1005  0.0073 -0.6436
                                           -0.0073 -0.0556 -0.1219 -0.1411 -0.0639
                                            0.3086 -0.2006
    81. (0.00043) RY*( 6) C   4           s(  8.27%)p 8.58( 70.96%)d 2.51( 20.77%)
                                            0.0000  0.0009  0.2232 -0.1793  0.0274
                                            0.0107 -0.1819  0.6867 -0.1033  0.0022
                                            0.2673 -0.1334 -0.0092  0.0004  0.3214
                                            0.0045 -0.0392 -0.1095  0.2009  0.0876
                                            0.3196 -0.2135
    82. (0.00025) RY*( 7) C   4           s( 55.05%)p 0.32( 17.84%)d 0.49( 27.11%)
                                            0.0000 -0.0047 -0.5179  0.5307  0.0260
                                            0.0098 -0.2589  0.1588 -0.1073  0.0025
                                            0.1379  0.1419  0.1073  0.0173  0.1443
                                           -0.0516 -0.0077  0.3530  0.0750 -0.3597
                                            0.0416 -0.0989
    83. (0.00021) RY*( 8) C   4           s( 11.64%)p 5.37( 62.44%)d 2.23( 25.92%)
                                           -0.0000 -0.0021  0.2469 -0.2196  0.0849
                                           -0.0163  0.1282  0.1256 -0.1189 -0.0018
                                           -0.0864  0.4689 -0.4674  0.0046 -0.0345
                                           -0.1940 -0.3052  0.2675 -0.0796 -0.3699
                                           -0.1433 -0.1547
    84. (0.00013) RY*( 9) C   4           s(  4.87%)p13.01( 63.32%)d 6.53( 31.81%)
                                            0.0000  0.0030  0.1754  0.1150 -0.0685
                                           -0.0177  0.1691  0.3690 -0.0322  0.0114
                                           -0.0189  0.4012  0.5015 -0.0040 -0.0411
                                            0.1574  0.1664  0.0248 -0.1681  0.1779
                                           -0.4988 -0.0941
    85. (0.00003) RY*(10) C   4           s(  6.15%)p12.69( 78.08%)d 2.56( 15.76%)
    86. (0.00000) RY*(11) C   4           s(  4.52%)p13.98( 63.20%)d 7.14( 32.28%)
    87. (0.00001) RY*(12) C   4           s(  3.57%)p20.78( 74.15%)d 6.24( 22.28%)
    88. (0.00001) RY*(13) C   4           s(  0.93%)p95.39( 88.47%)d11.43( 10.60%)
    89. (0.00001) RY*(14) C   4           s( 53.27%)p 0.61( 32.27%)d 0.27( 14.46%)
    90. (0.00001) RY*(15) C   4           s(  0.32%)p99.99( 53.39%)d99.99( 46.29%)
    91. (0.00000) RY*(16) C   4           s( 97.88%)p 0.02(  1.73%)d 0.00(  0.39%)
    92. (0.00001) RY*(17) C   4           s( 14.73%)p 1.42( 20.91%)d 4.37( 64.36%)
    93. (0.00357) RY*( 1) C   5           s(  0.97%)p79.60( 77.16%)d22.57( 21.87%)
                                            0.0000  0.0221  0.0927 -0.0171 -0.0179
                                           -0.0331 -0.4654 -0.1140  0.0403 -0.0450
                                           -0.6674  0.0167  0.1275  0.0144  0.2702
                                            0.0409  0.0186  0.2387  0.1788 -0.0819
                                           -0.3490 -0.0361
    94. (0.00293) RY*( 2) C   5           s( 17.46%)p 3.14( 54.75%)d 1.59( 27.79%)
                                            0.0000 -0.0109  0.4103  0.0775  0.0076
                                            0.0134 -0.5450 -0.1116  0.0130 -0.0074
                                            0.3338 -0.0388 -0.0426  0.0331 -0.3360
                                           -0.0015 -0.0947 -0.0368 -0.2787 -0.1362
                                           -0.2247  0.3603
    95. (0.00251) RY*( 3) C   5           s( 13.98%)p 2.95( 41.29%)d 3.20( 44.73%)
                                           -0.0000  0.0167  0.3504  0.1294 -0.0026
                                           -0.0387  0.2223  0.0466  0.1458  0.0016
                                           -0.3106  0.0958 -0.0421  0.0173  0.3827
                                           -0.2803 -0.0763 -0.4531 -0.3460 -0.1418
                                            0.1572  0.2782
    96. (0.00093) RY*( 4) C   5           s(  2.05%)p10.87( 22.30%)d36.88( 75.65%)
                                            0.0000  0.0033  0.1379  0.0348  0.0168
                                           -0.0326 -0.2212 -0.1501  0.0217 -0.0176
                                           -0.1379 -0.2250 -0.0402  0.0185 -0.0926
                                            0.2599  0.0439 -0.4677  0.3473  0.5620
                                            0.3023  0.0996
    97. (0.00065) RY*( 5) C   5           s(  4.27%)p18.35( 78.30%)d 4.09( 17.43%)
                                           -0.0000 -0.0032  0.1387  0.1523 -0.0148
                                            0.0019 -0.3744  0.1843 -0.0168  0.0078
                                            0.4254 -0.0082 -0.1005 -0.0073  0.6436
                                            0.0073  0.0556  0.1219  0.1411 -0.0639
                                            0.3086 -0.2006
    98. (0.00043) RY*( 6) C   5           s(  8.27%)p 8.58( 70.96%)d 2.51( 20.77%)
                                            0.0000  0.0009  0.2232 -0.1794  0.0274
                                            0.0107 -0.1819  0.6867 -0.1033 -0.0022
                                           -0.2673  0.1334  0.0092 -0.0004 -0.3214
                                           -0.0045  0.0392  0.1095 -0.2009  0.0876
                                            0.3196 -0.2135
    99. (0.00025) RY*( 7) C   5           s( 55.05%)p 0.32( 17.84%)d 0.49( 27.11%)
                                            0.0000 -0.0047 -0.5179  0.5307  0.0260
                                            0.0098 -0.2589  0.1589 -0.1073 -0.0025
                                           -0.1379 -0.1419 -0.1073 -0.0173 -0.1443
                                            0.0516  0.0077 -0.3530 -0.0750 -0.3597
                                            0.0416 -0.0989
   100. (0.00021) RY*( 8) C   5           s( 11.64%)p 5.37( 62.44%)d 2.23( 25.92%)
                                           -0.0000 -0.0021  0.2469 -0.2196  0.0849
                                           -0.0163  0.1282  0.1256 -0.1188  0.0018
                                            0.0864 -0.4689  0.4674 -0.0046  0.0345
                                            0.1940  0.3052 -0.2675  0.0796 -0.3699
                                           -0.1433 -0.1547
   101. (0.00013) RY*( 9) C   5           s(  4.87%)p13.01( 63.32%)d 6.53( 31.81%)
                                            0.0000  0.0030  0.1754  0.1150 -0.0685
                                           -0.0177  0.1691  0.3690 -0.0322 -0.0114
                                            0.0189 -0.4012 -0.5015  0.0040  0.0411
                                           -0.1574 -0.1664 -0.0248  0.1681  0.1779
                                           -0.4988 -0.0941
   102. (0.00003) RY*(10) C   5           s(  6.15%)p12.69( 78.08%)d 2.56( 15.76%)
   103. (0.00000) RY*(11) C   5           s(  4.52%)p13.98( 63.20%)d 7.14( 32.28%)
   104. (0.00001) RY*(12) C   5           s(  3.57%)p20.78( 74.15%)d 6.24( 22.28%)
   105. (0.00001) RY*(13) C   5           s(  0.93%)p95.37( 88.47%)d11.42( 10.60%)
   106. (0.00001) RY*(14) C   5           s( 53.27%)p 0.61( 32.27%)d 0.27( 14.46%)
   107. (0.00001) RY*(15) C   5           s(  0.32%)p99.99( 53.39%)d99.99( 46.30%)
   108. (0.00000) RY*(16) C   5           s( 97.88%)p 0.02(  1.73%)d 0.00(  0.39%)
   109. (0.00001) RY*(17) C   5           s( 14.73%)p 1.42( 20.91%)d 4.37( 64.36%)
   110. (0.00654) RY*( 1) O   6           s( 12.22%)p 7.12( 86.92%)d 0.07(  0.86%)
                                           -0.0000  0.0044  0.3424  0.0701  0.0007
                                            0.0000  0.0000 -0.0000 -0.0000 -0.0085
                                            0.7296  0.0905  0.0164 -0.0212  0.5295
                                           -0.2175  0.0170 -0.0000  0.0000 -0.0168
                                            0.0501  0.0764
   111. (0.00205) RY*( 2) O   6           s( 22.74%)p 3.02( 68.64%)d 0.38(  8.62%)
                                           -0.0000  0.0114  0.4746  0.0454 -0.0003
                                            0.0000  0.0000  0.0000  0.0000  0.0197
                                           -0.6054  0.3413 -0.0045 -0.0186  0.3495
                                           -0.2831  0.0167 -0.0000  0.0000 -0.0526
                                           -0.2572  0.1316
   112. (0.00135) RY*( 3) O   6           s(  0.00%)p 1.00( 93.50%)d 0.07(  6.50%)
                                            0.0000 -0.0000 -0.0000 -0.0000  0.0000
                                            0.0339  0.4898  0.8323 -0.0345 -0.0000
                                            0.0000 -0.0000  0.0000  0.0000 -0.0000
                                            0.0000 -0.0000 -0.2089  0.1463  0.0000
                                            0.0000 -0.0000
   113. (0.00059) RY*( 4) O   6           s( 20.47%)p 3.85( 78.90%)d 0.03(  0.62%)
                                           -0.0000  0.0098  0.4328  0.1315  0.0085
                                            0.0000  0.0000 -0.0000  0.0000  0.0048
                                            0.2228  0.5691  0.0230 -0.0149 -0.6117
                                            0.2011 -0.0010  0.0000  0.0000  0.0695
                                           -0.0267 -0.0263
   114. (0.00037) RY*( 5) O   6           s(  0.00%)p 1.00( 94.30%)d 0.06(  5.70%)
                                            0.0000 -0.0000  0.0000 -0.0000  0.0000
                                            0.0357  0.8229 -0.5038 -0.1037  0.0000
                                           -0.0000 -0.0000  0.0000 -0.0000 -0.0000
                                           -0.0000 -0.0000 -0.1715 -0.1661 -0.0000
                                           -0.0000  0.0000
   115. (0.00028) RY*( 6) O   6           s( 53.56%)p 0.83( 44.55%)d 0.04(  1.89%)
                                            0.0000 -0.0046 -0.0911  0.7262 -0.0008
                                            0.0000  0.0000 -0.0000 -0.0000 -0.0018
                                           -0.1069  0.0872  0.1613  0.0026  0.3164
                                            0.5428 -0.0757 -0.0000 -0.0000 -0.0041
                                            0.1119 -0.0795
   116. (0.00022) RY*( 7) O   6           s( 41.95%)p 1.27( 53.19%)d 0.12(  4.86%)
                                           -0.0000 -0.0039  0.6190 -0.1895  0.0181
                                           -0.0000 -0.0000  0.0000  0.0000  0.0107
                                           -0.0485 -0.5885  0.1014 -0.0215 -0.0052
                                            0.4074 -0.0794  0.0000  0.0000  0.1094
                                           -0.1179 -0.1508
   117. (0.00009) RY*( 8) O   6           s(  0.00%)p 1.00(  5.57%)d16.95( 94.43%)
   118. (0.00003) RY*( 9) O   6           s( 42.17%)p 1.30( 55.02%)d 0.07(  2.81%)
   119. (0.00000) RY*(10) O   6           s( 99.78%)p 0.00(  0.22%)d 0.00(  0.00%)
   120. (0.00001) RY*(11) O   6           s(  0.00%)p 1.00( 99.49%)d 0.01(  0.51%)
   121. (0.00000) RY*(12) O   6           s(  0.32%)p99.99( 99.64%)d 0.14(  0.05%)
   122. (0.00001) RY*(13) O   6           s(  0.00%)p 1.00(  7.24%)d12.82( 92.76%)
   123. (0.00000) RY*(14) O   6           s(  0.16%)p99.99( 99.78%)d 0.40(  0.06%)
   124. (0.00000) RY*(15) O   6           s(  0.97%)p 2.18(  2.11%)d99.99( 96.92%)
   125. (0.00001) RY*(16) O   6           s(  5.21%)p 1.13(  5.91%)d17.04( 88.87%)
   126. (0.00000) RY*(17) O   6           s(  0.34%)p15.94(  5.35%)d99.99( 94.31%)
   127. (0.00180) RY*( 1) H   7           s( 99.35%)p 0.01(  0.65%)
                                           -0.0037  0.9967 -0.0013 -0.0045 -0.0036
                                           -0.0510 -0.0621
   128. (0.00029) RY*( 2) H   7           s( 43.07%)p 1.32( 56.93%)
                                           -0.0046  0.0423  0.6482  0.0934  0.2458
                                            0.7107  0.0621
   129. (0.00024) RY*( 3) H   7           s( 61.53%)p 0.63( 38.47%)
                                           -0.0069  0.0360 -0.2375  0.7467 -0.4459
                                            0.2393  0.3587
   130. (0.00016) RY*( 4) H   7           s( 57.23%)p 0.75( 42.77%)
                                            0.0034 -0.0297  0.7178  0.2370 -0.3121
                                           -0.5743 -0.0198
   131. (0.00006) RY*( 5) H   7           s(  5.59%)p16.89( 94.41%)
   132. (0.00003) RY*( 6) H   7           s( 33.27%)p 2.01( 66.73%)
   133. (0.00109) RY*( 1) H   8           s( 99.17%)p 0.01(  0.83%)
                                           -0.0013  0.9958  0.0061 -0.0000 -0.0774
                                            0.0462  0.0130
   134. (0.00028) RY*( 2) H   8           s( 32.90%)p 2.04( 67.10%)
                                           -0.0047 -0.0448  0.5718 -0.0038 -0.0394
                                            0.7079  0.4103
   135. (0.00010) RY*( 3) H   8           s( 99.84%)p 0.00(  0.16%)
                                            0.0006 -0.0024  0.0245  0.9989 -0.0359
                                           -0.0072 -0.0162
   136. (0.00011) RY*( 4) H   8           s(  0.32%)p99.99( 99.68%)
                                            0.0161 -0.0058  0.0543 -0.0009 -0.2489
                                           -0.5276  0.8102
   137. (0.00006) RY*( 5) H   8           s( 66.97%)p 0.49( 33.03%)
   138. (0.00006) RY*( 6) H   8           s(  0.85%)p99.99( 99.15%)
   139. (0.00180) RY*( 1) H   9           s( 99.35%)p 0.01(  0.65%)
                                           -0.0037  0.9967 -0.0013 -0.0045 -0.0036
                                            0.0510  0.0621
   140. (0.00029) RY*( 2) H   9           s( 43.07%)p 1.32( 56.93%)
                                           -0.0046  0.0423  0.6482  0.0934  0.2458
                                           -0.7107 -0.0621
   141. (0.00024) RY*( 3) H   9           s( 61.53%)p 0.63( 38.47%)
                                           -0.0069  0.0360 -0.2375  0.7467 -0.4459
                                           -0.2393 -0.3587
   142. (0.00016) RY*( 4) H   9           s( 57.23%)p 0.75( 42.77%)
                                            0.0034 -0.0297  0.7178  0.2370 -0.3121
                                            0.5743  0.0198
   143. (0.00006) RY*( 5) H   9           s(  5.59%)p16.89( 94.41%)
   144. (0.00003) RY*( 6) H   9           s( 33.27%)p 2.01( 66.73%)
   145. (0.00109) RY*( 1) H  10           s( 99.17%)p 0.01(  0.83%)
                                           -0.0013  0.9958  0.0061 -0.0000 -0.0774
                                           -0.0462 -0.0130
   146. (0.00028) RY*( 2) H  10           s( 32.89%)p 2.04( 67.11%)
                                           -0.0047 -0.0448  0.5718 -0.0038 -0.0394
                                           -0.7079 -0.4103
   147. (0.00010) RY*( 3) H  10           s( 99.84%)p 0.00(  0.16%)
                                            0.0006 -0.0024  0.0245  0.9989 -0.0359
                                            0.0072  0.0162
   148. (0.00011) RY*( 4) H  10           s(  0.32%)p99.99( 99.68%)
                                            0.0161 -0.0058  0.0543 -0.0009 -0.2489
                                            0.5276 -0.8102
   149. (0.00006) RY*( 5) H  10           s( 66.97%)p 0.49( 33.03%)
   150. (0.00006) RY*( 6) H  10           s(  0.85%)p99.99( 99.15%)
   151. (0.00180) RY*( 1) H  11           s( 99.35%)p 0.01(  0.65%)
                                           -0.0037  0.9967 -0.0013 -0.0045  0.0036
                                            0.0510  0.0621
   152. (0.00029) RY*( 2) H  11           s( 43.07%)p 1.32( 56.93%)
                                           -0.0046  0.0423  0.6482  0.0934 -0.2458
                                           -0.7107 -0.0621
   153. (0.00024) RY*( 3) H  11           s( 61.53%)p 0.63( 38.47%)
                                           -0.0069  0.0360 -0.2375  0.7467  0.4459
                                           -0.2392 -0.3587
   154. (0.00016) RY*( 4) H  11           s( 57.23%)p 0.75( 42.77%)
                                            0.0034 -0.0297  0.7178  0.2370  0.3121
                                            0.5744  0.0198
   155. (0.00006) RY*( 5) H  11           s(  5.59%)p16.89( 94.41%)
   156. (0.00003) RY*( 6) H  11           s( 33.27%)p 2.01( 66.73%)
   157. (0.00109) RY*( 1) H  12           s( 99.17%)p 0.01(  0.83%)
                                           -0.0013  0.9958  0.0061 -0.0000  0.0774
                                           -0.0462 -0.0130
   158. (0.00028) RY*( 2) H  12           s( 32.90%)p 2.04( 67.10%)
                                           -0.0047 -0.0448  0.5718 -0.0038  0.0394
                                           -0.7079 -0.4103
   159. (0.00010) RY*( 3) H  12           s( 99.84%)p 0.00(  0.16%)
                                            0.0006 -0.0024  0.0245  0.9989  0.0359
                                            0.0072  0.0162
   160. (0.00011) RY*( 4) H  12           s(  0.32%)p99.99( 99.68%)
                                            0.0161 -0.0058  0.0543 -0.0009  0.2489
                                            0.5276 -0.8102
   161. (0.00006) RY*( 5) H  12           s( 66.97%)p 0.49( 33.03%)
   162. (0.00006) RY*( 6) H  12           s(  0.85%)p99.99( 99.15%)
   163. (0.00109) RY*( 1) H  13           s( 99.17%)p 0.01(  0.83%)
                                           -0.0013  0.9958  0.0061 -0.0000  0.0774
                                            0.0462  0.0130
   164. (0.00028) RY*( 2) H  13           s( 32.90%)p 2.04( 67.10%)
                                           -0.0047 -0.0448  0.5718 -0.0038  0.0394
                                            0.7079  0.4103
   165. (0.00010) RY*( 3) H  13           s( 99.84%)p 0.00(  0.16%)
                                            0.0006 -0.0024  0.0245  0.9989  0.0359
                                           -0.0072 -0.0162
   166. (0.00011) RY*( 4) H  13           s(  0.32%)p99.99( 99.68%)
                                            0.0161 -0.0058  0.0543 -0.0009  0.2489
                                           -0.5276  0.8102
   167. (0.00006) RY*( 5) H  13           s( 66.97%)p 0.49( 33.03%)
   168. (0.00006) RY*( 6) H  13           s(  0.85%)p99.99( 99.15%)
   169. (0.00180) RY*( 1) H  14           s( 99.35%)p 0.01(  0.65%)
                                           -0.0037  0.9967 -0.0013 -0.0045  0.0036
                                           -0.0510 -0.0621
   170. (0.00029) RY*( 2) H  14           s( 43.07%)p 1.32( 56.93%)
                                           -0.0046  0.0423  0.6482  0.0934 -0.2458
                                            0.7107  0.0621
   171. (0.00024) RY*( 3) H  14           s( 61.53%)p 0.63( 38.47%)
                                           -0.0069  0.0360 -0.2375  0.7467  0.4459
                                            0.2393  0.3587
   172. (0.00016) RY*( 4) H  14           s( 57.23%)p 0.75( 42.77%)
                                            0.0034 -0.0297  0.7178  0.2370  0.3121
                                           -0.5744 -0.0198
   173. (0.00006) RY*( 5) H  14           s(  5.59%)p16.89( 94.41%)
   174. (0.00003) RY*( 6) H  14           s( 33.27%)p 2.01( 66.73%)
   175. (0.03046) BD*( 1) C   1 - C   2  
                ( 50.00%)   0.7071* C   1 s( 29.85%)p 2.35( 70.10%)d 0.00(  0.05%)
                                           -0.0002 -0.5462  0.0107  0.0057  0.0001
                                           -0.0119 -0.0238 -0.0007 -0.0011 -0.8074
                                            0.0089  0.0073 -0.0013 -0.2196  0.0020
                                            0.0003 -0.0027 -0.0028  0.0012 -0.0102
                                            0.0174  0.0090
                ( 50.00%)  -0.7071* C   2 s( 29.85%)p 2.35( 70.10%)d 0.00(  0.05%)
                                           -0.0002 -0.5462  0.0107  0.0057  0.0001
                                           -0.0119 -0.0238 -0.0007 -0.0011  0.8074
                                           -0.0089 -0.0073  0.0013  0.2196 -0.0020
                                           -0.0003  0.0027  0.0028 -0.0012 -0.0102
                                            0.0174  0.0090
   176. (0.02090) BD*( 1) C   1 - O   6  
                ( 67.39%)   0.8209* C   1 s( 20.79%)p 3.80( 78.93%)d 0.01(  0.28%)
                                           -0.0000 -0.4546  0.0343 -0.0071  0.0001
                                           -0.7311  0.0134  0.0060  0.0040  0.3994
                                           -0.0530  0.0019 -0.0040 -0.3023  0.0288
                                           -0.0023  0.0034  0.0321 -0.0264  0.0129
                                           -0.0246  0.0188
                ( 32.61%)  -0.5711* O   6 s( 27.10%)p 2.69( 72.83%)d 0.00(  0.07%)
                                            0.0000 -0.5201  0.0215 -0.0014  0.0000
                                            0.7061 -0.0317 -0.0035  0.0007 -0.3754
                                           -0.0063  0.0081  0.0019  0.2962  0.0016
                                           -0.0047 -0.0013  0.0170 -0.0127  0.0136
                                           -0.0013  0.0054
   177. (0.02847) BD*( 1) C   1 - H   7  
                ( 41.13%)   0.6413* C   1 s( 24.71%)p 3.04( 75.22%)d 0.00(  0.08%)
                                           -0.0000  0.4965  0.0231 -0.0016 -0.0002
                                           -0.0068  0.0119  0.0042 -0.0039 -0.1013
                                            0.0091  0.0002 -0.0019 -0.8611 -0.0124
                                           -0.0022 -0.0036  0.0045 -0.0021  0.0037
                                           -0.0014  0.0269
                ( 58.87%)  -0.7673* H   7 s( 99.96%)p 0.00(  0.04%)
                                            0.9998  0.0052  0.0001 -0.0006  0.0020
                                            0.0037  0.0200
   178. (0.01539) BD*( 1) C   1 - H   8  
                ( 40.37%)   0.6354* C   1 s( 24.75%)p 3.04( 75.19%)d 0.00(  0.06%)
                                            0.0002 -0.4974 -0.0051 -0.0040 -0.0004
                                            0.6782  0.0215  0.0030  0.0022  0.4184
                                           -0.0035  0.0033 -0.0025 -0.3410 -0.0110
                                           -0.0034  0.0020 -0.0165  0.0151  0.0069
                                           -0.0083  0.0045
                ( 59.63%)  -0.7722* H   8 s( 99.95%)p 0.00(  0.05%)
                                           -0.9998 -0.0022 -0.0001  0.0000 -0.0168
                                           -0.0117  0.0071
   179. (0.02090) BD*( 1) C   2 - O   3  
                ( 67.39%)   0.8209* C   2 s( 20.79%)p 3.80( 78.93%)d 0.01(  0.28%)
                                           -0.0000 -0.4546  0.0343 -0.0071  0.0001
                                           -0.7311  0.0134  0.0060  0.0040 -0.3994
                                            0.0530 -0.0019  0.0040  0.3023 -0.0288
                                            0.0023 -0.0034 -0.0321  0.0264  0.0129
                                           -0.0246  0.0188
                ( 32.61%)  -0.5711* O   3 s( 27.10%)p 2.69( 72.83%)d 0.00(  0.07%)
                                            0.0000 -0.5201  0.0215 -0.0014  0.0000
                                            0.7061 -0.0317 -0.0035  0.0007  0.3754
                                            0.0063 -0.0081 -0.0019 -0.2962 -0.0016
                                            0.0047  0.0013 -0.0170  0.0127  0.0136
                                           -0.0013  0.0054
   180. (0.02847) BD*( 1) C   2 - H   9  
                ( 41.13%)   0.6413* C   2 s( 24.71%)p 3.04( 75.22%)d 0.00(  0.08%)
                                            0.0000 -0.4965 -0.0231  0.0016  0.0002
                                            0.0068 -0.0119 -0.0042  0.0039 -0.1013
                                            0.0091  0.0002 -0.0019 -0.8611 -0.0124
                                           -0.0022 -0.0036  0.0045 -0.0021 -0.0037
                                            0.0014 -0.0269
                ( 58.87%)  -0.7673* H   9 s( 99.96%)p 0.00(  0.04%)
                                           -0.9998 -0.0052 -0.0001  0.0006 -0.0020
                                            0.0037  0.0200
   181. (0.01539) BD*( 1) C   2 - H  10  
                ( 40.37%)   0.6354* C   2 s( 24.75%)p 3.04( 75.19%)d 0.00(  0.06%)
                                            0.0002 -0.4974 -0.0051 -0.0040 -0.0004
                                            0.6782  0.0215  0.0030  0.0022 -0.4184
                                            0.0035 -0.0033  0.0025  0.3410  0.0110
                                            0.0034 -0.0020  0.0165 -0.0151  0.0069
                                           -0.0083  0.0045
                ( 59.63%)  -0.7722* H  10 s( 99.95%)p 0.00(  0.05%)
                                           -0.9998 -0.0022 -0.0001  0.0000 -0.0168
                                            0.0117 -0.0071
   182. (0.02090) BD*( 1) O   3 - C   4  
                ( 32.61%)   0.5711* O   3 s( 27.10%)p 2.69( 72.83%)d 0.00(  0.07%)
                                            0.0000 -0.5201  0.0215 -0.0014  0.0000
                                           -0.7061  0.0317  0.0035 -0.0007  0.3754
                                            0.0063 -0.0081 -0.0019 -0.2962 -0.0016
                                            0.0047  0.0013  0.0170 -0.0127  0.0136
                                           -0.0013  0.0054
                ( 67.39%)  -0.8209* C   4 s( 20.79%)p 3.80( 78.93%)d 0.01(  0.28%)
                                           -0.0000 -0.4546  0.0343 -0.0071  0.0001
                                            0.7311 -0.0134 -0.0060 -0.0040 -0.3994
                                            0.0530 -0.0019  0.0040  0.3023 -0.0288
                                            0.0023 -0.0034  0.0321 -0.0264  0.0129
                                           -0.0246  0.0188
   183. (0.03045) BD*( 1) C   4 - C   5  
                ( 50.00%)   0.7071* C   4 s( 29.85%)p 2.35( 70.10%)d 0.00(  0.05%)
                                            0.0002  0.5462 -0.0107 -0.0057 -0.0001
                                           -0.0119 -0.0238 -0.0007 -0.0011 -0.8074
                                            0.0089  0.0073 -0.0013 -0.2197  0.0020
                                            0.0003 -0.0027  0.0028 -0.0012  0.0102
                                           -0.0174 -0.0090
                ( 50.00%)  -0.7071* C   5 s( 29.85%)p 2.35( 70.10%)d 0.00(  0.05%)
                                            0.0002  0.5462 -0.0107 -0.0057 -0.0001
                                           -0.0119 -0.0238 -0.0007 -0.0011  0.8074
                                           -0.0089 -0.0073  0.0013  0.2197 -0.0020
                                           -0.0003  0.0027 -0.0028  0.0012  0.0102
                                           -0.0174 -0.0090
   184. (0.02847) BD*( 1) C   4 - H  11  
                ( 41.13%)   0.6413* C   4 s( 24.71%)p 3.04( 75.22%)d 0.00(  0.08%)
                                            0.0000 -0.4965 -0.0231  0.0016  0.0002
                                           -0.0068  0.0119  0.0042 -0.0039 -0.1013
                                            0.0091  0.0002 -0.0019 -0.8611 -0.0124
                                           -0.0022 -0.0036 -0.0045  0.0021 -0.0037
                                            0.0014 -0.0269
                ( 58.87%)  -0.7673* H  11 s( 99.96%)p 0.00(  0.04%)
                                           -0.9998 -0.0052 -0.0001  0.0006  0.0020
                                            0.0037  0.0200
   185. (0.01539) BD*( 1) C   4 - H  12  
                ( 40.37%)   0.6354* C   4 s( 24.75%)p 3.04( 75.19%)d 0.00(  0.06%)
                                            0.0002 -0.4974 -0.0051 -0.0040 -0.0004
                                           -0.6782 -0.0215 -0.0030 -0.0022 -0.4184
                                            0.0035 -0.0033  0.0025  0.3410  0.0110
                                            0.0034 -0.0020 -0.0165  0.0151  0.0069
                                           -0.0083  0.0045
                ( 59.63%)  -0.7722* H  12 s( 99.95%)p 0.00(  0.05%)
                                           -0.9998 -0.0022 -0.0001  0.0000  0.0168
                                            0.0117 -0.0071
   186. (0.02090) BD*( 1) C   5 - O   6  
                ( 67.39%)   0.8209* C   5 s( 20.79%)p 3.80( 78.93%)d 0.01(  0.28%)
                                            0.0000  0.4546 -0.0343  0.0071 -0.0001
                                           -0.7311  0.0134  0.0060  0.0040 -0.3994
                                            0.0530 -0.0019  0.0040  0.3023 -0.0288
                                            0.0023 -0.0034  0.0321 -0.0264 -0.0129
                                            0.0246 -0.0188
                ( 32.61%)  -0.5711* O   6 s( 27.10%)p 2.69( 72.83%)d 0.00(  0.07%)
                                           -0.0000  0.5201 -0.0215  0.0014 -0.0000
                                            0.7061 -0.0317 -0.0035  0.0007  0.3754
                                            0.0063 -0.0081 -0.0019 -0.2962 -0.0016
                                            0.0047  0.0013  0.0170 -0.0127 -0.0136
                                            0.0013 -0.0054
   187. (0.01539) BD*( 1) C   5 - H  13  
                ( 40.37%)   0.6354* C   5 s( 24.75%)p 3.04( 75.19%)d 0.00(  0.06%)
                                            0.0002 -0.4974 -0.0051 -0.0040 -0.0004
                                           -0.6782 -0.0215 -0.0030 -0.0022  0.4184
                                           -0.0035  0.0033 -0.0025 -0.3410 -0.0110
                                           -0.0034  0.0020  0.0165 -0.0151  0.0069
                                           -0.0083  0.0045
                ( 59.63%)  -0.7722* H  13 s( 99.95%)p 0.00(  0.05%)
                                           -0.9998 -0.0022 -0.0001  0.0000  0.0168
                                           -0.0117  0.0071
   188. (0.02847) BD*( 1) C   5 - H  14  
                ( 41.13%)   0.6413* C   5 s( 24.71%)p 3.04( 75.22%)d 0.00(  0.08%)
                                           -0.0000  0.4965  0.0231 -0.0016 -0.0002
                                            0.0068 -0.0119 -0.0042  0.0039 -0.1013
                                            0.0091  0.0002 -0.0019 -0.8611 -0.0124
                                           -0.0022 -0.0036 -0.0045  0.0021  0.0037
                                           -0.0014  0.0269
                ( 58.87%)  -0.7673* H  14 s( 99.96%)p 0.00(  0.04%)
                                            0.9998  0.0052  0.0001 -0.0006 -0.0020
                                            0.0037  0.0200


 NHO Directionality and "Bond Bending" (deviations from line of nuclear centers)

         [Thresholds for printing:  angular deviation  >  1.0 degree]
                                    hybrid p-character > 25.0%
                                    orbital occupancy  >  0.10e

                                Line of Centers        Hybrid 1              Hybrid 2
                                ---------------  -------------------   ------------------
                NBO               Theta   Phi    Theta   Phi    Dev    Theta   Phi    Dev
 ========================================================================================
     1. BD (   1) C   1 - C   2    75.1   90.0    74.5   87.3   2.7    105.5  272.7   2.7
     2. BD (   1) C   1 - O   6    69.6  330.9    70.9  334.1   3.2      --     --    --
     3. BD (   1) C   1 - H   7   173.8  257.8   173.9  273.3   1.7      --     --    --
     5. BD (   1) C   2 - O   3   110.4   29.1   109.1   25.9   3.2      --     --    --
     6. BD (   1) C   2 - H   9     6.2  102.2     6.1   86.7   1.7      --     --    --
     8. BD (   1) O   3 - C   4    69.6  330.9     --     --    --     109.1  154.1   3.2
     9. BD (   1) C   4 - C   5   104.9  270.0   105.5  267.3   2.7     74.5   92.7   2.7
    10. BD (   1) C   4 - H  11     6.2   77.8     6.1   93.3   1.7      --     --    --
    12. BD (   1) C   5 - O   6    69.6  209.1    70.9  205.9   3.2      --     --    --
    14. BD (   1) C   5 - H  14   173.8  282.2   173.9  266.7   1.7      --     --    --
    21. LP (   1) O   3             --     --    130.1   90.0   --       --     --    --
    22. LP (   2) O   3             --     --     40.1   90.0   --       --     --    --
    23. LP (   1) O   6             --     --     49.9  270.0   --       --     --    --
    24. LP (   2) O   6             --     --    139.9  270.0   --       --     --    --


 Second Order Perturbation Theory Analysis of Fock Matrix in NBO Basis

     Threshold for printing:   0.50 kcal/mol
                                                                              E(2)  E(j)-E(i) F(i,j)
         Donor NBO (i)                     Acceptor NBO (j)                 kcal/mol   a.u.    a.u. 
 ===================================================================================================

 within unit  1
   1. BD (   1) C   1 - C   2        / 59. RY*(   1) O   3                    0.84    1.27    0.029
   1. BD (   1) C   1 - C   2        /110. RY*(   1) O   6                    0.84    1.27    0.029
   2. BD (   1) C   1 - O   6        / 94. RY*(   2) C   5                    0.72    2.11    0.035
   2. BD (   1) C   1 - O   6        / 95. RY*(   3) C   5                    0.61    2.10    0.032
   2. BD (   1) C   1 - O   6        /181. BD*(   1) C   2 - H  10            0.87    1.19    0.029
   2. BD (   1) C   1 - O   6        /187. BD*(   1) C   5 - H  13            1.03    1.19    0.031
   3. BD (   1) C   1 - H   7        /179. BD*(   1) C   2 - O   3            0.51    0.80    0.018
   3. BD (   1) C   1 - H   7        /180. BD*(   1) C   2 - H   9            2.50    0.90    0.042
   4. BD (   1) C   1 - H   8        /111. RY*(   2) O   6                    0.62    1.46    0.027
   4. BD (   1) C   1 - H   8        /179. BD*(   1) C   2 - O   3            3.74    0.80    0.049
   4. BD (   1) C   1 - H   8        /186. BD*(   1) C   5 - O   6            2.77    0.80    0.042
   5. BD (   1) C   2 - O   3        / 77. RY*(   2) C   4                    0.72    2.11    0.035
   5. BD (   1) C   2 - O   3        / 78. RY*(   3) C   4                    0.61    2.10    0.032
   5. BD (   1) C   2 - O   3        /178. BD*(   1) C   1 - H   8            0.87    1.19    0.029
   5. BD (   1) C   2 - O   3        /185. BD*(   1) C   4 - H  12            1.03    1.19    0.031
   6. BD (   1) C   2 - H   9        /176. BD*(   1) C   1 - O   6            0.51    0.80    0.018
   6. BD (   1) C   2 - H   9        /177. BD*(   1) C   1 - H   7            2.50    0.90    0.042
   7. BD (   1) C   2 - H  10        / 60. RY*(   2) O   3                    0.62    1.46    0.027
   7. BD (   1) C   2 - H  10        /176. BD*(   1) C   1 - O   6            3.74    0.80    0.049
   7. BD (   1) C   2 - H  10        /182. BD*(   1) O   3 - C   4            2.77    0.80    0.042
   8. BD (   1) O   3 - C   4        / 43. RY*(   2) C   2                    0.72    2.11    0.035
   8. BD (   1) O   3 - C   4        / 44. RY*(   3) C   2                    0.61    2.10    0.032
   8. BD (   1) O   3 - C   4        /181. BD*(   1) C   2 - H  10            1.03    1.19    0.031
   8. BD (   1) O   3 - C   4        /187. BD*(   1) C   5 - H  13            0.87    1.19    0.029
   9. BD (   1) C   4 - C   5        / 59. RY*(   1) O   3                    0.84    1.27    0.029
   9. BD (   1) C   4 - C   5        /110. RY*(   1) O   6                    0.84    1.27    0.029
  10. BD (   1) C   4 - H  11        /186. BD*(   1) C   5 - O   6            0.51    0.80    0.018
  10. BD (   1) C   4 - H  11        /188. BD*(   1) C   5 - H  14            2.50    0.90    0.042
  11. BD (   1) C   4 - H  12        / 60. RY*(   2) O   3                    0.62    1.46    0.027
  11. BD (   1) C   4 - H  12        /179. BD*(   1) C   2 - O   3            2.77    0.80    0.042
  11. BD (   1) C   4 - H  12        /186. BD*(   1) C   5 - O   6            3.74    0.80    0.049
  12. BD (   1) C   5 - O   6        / 26. RY*(   2) C   1                    0.72    2.11    0.035
  12. BD (   1) C   5 - O   6        / 27. RY*(   3) C   1                    0.61    2.10    0.032
  12. BD (   1) C   5 - O   6        /178. BD*(   1) C   1 - H   8            1.03    1.19    0.031
  12. BD (   1) C   5 - O   6        /185. BD*(   1) C   4 - H  12            0.87    1.19    0.029
  13. BD (   1) C   5 - H  13        /111. RY*(   2) O   6                    0.62    1.46    0.027
  13. BD (   1) C   5 - H  13        /176. BD*(   1) C   1 - O   6            2.77    0.80    0.042
  13. BD (   1) C   5 - H  13        /182. BD*(   1) O   3 - C   4            3.74    0.80    0.049
  14. BD (   1) C   5 - H  14        /182. BD*(   1) O   3 - C   4            0.51    0.80    0.018
  14. BD (   1) C   5 - H  14        /184. BD*(   1) C   4 - H  11            2.50    0.90    0.042
  15. CR (   1) C   1                /176. BD*(   1) C   1 - O   6            1.11   10.38    0.096
  15. CR (   1) C   1                /186. BD*(   1) C   5 - O   6            0.84   10.38    0.084
  16. CR (   1) C   2                /179. BD*(   1) C   2 - O   3            1.11   10.38    0.096
  16. CR (   1) C   2                /182. BD*(   1) O   3 - C   4            0.84   10.38    0.084
  17. CR (   1) O   3                / 42. RY*(   1) C   2                    1.12   19.90    0.133
  17. CR (   1) O   3                / 76. RY*(   1) C   4                    1.12   19.90    0.133
  18. CR (   1) C   4                /179. BD*(   1) C   2 - O   3            0.84   10.38    0.084
  18. CR (   1) C   4                /182. BD*(   1) O   3 - C   4            1.11   10.38    0.096
  19. CR (   1) C   5                /176. BD*(   1) C   1 - O   6            0.84   10.38    0.084
  19. CR (   1) C   5                /186. BD*(   1) C   5 - O   6            1.11   10.38    0.096
  20. CR (   1) O   6                / 25. RY*(   1) C   1                    1.12   19.90    0.133
  20. CR (   1) O   6                / 93. RY*(   1) C   5                    1.12   19.90    0.133
  21. LP (   1) O   3                / 42. RY*(   1) C   2                    2.28    1.54    0.053
  21. LP (   1) O   3                / 76. RY*(   1) C   4                    2.28    1.54    0.053
  21. LP (   1) O   3                /175. BD*(   1) C   1 - C   2            0.88    0.94    0.026
  21. LP (   1) O   3                /180. BD*(   1) C   2 - H   9            0.64    0.96    0.022
  21. LP (   1) O   3                /181. BD*(   1) C   2 - H  10            2.15    0.97    0.041
  21. LP (   1) O   3                /183. BD*(   1) C   4 - C   5            0.88    0.94    0.026
  21. LP (   1) O   3                /184. BD*(   1) C   4 - H  11            0.64    0.96    0.022
  21. LP (   1) O   3                /185. BD*(   1) C   4 - H  12            2.15    0.97    0.041
  22. LP (   2) O   3                / 42. RY*(   1) C   2                    0.60    1.26    0.025
  22. LP (   2) O   3                / 44. RY*(   3) C   2                    1.11    1.60    0.038
  22. LP (   2) O   3                / 76. RY*(   1) C   4                    0.60    1.26    0.025
  22. LP (   2) O   3                / 78. RY*(   3) C   4                    1.11    1.60    0.038
  22. LP (   2) O   3                /175. BD*(   1) C   1 - C   2            4.97    0.66    0.052
  22. LP (   2) O   3                /178. BD*(   1) C   1 - H   8            0.59    0.69    0.018
  22. LP (   2) O   3                /180. BD*(   1) C   2 - H   9            5.79    0.68    0.057
  22. LP (   2) O   3                /183. BD*(   1) C   4 - C   5            4.97    0.66    0.052
  22. LP (   2) O   3                /184. BD*(   1) C   4 - H  11            5.79    0.68    0.057
  22. LP (   2) O   3                /187. BD*(   1) C   5 - H  13            0.59    0.69    0.018
  23. LP (   1) O   6                / 25. RY*(   1) C   1                    2.28    1.54    0.053
  23. LP (   1) O   6                / 93. RY*(   1) C   5                    2.28    1.54    0.053
  23. LP (   1) O   6                /175. BD*(   1) C   1 - C   2            0.88    0.94    0.026
  23. LP (   1) O   6                /177. BD*(   1) C   1 - H   7            0.64    0.96    0.022
  23. LP (   1) O   6                /178. BD*(   1) C   1 - H   8            2.15    0.97    0.041
  23. LP (   1) O   6                /183. BD*(   1) C   4 - C   5            0.88    0.94    0.026
  23. LP (   1) O   6                /187. BD*(   1) C   5 - H  13            2.15    0.97    0.041
  23. LP (   1) O   6                /188. BD*(   1) C   5 - H  14            0.64    0.96    0.022
  24. LP (   2) O   6                / 25. RY*(   1) C   1                    0.60    1.26    0.025
  24. LP (   2) O   6                / 27. RY*(   3) C   1                    1.11    1.60    0.038
  24. LP (   2) O   6                / 93. RY*(   1) C   5                    0.60    1.26    0.025
  24. LP (   2) O   6                / 95. RY*(   3) C   5                    1.11    1.60    0.038
  24. LP (   2) O   6                /175. BD*(   1) C   1 - C   2            4.97    0.66    0.052
  24. LP (   2) O   6                /177. BD*(   1) C   1 - H   7            5.79    0.68    0.057
  24. LP (   2) O   6                /181. BD*(   1) C   2 - H  10            0.59    0.69    0.018
  24. LP (   2) O   6                /183. BD*(   1) C   4 - C   5            4.97    0.66    0.052
  24. LP (   2) O   6                /185. BD*(   1) C   4 - H  12            0.59    0.69    0.018
  24. LP (   2) O   6                /188. BD*(   1) C   5 - H  14            5.79    0.68    0.057


 Natural Bond Orbitals (Summary):

                                                            Principal Delocalizations
           NBO                        Occupancy    Energy   (geminal,vicinal,remote)
 ====================================================================================
 Molecular unit  1  (C4H8O2)
     1. BD (   1) C   1 - C   2          1.99309    -0.63420  59(v),110(v)
     2. BD (   1) C   1 - O   6          1.99023    -0.79189  187(v),181(v),94(v),95(v)
     3. BD (   1) C   1 - H   7          1.98545    -0.51758  180(v),179(v)
     4. BD (   1) C   1 - H   8          1.98011    -0.51945  179(v),186(v),111(v)
     5. BD (   1) C   2 - O   3          1.99023    -0.79189  185(v),178(v),77(v),78(v)
     6. BD (   1) C   2 - H   9          1.98545    -0.51758  177(v),176(v)
     7. BD (   1) C   2 - H  10          1.98011    -0.51945  176(v),182(v),60(v)
     8. BD (   1) O   3 - C   4          1.99023    -0.79189  181(v),187(v),43(v),44(v)
     9. BD (   1) C   4 - C   5          1.99309    -0.63421  59(v),110(v)
    10. BD (   1) C   4 - H  11          1.98545    -0.51758  188(v),186(v)
    11. BD (   1) C   4 - H  12          1.98011    -0.51945  186(v),179(v),60(v)
    12. BD (   1) C   5 - O   6          1.99023    -0.79188  178(v),185(v),26(v),27(v)
    13. BD (   1) C   5 - H  13          1.98011    -0.51945  182(v),176(v),111(v)
    14. BD (   1) C   5 - H  14          1.98545    -0.51758  184(v),182(v)
    15. CR (   1) C   1                  1.99919   -10.10025  176(g),186(v)
    16. CR (   1) C   2                  1.99919   -10.10025  179(g),182(v)
    17. CR (   1) O   3                  1.99980   -18.93650  42(v),76(v)
    18. CR (   1) C   4                  1.99919   -10.10025  182(g),179(v)
    19. CR (   1) C   5                  1.99919   -10.10025  186(g),176(v)
    20. CR (   1) O   6                  1.99980   -18.93650  25(v),93(v)
    21. LP (   1) O   3                  1.96734    -0.57718  42(v),76(v),181(v),185(v)
                                                    175(v),183(v),180(v),184(v)
    22. LP (   2) O   3                  1.92639    -0.29631  180(v),184(v),175(v),183(v)
                                                    44(v),78(v),42(v),76(v)
                                                    178(r),187(r)
    23. LP (   1) O   6                  1.96734    -0.57718  25(v),93(v),178(v),187(v)
                                                    175(v),183(v),177(v),188(v)
    24. LP (   2) O   6                  1.92639    -0.29631  177(v),188(v),175(v),183(v)
                                                    27(v),95(v),25(v),93(v)
                                                    181(r),185(r)
    25. RY*(   1) C   1                  0.00357     0.96505   
    26. RY*(   2) C   1                  0.00293     1.31407   
    27. RY*(   3) C   1                  0.00251     1.30689   
    28. RY*(   4) C   1                  0.00093     1.72324   
    29. RY*(   5) C   1                  0.00065     1.01531   
    30. RY*(   6) C   1                  0.00043     1.03068   
    31. RY*(   7) C   1                  0.00025     1.18667   
    32. RY*(   8) C   1                  0.00021     1.69029   
    33. RY*(   9) C   1                  0.00013     2.40743   
    34. RY*(  10) C   1                  0.00003     0.98515   
    35. RY*(  11) C   1                  0.00000     1.53136   
    36. RY*(  12) C   1                  0.00001     2.81107   
    37. RY*(  13) C   1                  0.00001     2.61806   
    38. RY*(  14) C   1                  0.00001     1.28196   
    39. RY*(  15) C   1                  0.00001     1.27385   
    40. RY*(  16) C   1                  0.00000    22.71242   
    41. RY*(  17) C   1                  0.00001     1.54818   
    42. RY*(   1) C   2                  0.00357     0.96505   
    43. RY*(   2) C   2                  0.00293     1.31406   
    44. RY*(   3) C   2                  0.00251     1.30690   
    45. RY*(   4) C   2                  0.00093     1.72324   
    46. RY*(   5) C   2                  0.00065     1.01531   
    47. RY*(   6) C   2                  0.00043     1.03068   
    48. RY*(   7) C   2                  0.00025     1.18668   
    49. RY*(   8) C   2                  0.00021     1.69029   
    50. RY*(   9) C   2                  0.00013     2.40741   
    51. RY*(  10) C   2                  0.00003     0.98510   
    52. RY*(  11) C   2                  0.00000     1.53136   
    53. RY*(  12) C   2                  0.00001     2.81108   
    54. RY*(  13) C   2                  0.00001     2.61808   
    55. RY*(  14) C   2                  0.00001     1.28197   
    56. RY*(  15) C   2                  0.00001     1.27383   
    57. RY*(  16) C   2                  0.00000    22.71245   
    58. RY*(  17) C   2                  0.00001     1.54818   
    59. RY*(   1) O   3                  0.00654     0.63600   
    60. RY*(   2) O   3                  0.00205     0.94465   
    61. RY*(   3) O   3                  0.00135     0.77279   
    62. RY*(   4) O   3                  0.00059     0.79691   
    63. RY*(   5) O   3                  0.00037     1.20383   
    64. RY*(   6) O   3                  0.00028     1.35745   
    65. RY*(   7) O   3                  0.00022     1.08543   
    66. RY*(   8) O   3                  0.00009     2.95479   
    67. RY*(   9) O   3                  0.00003     1.34345   
    68. RY*(  10) O   3                  0.00000    49.24040   
    69. RY*(  11) O   3                  0.00001     5.21050   
    70. RY*(  12) O   3                  0.00000     4.91875   
    71. RY*(  13) O   3                  0.00001     3.29782   
    72. RY*(  14) O   3                  0.00000     4.78716   
    73. RY*(  15) O   3                  0.00000     3.02814   
    74. RY*(  16) O   3                  0.00001     2.88923   
    75. RY*(  17) O   3                  0.00000     2.98475   
    76. RY*(   1) C   4                  0.00357     0.96505   
    77. RY*(   2) C   4                  0.00293     1.31404   
    78. RY*(   3) C   4                  0.00251     1.30693   
    79. RY*(   4) C   4                  0.00093     1.72324   
    80. RY*(   5) C   4                  0.00065     1.01531   
    81. RY*(   6) C   4                  0.00043     1.03068   
    82. RY*(   7) C   4                  0.00025     1.18669   
    83. RY*(   8) C   4                  0.00021     1.69030   
    84. RY*(   9) C   4                  0.00013     2.40741   
    85. RY*(  10) C   4                  0.00003     0.98522   
    86. RY*(  11) C   4                  0.00000     1.53133   
    87. RY*(  12) C   4                  0.00001     2.81105   
    88. RY*(  13) C   4                  0.00001     2.61804   
    89. RY*(  14) C   4                  0.00001     1.28196   
    90. RY*(  15) C   4                  0.00001     1.27386   
    91. RY*(  16) C   4                  0.00000    22.71241   
    92. RY*(  17) C   4                  0.00001     1.54818   
    93. RY*(   1) C   5                  0.00357     0.96506   
    94. RY*(   2) C   5                  0.00293     1.31404   
    95. RY*(   3) C   5                  0.00251     1.30692   
    96. RY*(   4) C   5                  0.00093     1.72324   
    97. RY*(   5) C   5                  0.00065     1.01531   
    98. RY*(   6) C   5                  0.00043     1.03069   
    99. RY*(   7) C   5                  0.00025     1.18669   
   100. RY*(   8) C   5                  0.00021     1.69031   
   101. RY*(   9) C   5                  0.00013     2.40739   
   102. RY*(  10) C   5                  0.00003     0.98527   
   103. RY*(  11) C   5                  0.00000     1.53134   
   104. RY*(  12) C   5                  0.00001     2.81104   
   105. RY*(  13) C   5                  0.00001     2.61801   
   106. RY*(  14) C   5                  0.00001     1.28196   
   107. RY*(  15) C   5                  0.00001     1.27387   
   108. RY*(  16) C   5                  0.00000    22.71239   
   109. RY*(  17) C   5                  0.00001     1.54816   
   110. RY*(   1) O   6                  0.00654     0.63600   
   111. RY*(   2) O   6                  0.00205     0.94466   
   112. RY*(   3) O   6                  0.00135     0.77278   
   113. RY*(   4) O   6                  0.00059     0.79691   
   114. RY*(   5) O   6                  0.00037     1.20383   
   115. RY*(   6) O   6                  0.00028     1.35744   
   116. RY*(   7) O   6                  0.00022     1.08542   
   117. RY*(   8) O   6                  0.00009     2.95479   
   118. RY*(   9) O   6                  0.00003     1.34345   
   119. RY*(  10) O   6                  0.00000    49.24040   
   120. RY*(  11) O   6                  0.00001     5.21050   
   121. RY*(  12) O   6                  0.00000     4.91875   
   122. RY*(  13) O   6                  0.00001     3.29782   
   123. RY*(  14) O   6                  0.00000     4.78717   
   124. RY*(  15) O   6                  0.00000     3.02814   
   125. RY*(  16) O   6                  0.00001     2.88922   
   126. RY*(  17) O   6                  0.00000     2.98474   
   127. RY*(   1) H   7                  0.00180     0.79966   
   128. RY*(   2) H   7                  0.00029     1.73001   
   129. RY*(   3) H   7                  0.00024     0.99560   
   130. RY*(   4) H   7                  0.00016     1.95026   
   131. RY*(   5) H   7                  0.00006     2.52039   
   132. RY*(   6) H   7                  0.00003     1.40437   
   133. RY*(   1) H   8                  0.00109     0.55472   
   134. RY*(   2) H   8                  0.00028     1.40753   
   135. RY*(   3) H   8                  0.00010     1.66809   
   136. RY*(   4) H   8                  0.00011     2.28850   
   137. RY*(   5) H   8                  0.00006     1.14207   
   138. RY*(   6) H   8                  0.00006     2.17374   
   139. RY*(   1) H   9                  0.00180     0.79965   
   140. RY*(   2) H   9                  0.00029     1.73001   
   141. RY*(   3) H   9                  0.00024     0.99560   
   142. RY*(   4) H   9                  0.00016     1.95027   
   143. RY*(   5) H   9                  0.00006     2.52039   
   144. RY*(   6) H   9                  0.00003     1.40438   
   145. RY*(   1) H  10                  0.00109     0.55472   
   146. RY*(   2) H  10                  0.00028     1.40754   
   147. RY*(   3) H  10                  0.00010     1.66805   
   148. RY*(   4) H  10                  0.00011     2.28849   
   149. RY*(   5) H  10                  0.00006     1.14209   
   150. RY*(   6) H  10                  0.00006     2.17374   
   151. RY*(   1) H  11                  0.00180     0.79967   
   152. RY*(   2) H  11                  0.00029     1.73002   
   153. RY*(   3) H  11                  0.00024     0.99557   
   154. RY*(   4) H  11                  0.00016     1.95027   
   155. RY*(   5) H  11                  0.00006     2.52039   
   156. RY*(   6) H  11                  0.00003     1.40438   
   157. RY*(   1) H  12                  0.00109     0.55472   
   158. RY*(   2) H  12                  0.00028     1.40754   
   159. RY*(   3) H  12                  0.00010     1.66801   
   160. RY*(   4) H  12                  0.00011     2.28850   
   161. RY*(   5) H  12                  0.00006     1.14213   
   162. RY*(   6) H  12                  0.00006     2.17374   
   163. RY*(   1) H  13                  0.00109     0.55472   
   164. RY*(   2) H  13                  0.00028     1.40753   
   165. RY*(   3) H  13                  0.00010     1.66805   
   166. RY*(   4) H  13                  0.00011     2.28851   
   167. RY*(   5) H  13                  0.00006     1.14211   
   168. RY*(   6) H  13                  0.00006     2.17372   
   169. RY*(   1) H  14                  0.00180     0.79967   
   170. RY*(   2) H  14                  0.00029     1.73000   
   171. RY*(   3) H  14                  0.00024     0.99559   
   172. RY*(   4) H  14                  0.00016     1.95026   
   173. RY*(   5) H  14                  0.00006     2.52040   
   174. RY*(   6) H  14                  0.00003     1.40438   
   175. BD*(   1) C   1 - C   2          0.03046     0.36732   
   176. BD*(   1) C   1 - O   6          0.02090     0.28433   
   177. BD*(   1) C   1 - H   7          0.02847     0.38145   
   178. BD*(   1) C   1 - H   8          0.01539     0.39322   
   179. BD*(   1) C   2 - O   3          0.02090     0.28434   
   180. BD*(   1) C   2 - H   9          0.02847     0.38145   
   181. BD*(   1) C   2 - H  10          0.01539     0.39321   
   182. BD*(   1) O   3 - C   4          0.02090     0.28433   
   183. BD*(   1) C   4 - C   5          0.03045     0.36732   
   184. BD*(   1) C   4 - H  11          0.02847     0.38145   
   185. BD*(   1) C   4 - H  12          0.01539     0.39321   
   186. BD*(   1) C   5 - O   6          0.02090     0.28433   
   187. BD*(   1) C   5 - H  13          0.01539     0.39321   
   188. BD*(   1) C   5 - H  14          0.02847     0.38146   
       -------------------------------
              Total Lewis   47.59315  ( 99.1524%)
        Valence non-Lewis    0.31995  (  0.6666%)
        Rydberg non-Lewis    0.08690  (  0.1810%)
       -------------------------------
            Total unit  1   48.00000  (100.0000%)
           Charge unit  1    0.00000
 Calling FoFJK, ICntrl=      2127 FMM=F ISym2X=0 I1Cent= 0 IOpClX= 0 NMat=1 NMatS=1 NMatT=0.
 ***** Axes restored to original set *****
 -------------------------------------------------------------------
 Center     Atomic                   Forces (Hartrees/Bohr)
 Number     Number              X              Y              Z
 -------------------------------------------------------------------
      1        6           0.004609294   -0.000078098   -0.004388724
      2        6           0.002654954    0.000653083    0.005745568
      3        8          -0.000140423    0.003174188   -0.000595780
      4        6          -0.004608596    0.000077622    0.004389832
      5        6          -0.002657214   -0.000652611   -0.005748978
      6        8           0.000141298   -0.003174361    0.000596601
      7        1          -0.001531908   -0.002737548    0.001931915
      8        1           0.002909248    0.001465309   -0.000838327
      9        1          -0.001133384    0.002526664   -0.002428960
     10        1           0.002601768   -0.001028610    0.001868138
     11        1           0.001532014    0.002737246   -0.001931592
     12        1          -0.002909058   -0.001465590    0.000837649
     13        1          -0.002601592    0.001028885   -0.001868143
     14        1           0.001133599   -0.002526177    0.002430802
 -------------------------------------------------------------------
 Cartesian Forces:  Max     0.005748978 RMS     0.002593503

 GradGradGradGradGradGradGradGradGradGradGradGradGradGradGradGradGradGrad
 Berny optimization.
 FormGI is forming the generalized inverse of G from B-inverse, IUseBI=4.
 Internal  Forces:  Max     0.005042270 RMS     0.002029343
 Search for a local minimum.
 Step number   1 out of a maximum of   80
 All quantities printed in internal units (Hartrees-Bohrs-Radians)
 Mixed Optimization -- RFO/linear search
 Second derivative matrix not updated -- first step.
 ITU=  0
     Eigenvalues ---    0.00740   0.01095   0.01858   0.04017   0.04662
     Eigenvalues ---    0.05197   0.05357   0.05655   0.05875   0.06404
     Eigenvalues ---    0.06443   0.09392   0.10590   0.10923   0.11520
     Eigenvalues ---    0.11549   0.11559   0.11630   0.13896   0.16487
     Eigenvalues ---    0.17368   0.22815   0.28185   0.29587   0.34111
     Eigenvalues ---    0.34112   0.34112   0.34112   0.34356   0.34356
     Eigenvalues ---    0.34357   0.34357   0.37742   0.38021   0.40221
     Eigenvalues ---    0.40221
 RFO step:  Lambda=-1.80589899D-03 EMin= 7.40356745D-03
 Linear search not attempted -- first point.
 Iteration  1 RMS(Cart)=  0.02101876 RMS(Int)=  0.00032356
 Iteration  2 RMS(Cart)=  0.00030926 RMS(Int)=  0.00005106
 Iteration  3 RMS(Cart)=  0.00000005 RMS(Int)=  0.00005106
 Variable       Old X    -DE/DX   Delta X   Delta X   Delta X     New X
                                 (Linear)    (Quad)   (Total)
    R1        2.88795  -0.00423   0.00000  -0.01420  -0.01420   2.87375
    R2        2.71254  -0.00504   0.00000  -0.01248  -0.01248   2.70006
    R3        2.07142   0.00187   0.00000   0.00547   0.00547   2.07689
    R4        2.06732  -0.00114   0.00000  -0.00331  -0.00331   2.06401
    R5        2.71254  -0.00504   0.00000  -0.01248  -0.01248   2.70006
    R6        2.07143   0.00187   0.00000   0.00546   0.00546   2.07689
    R7        2.06733  -0.00115   0.00000  -0.00332  -0.00332   2.06401
    R8        2.71254  -0.00504   0.00000  -0.01248  -0.01248   2.70006
    R9        2.88794  -0.00423   0.00000  -0.01420  -0.01420   2.87375
   R10        2.07142   0.00187   0.00000   0.00547   0.00547   2.07689
   R11        2.06733  -0.00114   0.00000  -0.00331  -0.00331   2.06401
   R12        2.71255  -0.00504   0.00000  -0.01248  -0.01248   2.70007
   R13        2.06733  -0.00115   0.00000  -0.00332  -0.00332   2.06401
   R14        2.07142   0.00188   0.00000   0.00547   0.00547   2.07689
    A1        1.92963   0.00105   0.00000   0.00348   0.00344   1.93307
    A2        1.93586  -0.00332   0.00000  -0.02010  -0.02010   1.91577
    A3        1.92735   0.00176   0.00000   0.01004   0.01005   1.93740
    A4        1.89346   0.00188   0.00000   0.02326   0.02335   1.91681
    A5        1.88560  -0.00232   0.00000  -0.02604  -0.02599   1.85961
    A6        1.89056   0.00097   0.00000   0.00955   0.00966   1.90022
    A7        1.92964   0.00105   0.00000   0.00347   0.00344   1.93307
    A8        1.93586  -0.00332   0.00000  -0.02010  -0.02010   1.91577
    A9        1.92734   0.00176   0.00000   0.01004   0.01006   1.93740
   A10        1.89346   0.00188   0.00000   0.02325   0.02335   1.91681
   A11        1.88561  -0.00232   0.00000  -0.02604  -0.02599   1.85961
   A12        1.89056   0.00097   0.00000   0.00955   0.00966   1.90022
   A13        1.91914  -0.00169   0.00000   0.00414   0.00413   1.92328
   A14        1.92963   0.00105   0.00000   0.00348   0.00344   1.93307
   A15        1.89346   0.00188   0.00000   0.02325   0.02334   1.91681
   A16        1.88560  -0.00232   0.00000  -0.02604  -0.02599   1.85961
   A17        1.93586  -0.00332   0.00000  -0.02010  -0.02010   1.91577
   A18        1.92734   0.00176   0.00000   0.01004   0.01006   1.93740
   A19        1.89057   0.00097   0.00000   0.00954   0.00965   1.90022
   A20        1.92963   0.00105   0.00000   0.00348   0.00344   1.93307
   A21        1.92735   0.00176   0.00000   0.01004   0.01006   1.93740
   A22        1.93586  -0.00332   0.00000  -0.02010  -0.02010   1.91577
   A23        1.88561  -0.00232   0.00000  -0.02604  -0.02599   1.85961
   A24        1.89346   0.00188   0.00000   0.02325   0.02335   1.91681
   A25        1.89057   0.00097   0.00000   0.00955   0.00966   1.90022
   A26        1.91914  -0.00169   0.00000   0.00414   0.00414   1.92327
    D1        1.01214   0.00071   0.00000  -0.00993  -0.00995   1.00219
    D2       -1.08910  -0.00017   0.00000  -0.02822  -0.02822  -1.11732
    D3        3.09800  -0.00038   0.00000  -0.03369  -0.03370   3.06431
    D4       -1.08909  -0.00017   0.00000  -0.02823  -0.02823  -1.11732
    D5        3.09285  -0.00104   0.00000  -0.04652  -0.04649   3.04636
    D6        0.99677  -0.00126   0.00000  -0.05199  -0.05197   0.94480
    D7        3.09800  -0.00038   0.00000  -0.03369  -0.03370   3.06430
    D8        0.99677  -0.00126   0.00000  -0.05198  -0.05197   0.94480
    D9       -1.09932  -0.00147   0.00000  -0.05745  -0.05745  -1.15676
   D10       -1.00599   0.00089   0.00000   0.00949   0.00949  -0.99650
   D11        1.12040  -0.00133   0.00000   0.00188   0.00199   1.12239
   D12       -3.11686  -0.00043   0.00000   0.01154   0.01146  -3.10539
   D13       -1.00598   0.00089   0.00000   0.00949   0.00949  -0.99649
   D14        1.12041  -0.00133   0.00000   0.00187   0.00198   1.12240
   D15       -3.11684  -0.00044   0.00000   0.01153   0.01146  -3.10539
   D16        1.00600  -0.00089   0.00000  -0.00949  -0.00950   0.99650
   D17       -1.12040   0.00133   0.00000  -0.00188  -0.00199  -1.12239
   D18        3.11685   0.00044   0.00000  -0.01154  -0.01146   3.10539
   D19       -1.01216  -0.00071   0.00000   0.00995   0.00997  -1.00219
   D20       -3.09802   0.00038   0.00000   0.03371   0.03371  -3.06431
   D21        1.08907   0.00017   0.00000   0.02824   0.02824   1.11731
   D22        1.08908   0.00017   0.00000   0.02824   0.02824   1.11731
   D23       -0.99679   0.00126   0.00000   0.05200   0.05198  -0.94481
   D24       -3.09288   0.00104   0.00000   0.04653   0.04651  -3.04637
   D25       -3.09802   0.00038   0.00000   0.03370   0.03370  -3.06431
   D26        1.09931   0.00147   0.00000   0.05745   0.05745   1.15676
   D27       -0.99679   0.00126   0.00000   0.05199   0.05198  -0.94481
   D28        1.00600  -0.00089   0.00000  -0.00950  -0.00950   0.99650
   D29        3.11686   0.00044   0.00000  -0.01154  -0.01147   3.10539
   D30       -1.12039   0.00133   0.00000  -0.00188  -0.00200  -1.12239
         Item               Value     Threshold  Converged?
 Maximum Force            0.005042     0.000450     NO 
 RMS     Force            0.002029     0.000300     NO 
 Maximum Displacement     0.053215     0.001800     NO 
 RMS     Displacement     0.021036     0.001200     NO 
 Predicted change in Energy=-9.371107D-04
 GradGradGradGradGradGradGradGradGradGradGradGradGradGradGradGradGradGrad

                          Input orientation:                          
 ---------------------------------------------------------------------
 Center     Atomic      Atomic             Coordinates (Angstroms)
 Number     Number       Type             X           Y           Z
 ---------------------------------------------------------------------
      1          6           0       -1.237948    0.645374   -0.047588
      2          6           0       -1.058821   -0.827332   -0.381718
      3          8           0        0.046302   -1.378794    0.336680
      4          6           0        1.237950   -0.645374    0.047587
      5          6           0        1.058822    0.827332    0.381720
      6          8           0       -0.046300    1.378794   -0.336683
      7          1           0       -1.495620    0.756731    1.015003
      8          1           0       -2.031424    1.090279   -0.652085
      9          1           0       -0.897642   -0.946334   -1.462345
     10          1           0       -1.938814   -1.404815   -0.090021
     11          1           0        1.495619   -0.756726   -1.015005
     12          1           0        2.031427   -1.090281    0.652080
     13          1           0        1.938814    1.404818    0.090029
     14          1           0        0.897634    0.946330    1.462346
 ---------------------------------------------------------------------
                    Distance matrix (angstroms):
                    1          2          3          4          5
     1  C    0.000000
     2  C    1.520721   0.000000
     3  O    2.427801   1.428812   0.000000
     4  C    2.793771   2.343623   1.428812   0.000000
     5  C    2.343623   2.793772   2.427801   1.520721   0.000000
     6  O    1.428812   2.427801   2.840120   2.427800   1.428814
     7  H    1.099043   2.156590   2.719948   3.220900   2.632719
     8  H    1.092228   2.167092   3.375044   3.767073   3.269177
     9  H    2.156590   1.099043   2.077148   2.632722   3.220903
    10  H    2.167093   1.092228   2.030625   3.269177   3.767073
    11  H    3.220896   2.632718   2.077147   1.099042   2.156588
    12  H    3.767074   3.269176   2.030625   1.092228   2.167094
    13  H    3.269176   3.767075   3.375046   2.167094   1.092228
    14  H    2.632715   3.220895   2.719944   2.156589   1.099042
                    6          7          8          9         10
     6  O    0.000000
     7  H    2.077148   0.000000
     8  H    2.030625   1.782560   0.000000
     9  H    2.719948   3.065169   2.467748   0.000000
    10  H    3.375045   2.467748   2.559295   1.782560   0.000000
    11  H    2.719941   3.919056   3.997896   2.442082   3.615376
    12  H    3.375046   3.997903   4.791915   3.615378   4.051229
    13  H    2.030625   3.615375   4.051230   3.997907   4.791916
    14  H    2.077148   2.442075   3.615373   3.919058   3.997895
                   11         12         13         14
    11  H    0.000000
    12  H    1.782561   0.000000
    13  H    2.467750   2.559297   0.000000
    14  H    3.065168   2.467752   1.782560   0.000000
 Stoichiometry    C4H8O2
 Framework group  C1[X(C4H8O2)]
 Deg. of freedom    36
 Full point group                 C1      NOp   1
 Largest Abelian subgroup         C1      NOp   1
 Largest concise Abelian subgroup C1      NOp   1
                         Standard orientation:                         
 ---------------------------------------------------------------------
 Center     Atomic      Atomic             Coordinates (Angstroms)
 Number     Number       Type             X           Y           Z
 ---------------------------------------------------------------------
      1          6           0       -1.171807   -0.734600   -0.196269
      2          6           0       -1.171815    0.734587    0.196268
      3          8           0       -0.000008    1.389483   -0.293098
      4          6           0        1.171807    0.734599    0.196270
      5          6           0        1.171816   -0.734586   -0.196271
      6          8           0        0.000008   -1.389483    0.293101
      7          1           0       -1.221036   -0.826993   -1.290314
      8          1           0       -2.025607   -1.256722    0.241194
      9          1           0       -1.221049    0.826980    1.290313
     10          1           0       -2.025621    1.256700   -0.241197
     11          1           0        1.221033    0.826987    1.290315
     12          1           0        2.025608    1.256724   -0.241190
     13          1           0        2.025622   -1.256702    0.241188
     14          1           0        1.221040   -0.826976   -1.290316
 ---------------------------------------------------------------------
 Rotational constants (GHZ):           5.0589413           4.6651416           2.7265178
 Standard basis: 6-311++G(d,p) (5D, 7F)
 There are   194 symmetry adapted cartesian basis functions of A   symmetry.
 There are   188 symmetry adapted basis functions of A   symmetry.
   188 basis functions,   288 primitive gaussians,   194 cartesian basis functions
    24 alpha electrons       24 beta electrons
       nuclear repulsion energy       263.6283038719 Hartrees.
 NAtoms=   14 NActive=   14 NUniq=   14 SFac= 1.00D+00 NAtFMM=   60 NAOKFM=F Big=F
 Integral buffers will be    131072 words long.
 Raffenetti 2 integral format.
 Two-electron integral symmetry is turned on.
 One-electron integrals computed using PRISM.
 NBasis=   188 RedAO= T EigKep=  1.82D-05  NBF=   188
 NBsUse=   188 1.00D-06 EigRej= -1.00D+00 NBFU=   188
 Initial guess from the checkpoint file:  "C1COCCO1.chk"
 B after Tr=     0.000000   -0.000000    0.000000
         Rot=    0.999997   -0.002367   -0.000000   -0.000004 Ang=  -0.27 deg.
 ExpMin= 3.60D-02 ExpMax= 8.59D+03 ExpMxC= 1.30D+03 IAcc=3 IRadAn=         5 AccDes= 0.00D+00
 Harris functional with IExCor=  402 and IRadAn=       5 diagonalized for initial guess.
 HarFok:  IExCor=  402 AccDes= 0.00D+00 IRadAn=         5 IDoV= 1 UseB2=F ITyADJ=14
 ICtDFT=  3500011 ScaDFX=  1.000000  1.000000  1.000000  1.000000
 FoFCou: FMM=F IPFlag=           0 FMFlag=      100000 FMFlg1=           0
         NFxFlg=           0 DoJE=T BraDBF=F KetDBF=T FulRan=T
         wScrn=  0.000000 ICntrl=       500 IOpCl=  0 I1Cent=   200000004 NGrid=           0
         NMat0=    1 NMatS0=      1 NMatT0=    0 NMatD0=    1 NMtDS0=    0 NMtDT0=    0
 Petite list used in FoFCou.
 Requested convergence on RMS density matrix=1.00D-08 within 128 cycles.
 Requested convergence on MAX density matrix=1.00D-06.
 Requested convergence on             energy=1.00D-06.
 No special actions if energy rises.
 SCF Done:  E(RB3LYP) =  -307.751837570     A.U. after    8 cycles
            NFock=  8  Conv=0.65D-08     -V/T= 2.0039
 Calling FoFJK, ICntrl=      2127 FMM=F ISym2X=0 I1Cent= 0 IOpClX= 0 NMat=1 NMatS=1 NMatT=0.
 ***** Axes restored to original set *****
 -------------------------------------------------------------------
 Center     Atomic                   Forces (Hartrees/Bohr)
 Number     Number              X              Y              Z
 -------------------------------------------------------------------
      1        6           0.000022841    0.001853467   -0.001508288
      2        6          -0.000238674   -0.001870367    0.001467528
      3        8           0.000271011    0.002606318   -0.002552459
      4        6          -0.000023037   -0.001853365    0.001507928
      5        6           0.000237637    0.001870814   -0.001468241
      6        8          -0.000270318   -0.002606859    0.002553303
      7        1           0.000018456    0.000287831    0.000471958
      8        1          -0.000082625   -0.000140437    0.000046598
      9        1           0.000230249   -0.000268029   -0.000425429
     10        1          -0.000080593    0.000127546   -0.000077079
     11        1          -0.000018191   -0.000287904   -0.000472045
     12        1           0.000082516    0.000140482   -0.000046610
     13        1           0.000080757   -0.000127635    0.000077122
     14        1          -0.000230031    0.000268139    0.000425713
 -------------------------------------------------------------------
 Cartesian Forces:  Max     0.002606859 RMS     0.001101400

 GradGradGradGradGradGradGradGradGradGradGradGradGradGradGradGradGradGrad
 Berny optimization.
 Using GEDIIS/GDIIS optimizer.
 FormGI is forming the generalized inverse of G from B-inverse, IUseBI=4.
 Internal  Forces:  Max     0.001301279 RMS     0.000496212
 Search for a local minimum.
 Step number   2 out of a maximum of   80
 All quantities printed in internal units (Hartrees-Bohrs-Radians)
 Mixed Optimization -- En-DIIS/RFO-DIIS
 Update second derivatives using D2CorX and points    1    2
 DE= -8.99D-04 DEPred=-9.37D-04 R= 9.59D-01
 TightC=F SS=  1.41D+00  RLast= 1.98D-01 DXNew= 5.0454D-01 5.9328D-01
 Trust test= 9.59D-01 RLast= 1.98D-01 DXMaxT set to 5.05D-01
 ITU=  1  0
 Use linear search instead of GDIIS.
     Eigenvalues ---    0.00737   0.01042   0.01841   0.04029   0.04719
     Eigenvalues ---    0.05198   0.05361   0.05688   0.05904   0.06411
     Eigenvalues ---    0.06490   0.08722   0.10594   0.10976   0.11512
     Eigenvalues ---    0.11541   0.11552   0.11666   0.13904   0.17466
     Eigenvalues ---    0.19654   0.22841   0.28224   0.30503   0.33540
     Eigenvalues ---    0.34111   0.34112   0.34112   0.34356   0.34357
     Eigenvalues ---    0.34357   0.34380   0.37716   0.38013   0.38291
     Eigenvalues ---    0.40221
 RFO step:  Lambda=-1.17469116D-04 EMin= 7.36962430D-03
 Quartic linear search produced a step of -0.00910.
 Iteration  1 RMS(Cart)=  0.00553383 RMS(Int)=  0.00002581
 Iteration  2 RMS(Cart)=  0.00002801 RMS(Int)=  0.00001032
 Iteration  3 RMS(Cart)=  0.00000000 RMS(Int)=  0.00001032
 Variable       Old X    -DE/DX   Delta X   Delta X   Delta X     New X
                                 (Linear)    (Quad)   (Total)
    R1        2.87375   0.00076   0.00013   0.00158   0.00171   2.87545
    R2        2.70006  -0.00099   0.00011  -0.00327  -0.00316   2.69691
    R3        2.07689   0.00048  -0.00005   0.00177   0.00172   2.07861
    R4        2.06401  -0.00002   0.00003  -0.00029  -0.00026   2.06375
    R5        2.70006  -0.00099   0.00011  -0.00327  -0.00316   2.69690
    R6        2.07689   0.00048  -0.00005   0.00177   0.00172   2.07861
    R7        2.06401  -0.00002   0.00003  -0.00029  -0.00026   2.06375
    R8        2.70006  -0.00099   0.00011  -0.00327  -0.00316   2.69691
    R9        2.87375   0.00076   0.00013   0.00158   0.00171   2.87545
   R10        2.07689   0.00048  -0.00005   0.00177   0.00172   2.07861
   R11        2.06401  -0.00002   0.00003  -0.00029  -0.00026   2.06375
   R12        2.70007  -0.00099   0.00011  -0.00327  -0.00316   2.69691
   R13        2.06401  -0.00002   0.00003  -0.00029  -0.00026   2.06375
   R14        2.07689   0.00048  -0.00005   0.00177   0.00172   2.07861
    A1        1.93307  -0.00049  -0.00003  -0.00105  -0.00111   1.93197
    A2        1.91577   0.00038   0.00018  -0.00033  -0.00015   1.91562
    A3        1.93740  -0.00005  -0.00009   0.00105   0.00097   1.93837
    A4        1.91681  -0.00042  -0.00021  -0.00150  -0.00169   1.91511
    A5        1.85961   0.00066   0.00024   0.00114   0.00138   1.86100
    A6        1.90022  -0.00008  -0.00009   0.00072   0.00062   1.90085
    A7        1.93307  -0.00049  -0.00003  -0.00105  -0.00111   1.93197
    A8        1.91577   0.00038   0.00018  -0.00033  -0.00015   1.91562
    A9        1.93740  -0.00005  -0.00009   0.00105   0.00097   1.93837
   A10        1.91681  -0.00042  -0.00021  -0.00150  -0.00169   1.91511
   A11        1.85961   0.00066   0.00024   0.00114   0.00138   1.86100
   A12        1.90022  -0.00008  -0.00009   0.00072   0.00063   1.90085
   A13        1.92328   0.00130  -0.00004   0.01269   0.01266   1.93594
   A14        1.93307  -0.00049  -0.00003  -0.00105  -0.00111   1.93197
   A15        1.91681  -0.00042  -0.00021  -0.00149  -0.00169   1.91511
   A16        1.85961   0.00066   0.00024   0.00114   0.00138   1.86100
   A17        1.91577   0.00038   0.00018  -0.00033  -0.00015   1.91562
   A18        1.93740  -0.00005  -0.00009   0.00105   0.00097   1.93837
   A19        1.90022  -0.00008  -0.00009   0.00071   0.00062   1.90085
   A20        1.93307  -0.00049  -0.00003  -0.00104  -0.00111   1.93197
   A21        1.93740  -0.00005  -0.00009   0.00105   0.00097   1.93837
   A22        1.91577   0.00038   0.00018  -0.00033  -0.00015   1.91562
   A23        1.85961   0.00066   0.00024   0.00114   0.00138   1.86100
   A24        1.91681  -0.00042  -0.00021  -0.00149  -0.00169   1.91511
   A25        1.90022  -0.00008  -0.00009   0.00071   0.00062   1.90085
   A26        1.92327   0.00130  -0.00004   0.01269   0.01266   1.93593
    D1        1.00219  -0.00098   0.00009  -0.01472  -0.01461   0.98757
    D2       -1.11732  -0.00039   0.00026  -0.01194  -0.01167  -1.12899
    D3        3.06431  -0.00050   0.00031  -0.01329  -0.01298   3.05132
    D4       -1.11732  -0.00039   0.00026  -0.01194  -0.01167  -1.12899
    D5        3.04636   0.00021   0.00042  -0.00916  -0.00873   3.03763
    D6        0.94480   0.00010   0.00047  -0.01052  -0.01004   0.93476
    D7        3.06430  -0.00050   0.00031  -0.01329  -0.01298   3.05132
    D8        0.94480   0.00010   0.00047  -0.01052  -0.01004   0.93476
    D9       -1.15676  -0.00002   0.00052  -0.01187  -0.01135  -1.16811
   D10       -0.99650  -0.00006  -0.00009   0.00671   0.00664  -0.98986
   D11        1.12239  -0.00018  -0.00002   0.00462   0.00461   1.12700
   D12       -3.10539  -0.00012  -0.00010   0.00533   0.00524  -3.10015
   D13       -0.99649  -0.00006  -0.00009   0.00671   0.00663  -0.98986
   D14        1.12240  -0.00018  -0.00002   0.00461   0.00460   1.12700
   D15       -3.10539  -0.00013  -0.00010   0.00532   0.00523  -3.10015
   D16        0.99650   0.00006   0.00009  -0.00671  -0.00663   0.98986
   D17       -1.12239   0.00018   0.00002  -0.00462  -0.00461  -1.12700
   D18        3.10539   0.00012   0.00010  -0.00533  -0.00524   3.10016
   D19       -1.00219   0.00098  -0.00009   0.01472   0.01462  -0.98757
   D20       -3.06431   0.00050  -0.00031   0.01329   0.01298  -3.05132
   D21        1.11731   0.00039  -0.00026   0.01195   0.01168   1.12899
   D22        1.11731   0.00039  -0.00026   0.01195   0.01168   1.12899
   D23       -0.94481  -0.00010  -0.00047   0.01052   0.01005  -0.93476
   D24       -3.04637  -0.00021  -0.00042   0.00917   0.00874  -3.03763
   D25       -3.06431   0.00050  -0.00031   0.01330   0.01299  -3.05133
   D26        1.15676   0.00002  -0.00052   0.01187   0.01135   1.16811
   D27       -0.94481  -0.00010  -0.00047   0.01052   0.01005  -0.93476
   D28        0.99650   0.00006   0.00009  -0.00671  -0.00664   0.98986
   D29        3.10539   0.00012   0.00010  -0.00533  -0.00524   3.10016
   D30       -1.12239   0.00018   0.00002  -0.00462  -0.00461  -1.12700
         Item               Value     Threshold  Converged?
 Maximum Force            0.001301     0.000450     NO 
 RMS     Force            0.000496     0.000300     NO 
 Maximum Displacement     0.015762     0.001800     NO 
 RMS     Displacement     0.005526     0.001200     NO 
 Predicted change in Energy=-5.889167D-05
 GradGradGradGradGradGradGradGradGradGradGradGradGradGradGradGradGradGrad

                          Input orientation:                          
 ---------------------------------------------------------------------
 Center     Atomic      Atomic             Coordinates (Angstroms)
 Number     Number       Type             X           Y           Z
 ---------------------------------------------------------------------
      1          6           0       -1.241682    0.645547   -0.048297
      2          6           0       -1.062487   -0.828091   -0.382392
      3          8           0        0.047519   -1.375032    0.328575
      4          6           0        1.241682   -0.645547    0.048297
      5          6           0        1.062487    0.828091    0.382393
      6          8           0       -0.047518    1.375032   -0.328576
      7          1           0       -1.503961    0.756711    1.014129
      8          1           0       -2.030987    1.092649   -0.656372
      9          1           0       -0.905636   -0.947608   -1.464524
     10          1           0       -1.939589   -1.407212   -0.085798
     11          1           0        1.503960   -0.756710   -1.014130
     12          1           0        2.030988   -1.092651    0.656370
     13          1           0        1.939589    1.407213    0.085801
     14          1           0        0.905634    0.947607    1.464525
 ---------------------------------------------------------------------
                    Distance matrix (angstroms):
                    1          2          3          4          5
     1  C    0.000000
     2  C    1.521624   0.000000
     3  O    2.426275   1.427140   0.000000
     4  C    2.800598   2.351172   1.427141   0.000000
     5  C    2.351172   2.800598   2.426275   1.521624   0.000000
     6  O    1.427141   2.426275   2.829086   2.426275   1.427141
     7  H    1.099953   2.157955   2.724225   3.230745   2.644019
     8  H    1.092089   2.168479   3.373389   3.772035   3.273928
     9  H    2.157955   1.099953   2.075187   2.644020   3.230746
    10  H    2.168479   1.092089   2.030108   3.273927   3.772035
    11  H    3.230744   2.644019   2.075187   1.099953   2.157954
    12  H    3.772035   3.273927   2.030108   1.092089   2.168480
    13  H    3.273927   3.772035   3.373390   2.168480   1.092089
    14  H    2.644019   3.230744   2.724224   2.157955   1.099953
                    6          7          8          9         10
     6  O    0.000000
     7  H    2.075187   0.000000
     8  H    2.030108   1.783587   0.000000
     9  H    2.724225   3.066988   2.466207   0.000000
    10  H    3.373389   2.466207   2.565778   1.783587   0.000000
    11  H    2.724223   3.930886   4.005493   2.458750   3.625326
    12  H    3.373390   4.005495   4.795671   3.625326   4.051573
    13  H    2.030108   3.625325   4.051573   4.005496   4.795671
    14  H    2.075187   2.458748   3.625325   3.930886   4.005492
                   11         12         13         14
    11  H    0.000000
    12  H    1.783587   0.000000
    13  H    2.466208   2.565779   0.000000
    14  H    3.066988   2.466209   1.783587   0.000000
 Stoichiometry    C4H8O2
 Framework group  C1[X(C4H8O2)]
 Deg. of freedom    36
 Full point group                 C1      NOp   1
 Largest Abelian subgroup         C1      NOp   1
 Largest concise Abelian subgroup C1      NOp   1
                         Standard orientation:                         
 ---------------------------------------------------------------------
 Center     Atomic      Atomic             Coordinates (Angstroms)
 Number     Number       Type             X           Y           Z
 ---------------------------------------------------------------------
      1          6           0       -1.175586   -0.735874   -0.193197
      2          6           0       -1.175586    0.735874    0.193197
      3          8           0       -0.000000    1.384335   -0.290771
      4          6           0        1.175586    0.735874    0.193198
      5          6           0        1.175586   -0.735873   -0.193198
      6          8           0        0.000000   -1.384335    0.290771
      7          1           0       -1.229375   -0.832983   -1.287534
      8          1           0       -2.025786   -1.258157    0.250691
      9          1           0       -1.229376    0.832983    1.287534
     10          1           0       -2.025786    1.258156   -0.250692
     11          1           0        1.229374    0.832981    1.287535
     12          1           0        2.025786    1.258158   -0.250690
     13          1           0        2.025787   -1.258157    0.250689
     14          1           0        1.229374   -0.832982   -1.287535
 ---------------------------------------------------------------------
 Rotational constants (GHZ):           5.0387085           4.6834104           2.7236207
 Standard basis: 6-311++G(d,p) (5D, 7F)
 There are   194 symmetry adapted cartesian basis functions of A   symmetry.
 There are   188 symmetry adapted basis functions of A   symmetry.
   188 basis functions,   288 primitive gaussians,   194 cartesian basis functions
    24 alpha electrons       24 beta electrons
       nuclear repulsion energy       263.6204171511 Hartrees.
 NAtoms=   14 NActive=   14 NUniq=   14 SFac= 1.00D+00 NAtFMM=   60 NAOKFM=F Big=F
 Integral buffers will be    131072 words long.
 Raffenetti 2 integral format.
 Two-electron integral symmetry is turned on.
 One-electron integrals computed using PRISM.
 NBasis=   188 RedAO= T EigKep=  1.85D-05  NBF=   188
 NBsUse=   188 1.00D-06 EigRej= -1.00D+00 NBFU=   188
 Initial guess from the checkpoint file:  "C1COCCO1.chk"
 B after Tr=     0.000000   -0.000000   -0.000000
         Rot=    1.000000    0.000960   -0.000000    0.000003 Ang=   0.11 deg.
 Requested convergence on RMS density matrix=1.00D-08 within 128 cycles.
 Requested convergence on MAX density matrix=1.00D-06.
 Requested convergence on             energy=1.00D-06.
 No special actions if energy rises.
 SCF Done:  E(RB3LYP) =  -307.751903176     A.U. after    8 cycles
            NFock=  8  Conv=0.22D-08     -V/T= 2.0039
 Calling FoFJK, ICntrl=      2127 FMM=F ISym2X=0 I1Cent= 0 IOpClX= 0 NMat=1 NMatS=1 NMatT=0.
 ***** Axes restored to original set *****
 -------------------------------------------------------------------
 Center     Atomic                   Forces (Hartrees/Bohr)
 Number     Number              X              Y              Z
 -------------------------------------------------------------------
      1        6           0.000435406    0.000696347    0.000086620
      2        6           0.000537834   -0.000619167    0.000095241
      3        8           0.000026783    0.000658138   -0.000421339
      4        6          -0.000435442   -0.000696376   -0.000086644
      5        6          -0.000538315    0.000619368   -0.000095472
      6        8          -0.000026451   -0.000658288    0.000421570
      7        1          -0.000065637    0.000113549    0.000024983
      8        1          -0.000009642   -0.000009459    0.000033639
      9        1          -0.000034160   -0.000121456   -0.000043665
     10        1           0.000001721    0.000008822   -0.000035105
     11        1           0.000065636   -0.000113573   -0.000024994
     12        1           0.000009696    0.000009498   -0.000033588
     13        1          -0.000001650   -0.000008847    0.000035106
     14        1           0.000034222    0.000121442    0.000043648
 -------------------------------------------------------------------
 Cartesian Forces:  Max     0.000696376 RMS     0.000309684

 GradGradGradGradGradGradGradGradGradGradGradGradGradGradGradGradGradGrad
 Berny optimization.
 Using GEDIIS/GDIIS optimizer.
 FormGI is forming the generalized inverse of G from B-inverse, IUseBI=4.
 Internal  Forces:  Max     0.000585021 RMS     0.000171200
 Search for a local minimum.
 Step number   3 out of a maximum of   80
 All quantities printed in internal units (Hartrees-Bohrs-Radians)
 Mixed Optimization -- En-DIIS/RFO-DIIS
 Swapping is turned off.
 Update second derivatives using D2CorX and points    1    2    3
 DE= -6.56D-05 DEPred=-5.89D-05 R= 1.11D+00
 TightC=F SS=  1.41D+00  RLast= 5.69D-02 DXNew= 8.4853D-01 1.7075D-01
 Trust test= 1.11D+00 RLast= 5.69D-02 DXMaxT set to 5.05D-01
 ITU=  1  1  0
     Eigenvalues ---    0.00733   0.01015   0.01828   0.04038   0.04662
     Eigenvalues ---    0.05197   0.05351   0.05689   0.05904   0.06408
     Eigenvalues ---    0.06653   0.09091   0.10587   0.11005   0.11509
     Eigenvalues ---    0.11547   0.11588   0.11660   0.13897   0.17562
     Eigenvalues ---    0.18620   0.22850   0.28243   0.29522   0.32676
     Eigenvalues ---    0.34111   0.34112   0.34112   0.34356   0.34357
     Eigenvalues ---    0.34357   0.34379   0.36595   0.37769   0.37987
     Eigenvalues ---    0.40221
 En-DIIS/RFO-DIIS/Sim-DIIS IScMMF=       -3 using points:     3    2
 RFO step:  Lambda=-8.13178408D-06.
 DidBck=F Rises=F RFO-DIIS coefs:    1.14262   -0.14262
 Iteration  1 RMS(Cart)=  0.00103190 RMS(Int)=  0.00000154
 Iteration  2 RMS(Cart)=  0.00000085 RMS(Int)=  0.00000141
 Variable       Old X    -DE/DX   Delta X   Delta X   Delta X     New X
                                 (Linear)    (Quad)   (Total)
    R1        2.87545   0.00049   0.00024   0.00158   0.00182   2.87728
    R2        2.69691  -0.00058  -0.00045  -0.00150  -0.00195   2.69496
    R3        2.07861   0.00005   0.00025   0.00008   0.00033   2.07894
    R4        2.06375  -0.00002  -0.00004  -0.00007  -0.00010   2.06365
    R5        2.69690  -0.00058  -0.00045  -0.00150  -0.00195   2.69496
    R6        2.07861   0.00005   0.00025   0.00008   0.00033   2.07894
    R7        2.06375  -0.00002  -0.00004  -0.00007  -0.00010   2.06365
    R8        2.69691  -0.00058  -0.00045  -0.00150  -0.00195   2.69496
    R9        2.87545   0.00049   0.00024   0.00158   0.00182   2.87728
   R10        2.07861   0.00005   0.00025   0.00008   0.00033   2.07894
   R11        2.06375  -0.00002  -0.00004  -0.00007  -0.00010   2.06365
   R12        2.69691  -0.00059  -0.00045  -0.00150  -0.00195   2.69496
   R13        2.06375  -0.00002  -0.00004  -0.00007  -0.00010   2.06365
   R14        2.07861   0.00005   0.00025   0.00008   0.00033   2.07894
    A1        1.93197  -0.00007  -0.00016  -0.00036  -0.00053   1.93144
    A2        1.91562   0.00014  -0.00002   0.00106   0.00104   1.91666
    A3        1.93837  -0.00003   0.00014  -0.00022  -0.00008   1.93829
    A4        1.91511  -0.00004  -0.00024   0.00048   0.00024   1.91535
    A5        1.86100   0.00005   0.00020  -0.00040  -0.00020   1.86080
    A6        1.90085  -0.00007   0.00009  -0.00061  -0.00052   1.90033
    A7        1.93197  -0.00007  -0.00016  -0.00036  -0.00053   1.93144
    A8        1.91562   0.00014  -0.00002   0.00106   0.00104   1.91666
    A9        1.93837  -0.00003   0.00014  -0.00022  -0.00008   1.93829
   A10        1.91511  -0.00004  -0.00024   0.00048   0.00024   1.91535
   A11        1.86100   0.00005   0.00020  -0.00040  -0.00020   1.86080
   A12        1.90085  -0.00007   0.00009  -0.00061  -0.00052   1.90033
   A13        1.93594   0.00008   0.00181  -0.00046   0.00135   1.93729
   A14        1.93197  -0.00007  -0.00016  -0.00036  -0.00053   1.93144
   A15        1.91511  -0.00004  -0.00024   0.00048   0.00024   1.91535
   A16        1.86100   0.00005   0.00020  -0.00040  -0.00020   1.86080
   A17        1.91562   0.00014  -0.00002   0.00106   0.00104   1.91666
   A18        1.93837  -0.00003   0.00014  -0.00022  -0.00008   1.93829
   A19        1.90085  -0.00007   0.00009  -0.00061  -0.00052   1.90033
   A20        1.93197  -0.00007  -0.00016  -0.00036  -0.00053   1.93144
   A21        1.93837  -0.00003   0.00014  -0.00022  -0.00008   1.93829
   A22        1.91562   0.00014  -0.00002   0.00106   0.00104   1.91666
   A23        1.86100   0.00005   0.00020  -0.00040  -0.00020   1.86080
   A24        1.91511  -0.00004  -0.00024   0.00048   0.00024   1.91535
   A25        1.90085  -0.00007   0.00009  -0.00061  -0.00052   1.90033
   A26        1.93593   0.00008   0.00181  -0.00045   0.00135   1.93729
    D1        0.98757  -0.00001  -0.00208   0.00109  -0.00099   0.98658
    D2       -1.12899  -0.00002  -0.00167   0.00003  -0.00163  -1.13063
    D3        3.05132  -0.00001  -0.00185   0.00023  -0.00162   3.04970
    D4       -1.12899  -0.00002  -0.00166   0.00003  -0.00163  -1.13063
    D5        3.03763  -0.00002  -0.00125  -0.00104  -0.00228   3.03535
    D6        0.93476  -0.00002  -0.00143  -0.00084  -0.00227   0.93249
    D7        3.05132  -0.00001  -0.00185   0.00023  -0.00162   3.04970
    D8        0.93476  -0.00002  -0.00143  -0.00084  -0.00227   0.93249
    D9       -1.16811  -0.00001  -0.00162  -0.00064  -0.00226  -1.17037
   D10       -0.98986  -0.00007   0.00095  -0.00104  -0.00009  -0.98996
   D11        1.12700   0.00004   0.00066   0.00037   0.00102   1.12803
   D12       -3.10015  -0.00003   0.00075  -0.00032   0.00042  -3.09973
   D13       -0.98986  -0.00007   0.00095  -0.00104  -0.00010  -0.98996
   D14        1.12700   0.00004   0.00066   0.00037   0.00102   1.12803
   D15       -3.10015  -0.00003   0.00075  -0.00032   0.00042  -3.09973
   D16        0.98986   0.00007  -0.00095   0.00104   0.00009   0.98996
   D17       -1.12700  -0.00004  -0.00066  -0.00037  -0.00102  -1.12803
   D18        3.10016   0.00003  -0.00075   0.00032  -0.00042   3.09973
   D19       -0.98757   0.00001   0.00208  -0.00109   0.00099  -0.98658
   D20       -3.05132   0.00001   0.00185  -0.00023   0.00163  -3.04970
   D21        1.12899   0.00002   0.00167  -0.00003   0.00164   1.13063
   D22        1.12899   0.00002   0.00167  -0.00003   0.00164   1.13063
   D23       -0.93476   0.00002   0.00143   0.00084   0.00227  -0.93249
   D24       -3.03763   0.00002   0.00125   0.00104   0.00228  -3.03535
   D25       -3.05133   0.00001   0.00185  -0.00023   0.00163  -3.04970
   D26        1.16811   0.00001   0.00162   0.00064   0.00226   1.17037
   D27       -0.93476   0.00002   0.00143   0.00084   0.00227  -0.93249
   D28        0.98986   0.00007  -0.00095   0.00104   0.00009   0.98996
   D29        3.10016   0.00003  -0.00075   0.00032  -0.00043   3.09973
   D30       -1.12700  -0.00004  -0.00066  -0.00037  -0.00102  -1.12803
         Item               Value     Threshold  Converged?
 Maximum Force            0.000585     0.000450     NO 
 RMS     Force            0.000171     0.000300     YES
 Maximum Displacement     0.002549     0.001800     NO 
 RMS     Displacement     0.001032     0.001200     YES
 Predicted change in Energy=-4.066204D-06
 GradGradGradGradGradGradGradGradGradGradGradGradGradGradGradGradGradGrad

                          Input orientation:                          
 ---------------------------------------------------------------------
 Center     Atomic      Atomic             Coordinates (Angstroms)
 Number     Number       Type             X           Y           Z
 ---------------------------------------------------------------------
      1          6           0       -1.241495    0.645958   -0.047810
      2          6           0       -1.062078   -0.828455   -0.382767
      3          8           0        0.047720   -1.374389    0.327227
      4          6           0        1.241495   -0.645958    0.047810
      5          6           0        1.062078    0.828455    0.382768
      6          8           0       -0.047719    1.374389   -0.327227
      7          1           0       -1.504978    0.757714    1.014434
      8          1           0       -2.030055    1.093442   -0.656473
      9          1           0       -0.906310   -0.948745   -1.465146
     10          1           0       -1.938647   -1.407857   -0.085346
     11          1           0        1.504978   -0.757714   -1.014434
     12          1           0        2.030055   -1.093442    0.656473
     13          1           0        1.938646    1.407857    0.085346
     14          1           0        0.906309    0.948745    1.465146
 ---------------------------------------------------------------------
                    Distance matrix (angstroms):
                    1          2          3          4          5
     1  C    0.000000
     2  C    1.522590   0.000000
     3  O    2.425805   1.426109   0.000000
     4  C    2.800613   2.350564   1.426109   0.000000
     5  C    2.350564   2.800613   2.425805   1.522590   0.000000
     6  O    1.426109   2.425805   2.827225   2.425805   1.426109
     7  H    1.100126   2.159691   2.725617   3.232301   2.644576
     8  H    1.092034   2.169235   3.372685   3.771547   3.272846
     9  H    2.159691   1.100126   2.074595   2.644576   3.232301
    10  H    2.169235   1.092034   2.029036   3.272846   3.771547
    11  H    3.232301   2.644576   2.074595   1.100126   2.159691
    12  H    3.771547   3.272846   2.029036   1.092034   2.169236
    13  H    3.272846   3.771547   3.372685   2.169236   1.092034
    14  H    2.644576   3.232301   2.725617   2.159691   1.100126
                    6          7          8          9         10
     6  O    0.000000
     7  H    2.074595   0.000000
     8  H    2.029036   1.783354   0.000000
     9  H    2.725617   3.068994   2.467241   0.000000
    10  H    3.372685   2.467242   2.567301   1.783354   0.000000
    11  H    2.725617   3.933531   4.006416   2.460476   3.625526
    12  H    3.372685   4.006416   4.794870   3.625526   4.049659
    13  H    2.029036   3.625526   4.049659   4.006416   4.794870
    14  H    2.074595   2.460476   3.625526   3.933531   4.006416
                   11         12         13         14
    11  H    0.000000
    12  H    1.783354   0.000000
    13  H    2.467242   2.567302   0.000000
    14  H    3.068994   2.467242   1.783354   0.000000
 Stoichiometry    C4H8O2
 Framework group  C1[X(C4H8O2)]
 Deg. of freedom    36
 Full point group                 C1      NOp   1
 Largest Abelian subgroup         C1      NOp   1
 Largest concise Abelian subgroup C1      NOp   1
                         Standard orientation:                         
 ---------------------------------------------------------------------
 Center     Atomic      Atomic             Coordinates (Angstroms)
 Number     Number       Type             X           Y           Z
 ---------------------------------------------------------------------
      1          6           0       -1.175282   -0.736466   -0.192840
      2          6           0       -1.175282    0.736466    0.192840
      3          8           0       -0.000000    1.383350   -0.290938
      4          6           0        1.175282    0.736466    0.192840
      5          6           0        1.175282   -0.736466   -0.192840
      6          8           0        0.000000   -1.383350    0.290938
      7          1           0       -1.230238   -0.835460   -1.287123
      8          1           0       -2.024830   -1.258606    0.252332
      9          1           0       -1.230238    0.835460    1.287123
     10          1           0       -2.024830    1.258605   -0.252332
     11          1           0        1.230238    0.835460    1.287123
     12          1           0        2.024830    1.258606   -0.252332
     13          1           0        2.024830   -1.258606    0.252332
     14          1           0        1.230238   -0.835460   -1.287123
 ---------------------------------------------------------------------
 Rotational constants (GHZ):           5.0410217           4.6846540           2.7245798
 Standard basis: 6-311++G(d,p) (5D, 7F)
 There are   194 symmetry adapted cartesian basis functions of A   symmetry.
 There are   188 symmetry adapted basis functions of A   symmetry.
   188 basis functions,   288 primitive gaussians,   194 cartesian basis functions
    24 alpha electrons       24 beta electrons
       nuclear repulsion energy       263.6704250803 Hartrees.
 NAtoms=   14 NActive=   14 NUniq=   14 SFac= 1.00D+00 NAtFMM=   60 NAOKFM=F Big=F
 Integral buffers will be    131072 words long.
 Raffenetti 2 integral format.
 Two-electron integral symmetry is turned on.
 One-electron integrals computed using PRISM.
 NBasis=   188 RedAO= T EigKep=  1.85D-05  NBF=   188
 NBsUse=   188 1.00D-06 EigRej= -1.00D+00 NBFU=   188
 Initial guess from the checkpoint file:  "C1COCCO1.chk"
 B after Tr=    -0.000000    0.000000    0.000000
         Rot=    1.000000    0.000317   -0.000000    0.000000 Ang=   0.04 deg.
 Requested convergence on RMS density matrix=1.00D-08 within 128 cycles.
 Requested convergence on MAX density matrix=1.00D-06.
 Requested convergence on             energy=1.00D-06.
 No special actions if energy rises.
 SCF Done:  E(RB3LYP) =  -307.751907195     A.U. after    7 cycles
            NFock=  7  Conv=0.31D-08     -V/T= 2.0039
 Calling FoFJK, ICntrl=      2127 FMM=F ISym2X=0 I1Cent= 0 IOpClX= 0 NMat=1 NMatS=1 NMatT=0.
 ***** Axes restored to original set *****
 -------------------------------------------------------------------
 Center     Atomic                   Forces (Hartrees/Bohr)
 Number     Number              X              Y              Z
 -------------------------------------------------------------------
      1        6           0.000096296    0.000163480   -0.000042540
      2        6           0.000098263   -0.000148030    0.000078890
      3        8           0.000002280    0.000048472   -0.000032502
      4        6          -0.000096316   -0.000163523    0.000042503
      5        6          -0.000098378    0.000148123   -0.000078931
      6        8          -0.000002181   -0.000048508    0.000032560
      7        1          -0.000022263   -0.000047245   -0.000041487
      8        1          -0.000076444   -0.000027150    0.000010408
      9        1          -0.000042584    0.000042097    0.000029359
     10        1          -0.000070782    0.000015482   -0.000037922
     11        1           0.000022260    0.000047239    0.000041487
     12        1           0.000076446    0.000027164   -0.000010390
     13        1           0.000070808   -0.000015494    0.000037925
     14        1           0.000042596   -0.000042108   -0.000029359
 -------------------------------------------------------------------
 Cartesian Forces:  Max     0.000163523 RMS     0.000069463

 GradGradGradGradGradGradGradGradGradGradGradGradGradGradGradGradGradGrad
 Berny optimization.
 Using GEDIIS/GDIIS optimizer.
 FormGI is forming the generalized inverse of G from B-inverse, IUseBI=4.
 Internal  Forces:  Max     0.000064235 RMS     0.000030432
 Search for a local minimum.
 Step number   4 out of a maximum of   80
 All quantities printed in internal units (Hartrees-Bohrs-Radians)
 Mixed Optimization -- En-DIIS/RFO-DIIS
 Swapping is turned off.
 Update second derivatives using D2CorX and points    1    2    3    4
 DE= -4.02D-06 DEPred=-4.07D-06 R= 9.88D-01
 TightC=F SS=  1.41D+00  RLast= 1.01D-02 DXNew= 8.4853D-01 3.0348D-02
 Trust test= 9.88D-01 RLast= 1.01D-02 DXMaxT set to 5.05D-01
 ITU=  1  1  1  0
     Eigenvalues ---    0.00733   0.01020   0.01829   0.04040   0.04907
     Eigenvalues ---    0.05200   0.05354   0.05685   0.05901   0.06403
     Eigenvalues ---    0.06534   0.08721   0.10584   0.11003   0.11508
     Eigenvalues ---    0.11547   0.11661   0.11984   0.13895   0.17568
     Eigenvalues ---    0.18879   0.22851   0.28201   0.28242   0.33540
     Eigenvalues ---    0.34111   0.34112   0.34112   0.34356   0.34357
     Eigenvalues ---    0.34357   0.34482   0.36099   0.37772   0.37983
     Eigenvalues ---    0.40221
 En-DIIS/RFO-DIIS/Sim-DIIS IScMMF=       -3 using points:     4    3    2
 RFO step:  Lambda=-6.46770223D-07.
 DidBck=F Rises=F RFO-DIIS coefs:    0.85352    0.16984   -0.02336
 Iteration  1 RMS(Cart)=  0.00026398 RMS(Int)=  0.00000029
 Iteration  2 RMS(Cart)=  0.00000009 RMS(Int)=  0.00000028
 Variable       Old X    -DE/DX   Delta X   Delta X   Delta X     New X
                                 (Linear)    (Quad)   (Total)
    R1        2.87728   0.00005  -0.00023   0.00050   0.00027   2.87755
    R2        2.69496  -0.00001   0.00021  -0.00036  -0.00015   2.69480
    R3        2.07894  -0.00004  -0.00001  -0.00007  -0.00008   2.07886
    R4        2.06365   0.00004   0.00001   0.00008   0.00009   2.06374
    R5        2.69496  -0.00001   0.00021  -0.00036  -0.00015   2.69480
    R6        2.07894  -0.00004  -0.00001  -0.00007  -0.00008   2.07886
    R7        2.06365   0.00004   0.00001   0.00008   0.00009   2.06374
    R8        2.69496  -0.00001   0.00021  -0.00036  -0.00015   2.69480
    R9        2.87728   0.00005  -0.00023   0.00050   0.00027   2.87755
   R10        2.07894  -0.00004  -0.00001  -0.00007  -0.00008   2.07886
   R11        2.06365   0.00004   0.00001   0.00008   0.00009   2.06374
   R12        2.69496  -0.00001   0.00021  -0.00036  -0.00015   2.69480
   R13        2.06365   0.00004   0.00001   0.00008   0.00009   2.06374
   R14        2.07894  -0.00004  -0.00001  -0.00007  -0.00008   2.07886
    A1        1.93144   0.00000   0.00005   0.00004   0.00009   1.93153
    A2        1.91666  -0.00005  -0.00016  -0.00030  -0.00045   1.91621
    A3        1.93829  -0.00002   0.00003  -0.00021  -0.00017   1.93812
    A4        1.91535   0.00003  -0.00007   0.00034   0.00027   1.91562
    A5        1.86080   0.00004   0.00006   0.00051   0.00058   1.86137
    A6        1.90033  -0.00000   0.00009  -0.00037  -0.00028   1.90005
    A7        1.93144   0.00000   0.00005   0.00004   0.00009   1.93153
    A8        1.91666  -0.00005  -0.00016  -0.00030  -0.00045   1.91621
    A9        1.93829  -0.00002   0.00003  -0.00021  -0.00017   1.93812
   A10        1.91535   0.00003  -0.00007   0.00034   0.00027   1.91562
   A11        1.86080   0.00004   0.00006   0.00051   0.00058   1.86137
   A12        1.90033  -0.00000   0.00009  -0.00037  -0.00028   1.90005
   A13        1.93729   0.00001   0.00010   0.00003   0.00012   1.93741
   A14        1.93144   0.00000   0.00005   0.00004   0.00009   1.93153
   A15        1.91535   0.00003  -0.00007   0.00034   0.00027   1.91562
   A16        1.86080   0.00004   0.00006   0.00051   0.00058   1.86137
   A17        1.91666  -0.00005  -0.00016  -0.00030  -0.00045   1.91621
   A18        1.93829  -0.00002   0.00003  -0.00021  -0.00017   1.93812
   A19        1.90033  -0.00000   0.00009  -0.00037  -0.00028   1.90005
   A20        1.93144   0.00000   0.00005   0.00004   0.00009   1.93153
   A21        1.93829  -0.00002   0.00003  -0.00021  -0.00017   1.93812
   A22        1.91666  -0.00005  -0.00016  -0.00030  -0.00045   1.91621
   A23        1.86080   0.00004   0.00006   0.00052   0.00058   1.86137
   A24        1.91535   0.00003  -0.00007   0.00034   0.00027   1.91562
   A25        1.90033  -0.00000   0.00009  -0.00037  -0.00028   1.90005
   A26        1.93729   0.00001   0.00010   0.00003   0.00012   1.93741
    D1        0.98658  -0.00002  -0.00020  -0.00009  -0.00028   0.98630
    D2       -1.13063  -0.00003  -0.00003  -0.00034  -0.00038  -1.13101
    D3        3.04970   0.00002  -0.00007   0.00045   0.00038   3.05008
    D4       -1.13063  -0.00003  -0.00003  -0.00034  -0.00038  -1.13101
    D5        3.03535  -0.00004   0.00013  -0.00060  -0.00047   3.03487
    D6        0.93249   0.00001   0.00010   0.00019   0.00029   0.93277
    D7        3.04970   0.00002  -0.00007   0.00045   0.00038   3.05008
    D8        0.93249   0.00001   0.00010   0.00019   0.00029   0.93277
    D9       -1.17037   0.00006   0.00007   0.00098   0.00105  -1.16932
   D10       -0.98996   0.00002   0.00017   0.00009   0.00026  -0.98970
   D11        1.12803  -0.00002  -0.00004  -0.00003  -0.00007   1.12796
   D12       -3.09973   0.00002   0.00006   0.00001   0.00007  -3.09966
   D13       -0.98996   0.00002   0.00017   0.00009   0.00026  -0.98970
   D14        1.12803  -0.00002  -0.00004  -0.00003  -0.00007   1.12796
   D15       -3.09973   0.00002   0.00006   0.00001   0.00007  -3.09966
   D16        0.98996  -0.00002  -0.00017  -0.00009  -0.00026   0.98970
   D17       -1.12803   0.00002   0.00004   0.00003   0.00007  -1.12796
   D18        3.09973  -0.00002  -0.00006  -0.00001  -0.00007   3.09966
   D19       -0.98658   0.00002   0.00020   0.00009   0.00028  -0.98630
   D20       -3.04970  -0.00002   0.00007  -0.00045  -0.00038  -3.05008
   D21        1.13063   0.00003   0.00003   0.00034   0.00038   1.13101
   D22        1.13063   0.00003   0.00003   0.00034   0.00038   1.13101
   D23       -0.93249  -0.00001  -0.00010  -0.00019  -0.00029  -0.93277
   D24       -3.03535   0.00004  -0.00013   0.00060   0.00047  -3.03487
   D25       -3.04970  -0.00002   0.00007  -0.00045  -0.00038  -3.05008
   D26        1.17037  -0.00006  -0.00007  -0.00098  -0.00105   1.16932
   D27       -0.93249  -0.00001  -0.00010  -0.00019  -0.00029  -0.93278
   D28        0.98996  -0.00002  -0.00017  -0.00009  -0.00026   0.98970
   D29        3.09973  -0.00002  -0.00006  -0.00001  -0.00007   3.09966
   D30       -1.12803   0.00002   0.00004   0.00003   0.00007  -1.12796
         Item               Value     Threshold  Converged?
 Maximum Force            0.000064     0.000450     YES
 RMS     Force            0.000030     0.000300     YES
 Maximum Displacement     0.000692     0.001800     YES
 RMS     Displacement     0.000264     0.001200     YES
 Predicted change in Energy=-3.224624D-07
 Optimization completed.
    -- Stationary point found.
                           ----------------------------
                           !   Optimized Parameters   !
                           ! (Angstroms and Degrees)  !
 --------------------------                            --------------------------
 ! Name  Definition              Value          Derivative Info.                !
 --------------------------------------------------------------------------------
 ! R1    R(1,2)                  1.5226         -DE/DX =    0.0001              !
 ! R2    R(1,6)                  1.4261         -DE/DX =    0.0                 !
 ! R3    R(1,7)                  1.1001         -DE/DX =    0.0                 !
 ! R4    R(1,8)                  1.092          -DE/DX =    0.0                 !
 ! R5    R(2,3)                  1.4261         -DE/DX =    0.0                 !
 ! R6    R(2,9)                  1.1001         -DE/DX =    0.0                 !
 ! R7    R(2,10)                 1.092          -DE/DX =    0.0                 !
 ! R8    R(3,4)                  1.4261         -DE/DX =    0.0                 !
 ! R9    R(4,5)                  1.5226         -DE/DX =    0.0001              !
 ! R10   R(4,11)                 1.1001         -DE/DX =    0.0                 !
 ! R11   R(4,12)                 1.092          -DE/DX =    0.0                 !
 ! R12   R(5,6)                  1.4261         -DE/DX =    0.0                 !
 ! R13   R(5,13)                 1.092          -DE/DX =    0.0                 !
 ! R14   R(5,14)                 1.1001         -DE/DX =    0.0                 !
 ! A1    A(2,1,6)              110.6635         -DE/DX =    0.0                 !
 ! A2    A(2,1,7)              109.8165         -DE/DX =   -0.0001              !
 ! A3    A(2,1,8)              111.056          -DE/DX =    0.0                 !
 ! A4    A(6,1,7)              109.7416         -DE/DX =    0.0                 !
 ! A5    A(6,1,8)              106.6158         -DE/DX =    0.0                 !
 ! A6    A(7,1,8)              108.8809         -DE/DX =    0.0                 !
 ! A7    A(1,2,3)              110.6635         -DE/DX =    0.0                 !
 ! A8    A(1,2,9)              109.8165         -DE/DX =   -0.0001              !
 ! A9    A(1,2,10)             111.056          -DE/DX =    0.0                 !
 ! A10   A(3,2,9)              109.7416         -DE/DX =    0.0                 !
 ! A11   A(3,2,10)             106.6158         -DE/DX =    0.0                 !
 ! A12   A(9,2,10)             108.8809         -DE/DX =    0.0                 !
 ! A13   A(2,3,4)              110.9983         -DE/DX =    0.0                 !
 ! A14   A(3,4,5)              110.6635         -DE/DX =    0.0                 !
 ! A15   A(3,4,11)             109.7416         -DE/DX =    0.0                 !
 ! A16   A(3,4,12)             106.6158         -DE/DX =    0.0                 !
 ! A17   A(5,4,11)             109.8165         -DE/DX =   -0.0001              !
 ! A18   A(5,4,12)             111.056          -DE/DX =    0.0                 !
 ! A19   A(11,4,12)            108.8809         -DE/DX =    0.0                 !
 ! A20   A(4,5,6)              110.6635         -DE/DX =    0.0                 !
 ! A21   A(4,5,13)             111.056          -DE/DX =    0.0                 !
 ! A22   A(4,5,14)             109.8165         -DE/DX =   -0.0001              !
 ! A23   A(6,5,13)             106.6158         -DE/DX =    0.0                 !
 ! A24   A(6,5,14)             109.7416         -DE/DX =    0.0                 !
 ! A25   A(13,5,14)            108.8809         -DE/DX =    0.0                 !
 ! A26   A(1,6,5)              110.9983         -DE/DX =    0.0                 !
 ! D1    D(6,1,2,3)             56.527          -DE/DX =    0.0                 !
 ! D2    D(6,1,2,9)            -64.7803         -DE/DX =    0.0                 !
 ! D3    D(6,1,2,10)           174.7349         -DE/DX =    0.0                 !
 ! D4    D(7,1,2,3)            -64.7803         -DE/DX =    0.0                 !
 ! D5    D(7,1,2,9)            173.9125         -DE/DX =    0.0                 !
 ! D6    D(7,1,2,10)            53.4276         -DE/DX =    0.0                 !
 ! D7    D(8,1,2,3)            174.7349         -DE/DX =    0.0                 !
 ! D8    D(8,1,2,9)             53.4276         -DE/DX =    0.0                 !
 ! D9    D(8,1,2,10)           -67.0572         -DE/DX =    0.0001              !
 ! D10   D(2,1,6,5)            -56.7204         -DE/DX =    0.0                 !
 ! D11   D(7,1,6,5)             64.6311         -DE/DX =    0.0                 !
 ! D12   D(8,1,6,5)           -177.6015         -DE/DX =    0.0                 !
 ! D13   D(1,2,3,4)            -56.7204         -DE/DX =    0.0                 !
 ! D14   D(9,2,3,4)             64.6311         -DE/DX =    0.0                 !
 ! D15   D(10,2,3,4)          -177.6015         -DE/DX =    0.0                 !
 ! D16   D(2,3,4,5)             56.7204         -DE/DX =    0.0                 !
 ! D17   D(2,3,4,11)           -64.6311         -DE/DX =    0.0                 !
 ! D18   D(2,3,4,12)           177.6015         -DE/DX =    0.0                 !
 ! D19   D(3,4,5,6)            -56.527          -DE/DX =    0.0                 !
 ! D20   D(3,4,5,13)          -174.7349         -DE/DX =    0.0                 !
 ! D21   D(3,4,5,14)            64.7802         -DE/DX =    0.0                 !
 ! D22   D(11,4,5,6)            64.7802         -DE/DX =    0.0                 !
 ! D23   D(11,4,5,13)          -53.4276         -DE/DX =    0.0                 !
 ! D24   D(11,4,5,14)         -173.9125         -DE/DX =    0.0                 !
 ! D25   D(12,4,5,6)          -174.7349         -DE/DX =    0.0                 !
 ! D26   D(12,4,5,13)           67.0572         -DE/DX =   -0.0001              !
 ! D27   D(12,4,5,14)          -53.4277         -DE/DX =    0.0                 !
 ! D28   D(4,5,6,1)             56.7204         -DE/DX =    0.0                 !
 ! D29   D(13,5,6,1)           177.6015         -DE/DX =    0.0                 !
 ! D30   D(14,5,6,1)           -64.6311         -DE/DX =    0.0                 !
 --------------------------------------------------------------------------------
 GradGradGradGradGradGradGradGradGradGradGradGradGradGradGradGradGradGrad

                          Input orientation:                          
 ---------------------------------------------------------------------
 Center     Atomic      Atomic             Coordinates (Angstroms)
 Number     Number       Type             X           Y           Z
 ---------------------------------------------------------------------
      1          6           0       -1.241495    0.645958   -0.047810
      2          6           0       -1.062078   -0.828455   -0.382767
      3          8           0        0.047720   -1.374389    0.327227
      4          6           0        1.241495   -0.645958    0.047810
      5          6           0        1.062078    0.828455    0.382768
      6          8           0       -0.047719    1.374389   -0.327227
      7          1           0       -1.504978    0.757714    1.014434
      8          1           0       -2.030055    1.093442   -0.656473
      9          1           0       -0.906310   -0.948745   -1.465146
     10          1           0       -1.938647   -1.407857   -0.085346
     11          1           0        1.504978   -0.757714   -1.014434
     12          1           0        2.030055   -1.093442    0.656473
     13          1           0        1.938646    1.407857    0.085346
     14          1           0        0.906309    0.948745    1.465146
 ---------------------------------------------------------------------
                    Distance matrix (angstroms):
                    1          2          3          4          5
     1  C    0.000000
     2  C    1.522590   0.000000
     3  O    2.425805   1.426109   0.000000
     4  C    2.800613   2.350564   1.426109   0.000000
     5  C    2.350564   2.800613   2.425805   1.522590   0.000000
     6  O    1.426109   2.425805   2.827225   2.425805   1.426109
     7  H    1.100126   2.159691   2.725617   3.232301   2.644576
     8  H    1.092034   2.169235   3.372685   3.771547   3.272846
     9  H    2.159691   1.100126   2.074595   2.644576   3.232301
    10  H    2.169235   1.092034   2.029036   3.272846   3.771547
    11  H    3.232301   2.644576   2.074595   1.100126   2.159691
    12  H    3.771547   3.272846   2.029036   1.092034   2.169236
    13  H    3.272846   3.771547   3.372685   2.169236   1.092034
    14  H    2.644576   3.232301   2.725617   2.159691   1.100126
                    6          7          8          9         10
     6  O    0.000000
     7  H    2.074595   0.000000
     8  H    2.029036   1.783354   0.000000
     9  H    2.725617   3.068994   2.467241   0.000000
    10  H    3.372685   2.467242   2.567301   1.783354   0.000000
    11  H    2.725617   3.933531   4.006416   2.460476   3.625526
    12  H    3.372685   4.006416   4.794870   3.625526   4.049659
    13  H    2.029036   3.625526   4.049659   4.006416   4.794870
    14  H    2.074595   2.460476   3.625526   3.933531   4.006416
                   11         12         13         14
    11  H    0.000000
    12  H    1.783354   0.000000
    13  H    2.467242   2.567302   0.000000
    14  H    3.068994   2.467242   1.783354   0.000000
 Stoichiometry    C4H8O2
 Framework group  C1[X(C4H8O2)]
 Deg. of freedom    36
 Full point group                 C1      NOp   1
 Largest Abelian subgroup         C1      NOp   1
 Largest concise Abelian subgroup C1      NOp   1
                         Standard orientation:                         
 ---------------------------------------------------------------------
 Center     Atomic      Atomic             Coordinates (Angstroms)
 Number     Number       Type             X           Y           Z
 ---------------------------------------------------------------------
      1          6           0       -1.175282   -0.736466   -0.192840
      2          6           0       -1.175282    0.736466    0.192840
      3          8           0       -0.000000    1.383350   -0.290938
      4          6           0        1.175282    0.736466    0.192840
      5          6           0        1.175282   -0.736466   -0.192840
      6          8           0        0.000000   -1.383350    0.290938
      7          1           0       -1.230238   -0.835460   -1.287123
      8          1           0       -2.024830   -1.258606    0.252332
      9          1           0       -1.230238    0.835460    1.287123
     10          1           0       -2.024830    1.258605   -0.252332
     11          1           0        1.230238    0.835460    1.287123
     12          1           0        2.024830    1.258606   -0.252332
     13          1           0        2.024830   -1.258606    0.252332
     14          1           0        1.230238   -0.835460   -1.287123
 ---------------------------------------------------------------------
 Rotational constants (GHZ):           5.0410217           4.6846540           2.7245798

 **********************************************************************

            Population analysis using the SCF Density.

 **********************************************************************

 Orbital symmetries:
       Occupied  (A) (A) (A) (A) (A) (A) (A) (A) (A) (A) (A) (A)
                 (A) (A) (A) (A) (A) (A) (A) (A) (A) (A) (A) (A)
       Virtual   (A) (A) (A) (A) (A) (A) (A) (A) (A) (A) (A) (A)
                 (A) (A) (A) (A) (A) (A) (A) (A) (A) (A) (A) (A)
                 (A) (A) (A) (A) (A) (A) (A) (A) (A) (A) (A) (A)
                 (A) (A) (A) (A) (A) (A) (A) (A) (A) (A) (A) (A)
                 (A) (A) (A) (A) (A) (A) (A) (A) (A) (A) (A) (A)
                 (A) (A) (A) (A) (A) (A) (A) (A) (A) (A) (A) (A)
                 (A) (A) (A) (A) (A) (A) (A) (A) (A) (A) (A) (A)
                 (A) (A) (A) (A) (A) (A) (A) (A) (A) (A) (A) (A)
                 (A) (A) (A) (A) (A) (A) (A) (A) (A) (A) (A) (A)
                 (A) (A) (A) (A) (A) (A) (A) (A) (A) (A) (A) (A)
                 (A) (A) (A) (A) (A) (A) (A) (A) (A) (A) (A) (A)
                 (A) (A) (A) (A) (A) (A) (A) (A) (A) (A) (A) (A)
                 (A) (A) (A) (A) (A) (A) (A) (A) (A) (A) (A) (A)
                 (A) (A) (A) (A) (A) (A) (A) (A)
 The electronic state is 1-A.
 Alpha  occ. eigenvalues --  -19.13281 -19.13281 -10.22305 -10.22305 -10.22283
 Alpha  occ. eigenvalues --  -10.22281  -1.06310  -1.02554  -0.78800  -0.70317
 Alpha  occ. eigenvalues --   -0.67217  -0.58544  -0.51400  -0.48899  -0.48584
 Alpha  occ. eigenvalues --   -0.48358  -0.45394  -0.40809  -0.37970  -0.37410
 Alpha  occ. eigenvalues --   -0.37251  -0.31051  -0.29327  -0.25027
 Alpha virt. eigenvalues --   -0.00561   0.00605   0.00792   0.02346   0.03286
 Alpha virt. eigenvalues --    0.03697   0.03914   0.04504   0.07072   0.07382
 Alpha virt. eigenvalues --    0.07639   0.09753   0.09882   0.10959   0.11499
 Alpha virt. eigenvalues --    0.12073   0.12529   0.13356   0.13381   0.13871
 Alpha virt. eigenvalues --    0.14334   0.15092   0.15609   0.16357   0.16490
 Alpha virt. eigenvalues --    0.16523   0.20791   0.21637   0.21822   0.21829
 Alpha virt. eigenvalues --    0.23170   0.25192   0.27104   0.27115   0.27164
 Alpha virt. eigenvalues --    0.29990   0.30525   0.31433   0.32097   0.32162
 Alpha virt. eigenvalues --    0.33140   0.34579   0.34612   0.36510   0.37889
 Alpha virt. eigenvalues --    0.38768   0.45899   0.47950   0.48786   0.49960
 Alpha virt. eigenvalues --    0.55379   0.55634   0.58542   0.59205   0.61186
 Alpha virt. eigenvalues --    0.64260   0.65063   0.65898   0.67328   0.67328
 Alpha virt. eigenvalues --    0.68826   0.70505   0.70995   0.72701   0.73285
 Alpha virt. eigenvalues --    0.87593   0.89500   0.91837   0.95576   1.03119
 Alpha virt. eigenvalues --    1.03756   1.03928   1.05093   1.16071   1.18599
 Alpha virt. eigenvalues --    1.20035   1.22136   1.25690   1.26151   1.33965
 Alpha virt. eigenvalues --    1.34069   1.36053   1.49471   1.50316   1.52703
 Alpha virt. eigenvalues --    1.52885   1.56349   1.57389   1.57988   1.58861
 Alpha virt. eigenvalues --    1.61503   1.62590   1.65896   1.67990   1.69108
 Alpha virt. eigenvalues --    1.69851   1.71391   1.72705   1.77017   1.77044
 Alpha virt. eigenvalues --    1.84253   1.88038   1.89858   1.95374   1.97896
 Alpha virt. eigenvalues --    1.98694   2.08962   2.10693   2.10700   2.12684
 Alpha virt. eigenvalues --    2.17136   2.22538   2.28263   2.28783   2.39403
 Alpha virt. eigenvalues --    2.44614   2.48012   2.50356   2.51384   2.54707
 Alpha virt. eigenvalues --    2.59310   2.59583   2.67652   2.68034   2.68105
 Alpha virt. eigenvalues --    2.76326   2.78213   2.79072   2.80917   2.90671
 Alpha virt. eigenvalues --    2.92095   2.94758   2.97807   2.99041   3.08653
 Alpha virt. eigenvalues --    3.11556   3.17166   3.18456   3.24603   3.31117
 Alpha virt. eigenvalues --    3.35060   3.37310   3.74374   3.80372   3.83563
 Alpha virt. eigenvalues --    3.85010   3.96427   4.05850   4.06023   4.07611
 Alpha virt. eigenvalues --    4.16897   4.30347   5.07639   5.12133   5.35071
 Alpha virt. eigenvalues --    5.40308   5.65359   5.65400  23.81064  23.85668
 Alpha virt. eigenvalues --   23.89644  23.89908  49.88265  49.93181
          Condensed to atoms (all electrons):
               1          2          3          4          5          6
     1  C    5.565114  -0.046662  -0.089543   0.243933  -0.346864   0.238778
     2  C   -0.046662   5.565113   0.238778  -0.346864   0.243933  -0.089543
     3  O   -0.089543   0.238778   8.119781   0.238778  -0.089543  -0.025853
     4  C    0.243933  -0.346864   0.238778   5.565114  -0.046662  -0.089543
     5  C   -0.346864   0.243933  -0.089543  -0.046662   5.565114   0.238778
     6  O    0.238778  -0.089543  -0.025853  -0.089543   0.238778   8.119781
     7  H    0.392003  -0.080503   0.001613  -0.014243  -0.024502  -0.040985
     8  H    0.373603  -0.012036   0.005764  -0.004267   0.032040  -0.089214
     9  H   -0.080503   0.392003  -0.040985  -0.024503  -0.014243   0.001613
    10  H   -0.012036   0.373603  -0.089214   0.032040  -0.004267   0.005764
    11  H   -0.014243  -0.024503  -0.040985   0.392003  -0.080503   0.001613
    12  H   -0.004267   0.032040  -0.089214   0.373603  -0.012035   0.005764
    13  H    0.032040  -0.004267   0.005764  -0.012035   0.373603  -0.089214
    14  H   -0.024502  -0.014243   0.001613  -0.080503   0.392003  -0.040985
               7          8          9         10         11         12
     1  C    0.392003   0.373603  -0.080503  -0.012036  -0.014243  -0.004267
     2  C   -0.080503  -0.012036   0.392003   0.373603  -0.024503   0.032040
     3  O    0.001613   0.005764  -0.040985  -0.089214  -0.040985  -0.089214
     4  C   -0.014243  -0.004267  -0.024503   0.032040   0.392003   0.373603
     5  C   -0.024502   0.032040  -0.014243  -0.004267  -0.080503  -0.012035
     6  O   -0.040985  -0.089214   0.001613   0.005764   0.001613   0.005764
     7  H    0.632246  -0.039454   0.011204  -0.006723   0.005031  -0.001669
     8  H   -0.039454   0.573291  -0.006723   0.010265  -0.001669   0.001734
     9  H    0.011204  -0.006723   0.632246  -0.039454   0.034344  -0.008456
    10  H   -0.006723   0.010265  -0.039454   0.573291  -0.008456   0.004989
    11  H    0.005031  -0.001669   0.034344  -0.008456   0.632246  -0.039454
    12  H   -0.001669   0.001734  -0.008456   0.004989  -0.039454   0.573291
    13  H   -0.008456   0.004989  -0.001669   0.001734  -0.006723   0.010265
    14  H    0.034344  -0.008456   0.005031  -0.001669   0.011204  -0.006723
              13         14
     1  C    0.032040  -0.024502
     2  C   -0.004267  -0.014243
     3  O    0.005764   0.001613
     4  C   -0.012035  -0.080503
     5  C    0.373603   0.392003
     6  O   -0.089214  -0.040985
     7  H   -0.008456   0.034344
     8  H    0.004989  -0.008456
     9  H   -0.001669   0.005031
    10  H    0.001734  -0.001669
    11  H   -0.006723   0.011204
    12  H    0.010265  -0.006723
    13  H    0.573291  -0.039454
    14  H   -0.039454   0.632246
 Mulliken charges:
               1
     1  C   -0.226850
     2  C   -0.226850
     3  O   -0.146756
     4  C   -0.226850
     5  C   -0.226850
     6  O   -0.146756
     7  H    0.140095
     8  H    0.160133
     9  H    0.140095
    10  H    0.160133
    11  H    0.140095
    12  H    0.160133
    13  H    0.160133
    14  H    0.140095
 Sum of Mulliken charges =  -0.00000
 Mulliken charges with hydrogens summed into heavy atoms:
               1
     1  C    0.073378
     2  C    0.073378
     3  O   -0.146756
     4  C    0.073378
     5  C    0.073378
     6  O   -0.146756
 Electronic spatial extent (au):  <R**2>=            502.8713
 Charge=             -0.0000 electrons
 Dipole moment (field-independent basis, Debye):
    X=              0.0000    Y=              0.0000    Z=             -0.0000  Tot=              0.0000
 Quadrupole moment (field-independent basis, Debye-Ang):
   XX=            -30.9296   YY=            -43.4847   ZZ=            -37.6035
   XY=              0.0000   XZ=             -0.0000   YZ=              2.5436
 Traceless Quadrupole moment (field-independent basis, Debye-Ang):
   XX=              6.4097   YY=             -6.1454   ZZ=             -0.2642
   XY=              0.0000   XZ=             -0.0000   YZ=              2.5436
 Octapole moment (field-independent basis, Debye-Ang**2):
  XXX=              0.0000  YYY=              0.0000  ZZZ=             -0.0000  XYY=              0.0000
  XXY=              0.0000  XXZ=              0.0000  XZZ=              0.0000  YZZ=             -0.0000
  YYZ=             -0.0000  XYZ=              0.0000
 Hexadecapole moment (field-independent basis, Debye-Ang**3):
 XXXX=           -290.4148 YYYY=           -300.0809 ZZZZ=            -81.5133 XXXY=             -0.0000
 XXXZ=              0.0000 YYYX=              0.0000 YYYZ=              1.1938 ZZZX=             -0.0000
 ZZZY=              1.2868 XXYY=            -85.6343 XXZZ=            -63.9047 YYZZ=            -61.2571
 XXYZ=             -5.2673 YYXZ=             -0.0000 ZZXY=             -0.0000
 N-N= 2.636704250803D+02 E-N=-1.247384499720D+03  KE= 3.065515474748D+02
 ******************************Gaussian NBO Version 3.1******************************
             N A T U R A L   A T O M I C   O R B I T A L   A N D
          N A T U R A L   B O N D   O R B I T A L   A N A L Y S I S
 ******************************Gaussian NBO Version 3.1******************************
       /RESON  / : Allow strongly delocalized NBO set

 Analyzing the SCF density

 Job title: C1COCCO1                                                        

 Storage needed:    106904 in NPA,    142158 in NBO (1258290080 available)
 GSVD:  LWork=        9360 too small for GESVD, short by       41600 words or       41600 for optimal perf.


 NATURAL POPULATIONS:  Natural atomic orbital occupancies 
                                                          
   NAO  Atom  No  lang   Type(AO)    Occupancy      Energy
 ----------------------------------------------------------
     1    C    1  S      Cor( 1S)     1.99919     -10.09837
     2    C    1  S      Val( 2S)     1.01836      -0.24739
     3    C    1  S      Ryd( 4S)     0.00231       1.02187
     4    C    1  S      Ryd( 3S)     0.00028       0.96507
     5    C    1  S      Ryd( 5S)     0.00001      23.15149
     6    C    1  px     Val( 2p)     0.89106      -0.08283
     7    C    1  px     Ryd( 4p)     0.00318       0.78163
     8    C    1  px     Ryd( 3p)     0.00040       0.47079
     9    C    1  px     Ryd( 5p)     0.00011       2.75940
    10    C    1  py     Val( 2p)     1.00001      -0.09160
    11    C    1  py     Ryd( 4p)     0.00427       0.74756
    12    C    1  py     Ryd( 3p)     0.00022       0.52595
    13    C    1  py     Ryd( 5p)     0.00019       2.65868
    14    C    1  pz     Val( 2p)     1.12287      -0.09603
    15    C    1  pz     Ryd( 4p)     0.00225       0.78339
    16    C    1  pz     Ryd( 3p)     0.00032       0.56328
    17    C    1  pz     Ryd( 5p)     0.00011       2.72780
    18    C    1  dxy    Ryd( 3d)     0.00185       2.05220
    19    C    1  dxz    Ryd( 3d)     0.00153       1.93513
    20    C    1  dyz    Ryd( 3d)     0.00080       1.94280
    21    C    1  dx2y2  Ryd( 3d)     0.00155       2.14936
    22    C    1  dz2    Ryd( 3d)     0.00161       2.22129
 
    23    C    2  S      Cor( 1S)     1.99919     -10.09837
    24    C    2  S      Val( 2S)     1.01836      -0.24739
    25    C    2  S      Ryd( 4S)     0.00231       1.02187
    26    C    2  S      Ryd( 3S)     0.00028       0.96507
    27    C    2  S      Ryd( 5S)     0.00001      23.15149
    28    C    2  px     Val( 2p)     0.89106      -0.08283
    29    C    2  px     Ryd( 4p)     0.00318       0.78163
    30    C    2  px     Ryd( 3p)     0.00040       0.47079
    31    C    2  px     Ryd( 5p)     0.00011       2.75940
    32    C    2  py     Val( 2p)     1.00001      -0.09160
    33    C    2  py     Ryd( 4p)     0.00427       0.74756
    34    C    2  py     Ryd( 3p)     0.00022       0.52595
    35    C    2  py     Ryd( 5p)     0.00019       2.65868
    36    C    2  pz     Val( 2p)     1.12287      -0.09603
    37    C    2  pz     Ryd( 4p)     0.00225       0.78339
    38    C    2  pz     Ryd( 3p)     0.00032       0.56328
    39    C    2  pz     Ryd( 5p)     0.00011       2.72780
    40    C    2  dxy    Ryd( 3d)     0.00185       2.05220
    41    C    2  dxz    Ryd( 3d)     0.00153       1.93513
    42    C    2  dyz    Ryd( 3d)     0.00080       1.94280
    43    C    2  dx2y2  Ryd( 3d)     0.00155       2.14936
    44    C    2  dz2    Ryd( 3d)     0.00161       2.22129
 
    45    O    3  S      Cor( 1S)     1.99979     -18.93483
    46    O    3  S      Val( 2S)     1.62792      -0.86616
    47    O    3  S      Ryd( 3S)     0.00418       0.72964
    48    O    3  S      Ryd( 4S)     0.00025       1.38082
    49    O    3  S      Ryd( 5S)     0.00000      49.64403
    50    O    3  px     Val( 2p)     1.34243      -0.27916
    51    O    3  px     Ryd( 3p)     0.00321       0.81535
    52    O    3  px     Ryd( 4p)     0.00113       0.90692
    53    O    3  px     Ryd( 5p)     0.00002       5.20438
    54    O    3  py     Val( 2p)     1.77388      -0.30953
    55    O    3  py     Ryd( 3p)     0.00531       0.55301
    56    O    3  py     Ryd( 4p)     0.00090       0.90618
    57    O    3  py     Ryd( 5p)     0.00005       5.07275
    58    O    3  pz     Val( 2p)     1.83137      -0.30211
    59    O    3  pz     Ryd( 3p)     0.00268       0.50901
    60    O    3  pz     Ryd( 4p)     0.00070       0.87488
    61    O    3  pz     Ryd( 5p)     0.00002       5.02578
    62    O    3  dxy    Ryd( 3d)     0.00088       3.36891
    63    O    3  dxz    Ryd( 3d)     0.00054       3.19635
    64    O    3  dyz    Ryd( 3d)     0.00087       3.07627
    65    O    3  dx2y2  Ryd( 3d)     0.00063       3.17734
    66    O    3  dz2    Ryd( 3d)     0.00074       3.09453
 
    67    C    4  S      Cor( 1S)     1.99919     -10.09837
    68    C    4  S      Val( 2S)     1.01836      -0.24739
    69    C    4  S      Ryd( 4S)     0.00231       1.02187
    70    C    4  S      Ryd( 3S)     0.00028       0.96507
    71    C    4  S      Ryd( 5S)     0.00001      23.15149
    72    C    4  px     Val( 2p)     0.89106      -0.08283
    73    C    4  px     Ryd( 4p)     0.00318       0.78163
    74    C    4  px     Ryd( 3p)     0.00040       0.47079
    75    C    4  px     Ryd( 5p)     0.00011       2.75940
    76    C    4  py     Val( 2p)     1.00001      -0.09160
    77    C    4  py     Ryd( 4p)     0.00427       0.74756
    78    C    4  py     Ryd( 3p)     0.00022       0.52595
    79    C    4  py     Ryd( 5p)     0.00019       2.65868
    80    C    4  pz     Val( 2p)     1.12287      -0.09603
    81    C    4  pz     Ryd( 4p)     0.00225       0.78339
    82    C    4  pz     Ryd( 3p)     0.00032       0.56328
    83    C    4  pz     Ryd( 5p)     0.00011       2.72780
    84    C    4  dxy    Ryd( 3d)     0.00185       2.05220
    85    C    4  dxz    Ryd( 3d)     0.00153       1.93513
    86    C    4  dyz    Ryd( 3d)     0.00080       1.94280
    87    C    4  dx2y2  Ryd( 3d)     0.00155       2.14936
    88    C    4  dz2    Ryd( 3d)     0.00161       2.22129
 
    89    C    5  S      Cor( 1S)     1.99919     -10.09837
    90    C    5  S      Val( 2S)     1.01836      -0.24739
    91    C    5  S      Ryd( 4S)     0.00231       1.02187
    92    C    5  S      Ryd( 3S)     0.00028       0.96507
    93    C    5  S      Ryd( 5S)     0.00001      23.15149
    94    C    5  px     Val( 2p)     0.89106      -0.08283
    95    C    5  px     Ryd( 4p)     0.00318       0.78163
    96    C    5  px     Ryd( 3p)     0.00040       0.47079
    97    C    5  px     Ryd( 5p)     0.00011       2.75940
    98    C    5  py     Val( 2p)     1.00001      -0.09160
    99    C    5  py     Ryd( 4p)     0.00427       0.74756
   100    C    5  py     Ryd( 3p)     0.00022       0.52595
   101    C    5  py     Ryd( 5p)     0.00019       2.65868
   102    C    5  pz     Val( 2p)     1.12287      -0.09603
   103    C    5  pz     Ryd( 4p)     0.00225       0.78339
   104    C    5  pz     Ryd( 3p)     0.00032       0.56328
   105    C    5  pz     Ryd( 5p)     0.00011       2.72780
   106    C    5  dxy    Ryd( 3d)     0.00185       2.05220
   107    C    5  dxz    Ryd( 3d)     0.00153       1.93513
   108    C    5  dyz    Ryd( 3d)     0.00080       1.94281
   109    C    5  dx2y2  Ryd( 3d)     0.00155       2.14936
   110    C    5  dz2    Ryd( 3d)     0.00161       2.22129
 
   111    O    6  S      Cor( 1S)     1.99979     -18.93483
   112    O    6  S      Val( 2S)     1.62792      -0.86616
   113    O    6  S      Ryd( 3S)     0.00418       0.72964
   114    O    6  S      Ryd( 4S)     0.00025       1.38082
   115    O    6  S      Ryd( 5S)     0.00000      49.64403
   116    O    6  px     Val( 2p)     1.34243      -0.27916
   117    O    6  px     Ryd( 3p)     0.00321       0.81535
   118    O    6  px     Ryd( 4p)     0.00113       0.90692
   119    O    6  px     Ryd( 5p)     0.00002       5.20438
   120    O    6  py     Val( 2p)     1.77388      -0.30953
   121    O    6  py     Ryd( 3p)     0.00531       0.55301
   122    O    6  py     Ryd( 4p)     0.00090       0.90618
   123    O    6  py     Ryd( 5p)     0.00005       5.07275
   124    O    6  pz     Val( 2p)     1.83137      -0.30211
   125    O    6  pz     Ryd( 3p)     0.00268       0.50901
   126    O    6  pz     Ryd( 4p)     0.00070       0.87488
   127    O    6  pz     Ryd( 5p)     0.00002       5.02578
   128    O    6  dxy    Ryd( 3d)     0.00088       3.36891
   129    O    6  dxz    Ryd( 3d)     0.00054       3.19635
   130    O    6  dyz    Ryd( 3d)     0.00087       3.07627
   131    O    6  dx2y2  Ryd( 3d)     0.00063       3.17734
   132    O    6  dz2    Ryd( 3d)     0.00074       3.09453
 
   133    H    7  S      Val( 1S)     0.83541       0.00752
   134    H    7  S      Ryd( 2S)     0.00187       0.79996
   135    H    7  S      Ryd( 4S)     0.00022       1.36831
   136    H    7  S      Ryd( 3S)     0.00016       0.89557
   137    H    7  px     Ryd( 2p)     0.00010       1.83449
   138    H    7  py     Ryd( 2p)     0.00024       1.81568
   139    H    7  pz     Ryd( 2p)     0.00046       2.69779
 
   140    H    8  S      Val( 1S)     0.80823       0.01947
   141    H    8  S      Ryd( 2S)     0.00106       0.55010
   142    H    8  S      Ryd( 3S)     0.00014       0.84448
   143    H    8  S      Ryd( 4S)     0.00010       1.57079
   144    H    8  px     Ryd( 2p)     0.00029       2.37260
   145    H    8  py     Ryd( 2p)     0.00031       1.96490
   146    H    8  pz     Ryd( 2p)     0.00018       1.94436
 
   147    H    9  S      Val( 1S)     0.83541       0.00752
   148    H    9  S      Ryd( 2S)     0.00187       0.79996
   149    H    9  S      Ryd( 4S)     0.00022       1.36831
   150    H    9  S      Ryd( 3S)     0.00016       0.89557
   151    H    9  px     Ryd( 2p)     0.00010       1.83449
   152    H    9  py     Ryd( 2p)     0.00024       1.81568
   153    H    9  pz     Ryd( 2p)     0.00046       2.69779
 
   154    H   10  S      Val( 1S)     0.80823       0.01947
   155    H   10  S      Ryd( 2S)     0.00106       0.55010
   156    H   10  S      Ryd( 3S)     0.00014       0.84448
   157    H   10  S      Ryd( 4S)     0.00010       1.57079
   158    H   10  px     Ryd( 2p)     0.00029       2.37260
   159    H   10  py     Ryd( 2p)     0.00031       1.96490
   160    H   10  pz     Ryd( 2p)     0.00018       1.94436
 
   161    H   11  S      Val( 1S)     0.83541       0.00752
   162    H   11  S      Ryd( 2S)     0.00187       0.79996
   163    H   11  S      Ryd( 4S)     0.00022       1.36831
   164    H   11  S      Ryd( 3S)     0.00016       0.89557
   165    H   11  px     Ryd( 2p)     0.00010       1.83449
   166    H   11  py     Ryd( 2p)     0.00024       1.81568
   167    H   11  pz     Ryd( 2p)     0.00046       2.69779
 
   168    H   12  S      Val( 1S)     0.80823       0.01947
   169    H   12  S      Ryd( 2S)     0.00106       0.55010
   170    H   12  S      Ryd( 3S)     0.00014       0.84447
   171    H   12  S      Ryd( 4S)     0.00010       1.57079
   172    H   12  px     Ryd( 2p)     0.00029       2.37260
   173    H   12  py     Ryd( 2p)     0.00031       1.96490
   174    H   12  pz     Ryd( 2p)     0.00018       1.94436
 
   175    H   13  S      Val( 1S)     0.80823       0.01947
   176    H   13  S      Ryd( 2S)     0.00106       0.55010
   177    H   13  S      Ryd( 3S)     0.00014       0.84447
   178    H   13  S      Ryd( 4S)     0.00010       1.57079
   179    H   13  px     Ryd( 2p)     0.00029       2.37260
   180    H   13  py     Ryd( 2p)     0.00031       1.96490
   181    H   13  pz     Ryd( 2p)     0.00018       1.94436
 
   182    H   14  S      Val( 1S)     0.83541       0.00752
   183    H   14  S      Ryd( 2S)     0.00187       0.79996
   184    H   14  S      Ryd( 4S)     0.00022       1.36831
   185    H   14  S      Ryd( 3S)     0.00016       0.89557
   186    H   14  px     Ryd( 2p)     0.00010       1.83449
   187    H   14  py     Ryd( 2p)     0.00024       1.81568
   188    H   14  pz     Ryd( 2p)     0.00046       2.69779

 WARNING:  Population inversion found on atom  C    1
           Population inversion found on atom  C    2
           Population inversion found on atom  C    4
           Population inversion found on atom  C    5
           Population inversion found on atom  H    7
           Population inversion found on atom  H    9
           Population inversion found on atom  H   11
           Population inversion found on atom  H   14


 Summary of Natural Population Analysis:                  
                                                          
                                       Natural Population 
                Natural  -----------------------------------------------
    Atom  No    Charge         Core      Valence    Rydberg      Total
 -----------------------------------------------------------------------
      C    1   -0.05249      1.99919     4.03230    0.02099     6.05249
      C    2   -0.05249      1.99919     4.03230    0.02099     6.05249
      O    3   -0.59751      1.99979     6.57561    0.02212     8.59751
      C    4   -0.05249      1.99919     4.03230    0.02099     6.05249
      C    5   -0.05249      1.99919     4.03230    0.02099     6.05249
      O    6   -0.59751      1.99979     6.57561    0.02212     8.59751
      H    7    0.16155      0.00000     0.83541    0.00304     0.83845
      H    8    0.18969      0.00000     0.80823    0.00208     0.81031
      H    9    0.16155      0.00000     0.83541    0.00304     0.83845
      H   10    0.18969      0.00000     0.80823    0.00208     0.81031
      H   11    0.16155      0.00000     0.83541    0.00304     0.83845
      H   12    0.18969      0.00000     0.80823    0.00208     0.81031
      H   13    0.18969      0.00000     0.80823    0.00208     0.81031
      H   14    0.16155      0.00000     0.83541    0.00304     0.83845
 =======================================================================
   * Total *    0.00000     11.99636    35.85498    0.14866    48.00000

                                 Natural Population      
 --------------------------------------------------------
   Core                      11.99636 ( 99.9696% of  12)
   Valence                   35.85498 ( 99.5972% of  36)
   Natural Minimal Basis     47.85134 ( 99.6903% of  48)
   Natural Rydberg Basis      0.14866 (  0.3097% of  48)
 --------------------------------------------------------

    Atom  No          Natural Electron Configuration
 ----------------------------------------------------------------------------
      C    1      [core]2S( 1.02)2p( 3.01)3d( 0.01)4p( 0.01)
      C    2      [core]2S( 1.02)2p( 3.01)3d( 0.01)4p( 0.01)
      O    3      [core]2S( 1.63)2p( 4.95)3p( 0.01)
      C    4      [core]2S( 1.02)2p( 3.01)3d( 0.01)4p( 0.01)
      C    5      [core]2S( 1.02)2p( 3.01)3d( 0.01)4p( 0.01)
      O    6      [core]2S( 1.63)2p( 4.95)3p( 0.01)
      H    7            1S( 0.84)
      H    8            1S( 0.81)
      H    9            1S( 0.84)
      H   10            1S( 0.81)
      H   11            1S( 0.84)
      H   12            1S( 0.81)
      H   13            1S( 0.81)
      H   14            1S( 0.84)


 NATURAL BOND ORBITAL ANALYSIS:

                       Occupancies       Lewis Structure    Low   High
           Occ.    -------------------  -----------------   occ   occ
  Cycle   Thresh.   Lewis   Non-Lewis     CR  BD  3C  LP    (L)   (NL)   Dev
 =============================================================================
   1(1)    1.90    47.58160   0.41840      6  14   0   4     0      0    0.03
 -----------------------------------------------------------------------------

 Structure accepted: No low occupancy Lewis orbitals

 --------------------------------------------------------
   Core                     11.99634 ( 99.970% of  12)
   Valence Lewis            35.58525 ( 98.848% of  36)
  ==================       ============================
   Total Lewis              47.58160 ( 99.128% of  48)
  -----------------------------------------------------
   Valence non-Lewis         0.32926 (  0.686% of  48)
   Rydberg non-Lewis         0.08914 (  0.186% of  48)
  ==================       ============================
   Total non-Lewis           0.41840 (  0.872% of  48)
 --------------------------------------------------------


       (Occupancy)   Bond orbital/ Coefficients/ Hybrids
 ---------------------------------------------------------------------------------
     1. (1.99284) BD ( 1) C   1 - C   2  
                ( 50.00%)   0.7071* C   1 s( 29.90%)p 2.34( 70.05%)d 0.00(  0.05%)
                                            0.0002  0.5466 -0.0109 -0.0059 -0.0002
                                            0.0089  0.0238  0.0004  0.0012  0.8073
                                           -0.0086 -0.0073  0.0014  0.2192 -0.0025
                                            0.0000  0.0030  0.0029 -0.0010  0.0101
                                           -0.0174 -0.0089
                ( 50.00%)   0.7071* C   2 s( 29.90%)p 2.34( 70.05%)d 0.00(  0.05%)
                                            0.0002  0.5466 -0.0109 -0.0059 -0.0002
                                            0.0089  0.0238  0.0004  0.0012 -0.8073
                                            0.0086  0.0073 -0.0014 -0.2192  0.0025
                                           -0.0000 -0.0030 -0.0029  0.0010  0.0101
                                           -0.0174 -0.0089
     2. (1.99048) BD ( 1) C   1 - O   6  
                ( 32.58%)   0.5708* C   1 s( 20.94%)p 3.76( 78.77%)d 0.01(  0.28%)
                                           -0.0000 -0.4563  0.0346 -0.0074  0.0001
                                           -0.7399  0.0165  0.0052  0.0040  0.3935
                                           -0.0533  0.0020 -0.0040 -0.2853  0.0285
                                           -0.0020  0.0037  0.0316 -0.0259  0.0125
                                           -0.0252  0.0196
                ( 67.42%)   0.8211* O   6 s( 27.65%)p 2.61( 72.28%)d 0.00(  0.07%)
                                            0.0000 -0.5255  0.0207 -0.0012  0.0000
                                            0.7061 -0.0317 -0.0038  0.0009 -0.3730
                                           -0.0062  0.0081  0.0019  0.2899  0.0013
                                           -0.0043 -0.0013  0.0172 -0.0126  0.0135
                                           -0.0014  0.0057
     3. (1.98544) BD ( 1) C   1 - H   7  
                ( 58.81%)   0.7668* C   1 s( 24.57%)p 3.07( 75.35%)d 0.00(  0.07%)
                                            0.0000 -0.4952 -0.0232  0.0015  0.0002
                                            0.0255 -0.0114 -0.0043  0.0040  0.1008
                                           -0.0092 -0.0000  0.0022  0.8615  0.0138
                                            0.0021  0.0035 -0.0042  0.0011 -0.0029
                                            0.0015 -0.0267
                ( 41.19%)   0.6418* H   7 s( 99.96%)p 0.00(  0.04%)
                                           -0.9998 -0.0054 -0.0001  0.0006 -0.0026
                                           -0.0034 -0.0200
     4. (1.97988) BD ( 1) C   1 - H   8  
                ( 59.62%)   0.7722* C   1 s( 24.67%)p 3.05( 75.26%)d 0.00(  0.06%)
                                           -0.0002  0.4967  0.0054  0.0040  0.0004
                                           -0.6680 -0.0211 -0.0029 -0.0025 -0.4243
                                            0.0033 -0.0032  0.0029  0.3546  0.0115
                                            0.0034 -0.0021  0.0166 -0.0156 -0.0078
                                            0.0069 -0.0035
                ( 40.38%)   0.6354* H   8 s( 99.95%)p 0.00(  0.05%)
                                            0.9998  0.0022  0.0001 -0.0000  0.0162
                                            0.0119 -0.0077
     5. (1.99048) BD ( 1) C   2 - O   3  
                ( 32.58%)   0.5708* C   2 s( 20.94%)p 3.76( 78.77%)d 0.01(  0.28%)
                                           -0.0000 -0.4563  0.0346 -0.0074  0.0001
                                           -0.7399  0.0165  0.0052  0.0040 -0.3935
                                            0.0533 -0.0020  0.0040  0.2853 -0.0285
                                            0.0020 -0.0037 -0.0316  0.0259  0.0125
                                           -0.0252  0.0196
                ( 67.42%)   0.8211* O   3 s( 27.65%)p 2.61( 72.28%)d 0.00(  0.07%)
                                            0.0000 -0.5255  0.0207 -0.0012  0.0000
                                            0.7061 -0.0317 -0.0038  0.0009  0.3730
                                            0.0062 -0.0081 -0.0019 -0.2899 -0.0013
                                            0.0043  0.0013 -0.0172  0.0126  0.0135
                                           -0.0014  0.0057
     6. (1.98544) BD ( 1) C   2 - H   9  
                ( 58.81%)   0.7668* C   2 s( 24.57%)p 3.07( 75.35%)d 0.00(  0.07%)
                                           -0.0000  0.4952  0.0232 -0.0015 -0.0002
                                           -0.0255  0.0114  0.0043 -0.0040  0.1008
                                           -0.0092 -0.0000  0.0022  0.8615  0.0138
                                            0.0021  0.0035 -0.0042  0.0011  0.0029
                                           -0.0015  0.0267
                ( 41.19%)   0.6418* H   9 s( 99.96%)p 0.00(  0.04%)
                                            0.9998  0.0054  0.0001 -0.0006  0.0026
                                           -0.0034 -0.0200
     7. (1.97988) BD ( 1) C   2 - H  10  
                ( 59.62%)   0.7722* C   2 s( 24.67%)p 3.05( 75.26%)d 0.00(  0.06%)
                                           -0.0002  0.4967  0.0054  0.0040  0.0004
                                           -0.6680 -0.0211 -0.0029 -0.0025  0.4243
                                           -0.0033  0.0032 -0.0029 -0.3546 -0.0115
                                           -0.0034  0.0021 -0.0166  0.0156 -0.0078
                                            0.0069 -0.0035
                ( 40.38%)   0.6354* H  10 s( 99.95%)p 0.00(  0.05%)
                                            0.9998  0.0022  0.0001 -0.0000  0.0162
                                           -0.0119  0.0077
     8. (1.99048) BD ( 1) O   3 - C   4  
                ( 67.42%)   0.8211* O   3 s( 27.65%)p 2.61( 72.28%)d 0.00(  0.07%)
                                           -0.0000  0.5255 -0.0207  0.0012 -0.0000
                                            0.7061 -0.0317 -0.0038  0.0009 -0.3730
                                           -0.0062  0.0081  0.0019  0.2899  0.0013
                                           -0.0043 -0.0013 -0.0172  0.0126 -0.0135
                                            0.0014 -0.0057
                ( 32.58%)   0.5708* C   4 s( 20.94%)p 3.76( 78.77%)d 0.01(  0.28%)
                                            0.0000  0.4563 -0.0346  0.0074 -0.0001
                                           -0.7399  0.0165  0.0052  0.0040  0.3935
                                           -0.0533  0.0020 -0.0040 -0.2853  0.0285
                                           -0.0020  0.0037 -0.0316  0.0259 -0.0125
                                            0.0252 -0.0196
     9. (1.99284) BD ( 1) C   4 - C   5  
                ( 50.00%)   0.7071* C   4 s( 29.90%)p 2.34( 70.05%)d 0.00(  0.05%)
                                            0.0002  0.5466 -0.0109 -0.0059 -0.0002
                                           -0.0089 -0.0238 -0.0004 -0.0012 -0.8073
                                            0.0086  0.0073 -0.0014 -0.2192  0.0025
                                           -0.0000 -0.0030  0.0029 -0.0010  0.0101
                                           -0.0174 -0.0089
                ( 50.00%)   0.7071* C   5 s( 29.90%)p 2.34( 70.05%)d 0.00(  0.05%)
                                            0.0002  0.5466 -0.0109 -0.0059 -0.0002
                                           -0.0089 -0.0238 -0.0004 -0.0012  0.8073
                                           -0.0086 -0.0073  0.0014  0.2192 -0.0025
                                            0.0000  0.0030 -0.0029  0.0010  0.0101
                                           -0.0174 -0.0089
    10. (1.98544) BD ( 1) C   4 - H  11  
                ( 58.81%)   0.7668* C   4 s( 24.57%)p 3.07( 75.35%)d 0.00(  0.07%)
                                           -0.0000  0.4952  0.0232 -0.0015 -0.0002
                                            0.0255 -0.0114 -0.0043  0.0040  0.1008
                                           -0.0092 -0.0000  0.0022  0.8615  0.0138
                                            0.0021  0.0035  0.0042 -0.0011  0.0029
                                           -0.0015  0.0267
                ( 41.19%)   0.6418* H  11 s( 99.96%)p 0.00(  0.04%)
                                            0.9998  0.0054  0.0001 -0.0006 -0.0026
                                           -0.0034 -0.0200
    11. (1.97988) BD ( 1) C   4 - H  12  
                ( 59.62%)   0.7722* C   4 s( 24.67%)p 3.05( 75.26%)d 0.00(  0.06%)
                                           -0.0002  0.4967  0.0054  0.0040  0.0004
                                            0.6680  0.0211  0.0029  0.0025  0.4243
                                           -0.0033  0.0032 -0.0029 -0.3546 -0.0115
                                           -0.0034  0.0021  0.0166 -0.0156 -0.0078
                                            0.0069 -0.0035
                ( 40.38%)   0.6354* H  12 s( 99.95%)p 0.00(  0.05%)
                                            0.9998  0.0022  0.0001 -0.0000 -0.0162
                                           -0.0119  0.0077
    12. (1.99048) BD ( 1) C   5 - O   6  
                ( 32.58%)   0.5708* C   5 s( 20.94%)p 3.76( 78.77%)d 0.01(  0.28%)
                                            0.0000  0.4563 -0.0346  0.0074 -0.0001
                                           -0.7399  0.0165  0.0052  0.0040 -0.3935
                                            0.0533 -0.0020  0.0040  0.2853 -0.0285
                                            0.0020 -0.0037  0.0316 -0.0259 -0.0125
                                            0.0252 -0.0196
                ( 67.42%)   0.8211* O   6 s( 27.65%)p 2.61( 72.28%)d 0.00(  0.07%)
                                           -0.0000  0.5255 -0.0207  0.0012 -0.0000
                                            0.7061 -0.0317 -0.0038  0.0009  0.3730
                                            0.0062 -0.0081 -0.0019 -0.2899 -0.0013
                                            0.0043  0.0013  0.0172 -0.0126 -0.0135
                                            0.0014 -0.0057
    13. (1.97988) BD ( 1) C   5 - H  13  
                ( 59.62%)   0.7722* C   5 s( 24.67%)p 3.05( 75.26%)d 0.00(  0.06%)
                                           -0.0002  0.4967  0.0054  0.0040  0.0004
                                            0.6680  0.0211  0.0029  0.0025 -0.4243
                                            0.0033 -0.0032  0.0029  0.3546  0.0115
                                            0.0034 -0.0021 -0.0166  0.0156 -0.0078
                                            0.0069 -0.0035
                ( 40.38%)   0.6354* H  13 s( 99.95%)p 0.00(  0.05%)
                                            0.9998  0.0022  0.0001 -0.0000 -0.0162
                                            0.0119 -0.0077
    14. (1.98544) BD ( 1) C   5 - H  14  
                ( 58.81%)   0.7668* C   5 s( 24.57%)p 3.07( 75.35%)d 0.00(  0.07%)
                                            0.0000 -0.4952 -0.0232  0.0015  0.0002
                                           -0.0255  0.0114  0.0043 -0.0040  0.1008
                                           -0.0092 -0.0000  0.0022  0.8615  0.0138
                                            0.0021  0.0035  0.0042 -0.0011 -0.0029
                                            0.0015 -0.0267
                ( 41.19%)   0.6418* H  14 s( 99.96%)p 0.00(  0.04%)
                                           -0.9998 -0.0054 -0.0001  0.0006  0.0026
                                           -0.0034 -0.0200
    15. (1.99919) CR ( 1) C   1           s(100.00%)p 0.00(  0.00%)
                                            1.0000 -0.0000  0.0000  0.0000  0.0000
                                           -0.0002 -0.0000 -0.0000 -0.0000 -0.0003
                                            0.0000  0.0000  0.0000 -0.0000  0.0000
                                            0.0000 -0.0000  0.0000 -0.0000 -0.0000
                                            0.0000  0.0000
    16. (1.99919) CR ( 1) C   2           s(100.00%)p 0.00(  0.00%)
                                            1.0000 -0.0000  0.0000  0.0000  0.0000
                                           -0.0002 -0.0000 -0.0000 -0.0000  0.0003
                                           -0.0000 -0.0000 -0.0000  0.0000 -0.0000
                                           -0.0000  0.0000 -0.0000  0.0000 -0.0000
                                            0.0000  0.0000
    17. (1.99979) CR ( 1) O   3           s(100.00%)p 0.00(  0.00%)
                                            1.0000  0.0001 -0.0000  0.0000  0.0000
                                            0.0000 -0.0000 -0.0000  0.0000  0.0001
                                            0.0000  0.0000  0.0000  0.0001  0.0000
                                           -0.0000 -0.0000 -0.0000  0.0000 -0.0000
                                            0.0000  0.0000
    18. (1.99919) CR ( 1) C   4           s(100.00%)p 0.00(  0.00%)
                                            1.0000 -0.0000  0.0000  0.0000  0.0000
                                            0.0002  0.0000  0.0000  0.0000  0.0003
                                           -0.0000 -0.0000 -0.0000  0.0000 -0.0000
                                           -0.0000  0.0000  0.0000 -0.0000 -0.0000
                                            0.0000  0.0000
    19. (1.99919) CR ( 1) C   5           s(100.00%)p 0.00(  0.00%)
                                            1.0000 -0.0000  0.0000  0.0000  0.0000
                                            0.0002  0.0000  0.0000  0.0000 -0.0003
                                            0.0000  0.0000  0.0000 -0.0000  0.0000
                                            0.0000 -0.0000 -0.0000  0.0000 -0.0000
                                            0.0000  0.0000
    20. (1.99979) CR ( 1) O   6           s(100.00%)p 0.00(  0.00%)
                                            1.0000  0.0001 -0.0000  0.0000  0.0000
                                            0.0000 -0.0000 -0.0000  0.0000 -0.0001
                                           -0.0000 -0.0000 -0.0000 -0.0001 -0.0000
                                            0.0000  0.0000  0.0000 -0.0000 -0.0000
                                            0.0000  0.0000
    21. (1.96595) LP ( 1) O   3           s( 44.78%)p 1.23( 55.19%)d 0.00(  0.03%)
                                           -0.0001  0.6688  0.0225 -0.0009  0.0000
                                            0.0000 -0.0000  0.0000  0.0000  0.5823
                                            0.0109  0.0054  0.0027 -0.4612 -0.0046
                                           -0.0020 -0.0021 -0.0000  0.0000  0.0126
                                            0.0115 -0.0022
    22. (1.92226) LP ( 2) O   3           s(  0.03%)p99.99( 99.93%)d 1.46(  0.04%)
                                            0.0001 -0.0044  0.0161 -0.0029 -0.0002
                                            0.0000  0.0000 -0.0000 -0.0000 -0.6176
                                           -0.0174 -0.0063  0.0019 -0.7858 -0.0102
                                           -0.0012  0.0006  0.0000  0.0000  0.0050
                                           -0.0100 -0.0171
    23. (1.96595) LP ( 1) O   6           s( 44.78%)p 1.23( 55.19%)d 0.00(  0.03%)
                                           -0.0001  0.6688  0.0225 -0.0009  0.0000
                                            0.0000  0.0000  0.0000  0.0000 -0.5823
                                           -0.0109 -0.0054 -0.0027  0.4612  0.0046
                                            0.0020  0.0021  0.0000 -0.0000  0.0126
                                            0.0115 -0.0022
    24. (1.92226) LP ( 2) O   6           s(  0.03%)p99.99( 99.93%)d 1.46(  0.04%)
                                            0.0001 -0.0044  0.0161 -0.0029 -0.0002
                                           -0.0000 -0.0000 -0.0000 -0.0000  0.6176
                                            0.0174  0.0063 -0.0019  0.7858  0.0102
                                            0.0012 -0.0006 -0.0000 -0.0000  0.0050
                                           -0.0100 -0.0171
    25. (0.00365) RY*( 1) C   1           s(  1.56%)p49.80( 77.45%)d13.50( 20.99%)
                                            0.0000  0.0223  0.1213 -0.0060 -0.0177
                                            0.0352  0.5088  0.1183 -0.0428 -0.0453
                                           -0.6439  0.0189  0.1208  0.0156  0.2558
                                            0.0340  0.0127 -0.2340 -0.1528 -0.0871
                                           -0.3524 -0.0054
    26. (0.00296) RY*( 2) C   1           s( 16.32%)p 3.47( 56.61%)d 1.66( 27.07%)
                                            0.0000 -0.0125  0.3951  0.0829  0.0092
                                           -0.0137  0.5139  0.1145 -0.0099 -0.0050
                                            0.3806 -0.0459 -0.0576  0.0329 -0.3588
                                           -0.0020 -0.0921  0.0428  0.2915 -0.1284
                                           -0.1944  0.3600
    27. (0.00253) RY*( 3) C   1           s( 13.47%)p 2.99( 40.28%)d 3.43( 46.25%)
                                           -0.0000  0.0161  0.3446  0.1255 -0.0034
                                            0.0374 -0.2166 -0.0529 -0.1436  0.0030
                                           -0.3039  0.0986 -0.0521  0.0159  0.3714
                                           -0.2862 -0.0786  0.4521  0.3638 -0.1472
                                            0.1645  0.2776
    28. (0.00098) RY*( 4) C   1           s(  2.71%)p 7.80( 21.10%)d28.16( 76.20%)
                                           -0.0000  0.0040  0.1513  0.0616  0.0186
                                            0.0326  0.2474  0.1188 -0.0201 -0.0167
                                           -0.1134 -0.2197 -0.0433  0.0167 -0.0529
                                            0.2555  0.0507  0.4641 -0.3553  0.5499
                                            0.3333  0.0826
    29. (0.00067) RY*( 5) C   1           s(  4.33%)p18.48( 79.95%)d 3.64( 15.73%)
                                           -0.0000 -0.0027  0.1210  0.1682 -0.0180
                                           -0.0036  0.3369 -0.1595  0.0153  0.0094
                                            0.4559  0.0085 -0.1069 -0.0090  0.6626
                                           -0.0181  0.0377 -0.1486 -0.1313 -0.0988
                                            0.2631 -0.1974
    30. (0.00043) RY*( 6) C   1           s(  7.52%)p 9.58( 72.03%)d 2.72( 20.45%)
                                            0.0000  0.0007  0.2199 -0.1615  0.0268
                                           -0.0109  0.2017 -0.7154  0.1093 -0.0025
                                           -0.2318  0.1077  0.0051 -0.0010 -0.2951
                                            0.0093  0.0567 -0.1001  0.1911  0.0381
                                            0.3120 -0.2432
    31. (0.00025) RY*( 7) C   1           s( 61.31%)p 0.27( 16.82%)d 0.36( 21.87%)
                                           -0.0000  0.0044  0.5607 -0.5463 -0.0127
                                            0.0117 -0.2622  0.1249 -0.1000  0.0032
                                            0.1308  0.0866  0.1717  0.0164  0.1330
                                           -0.0251  0.0323 -0.3213 -0.0774  0.3195
                                           -0.0333  0.0793
    32. (0.00022) RY*( 8) C   1           s(  6.22%)p 9.62( 59.85%)d 5.45( 33.93%)
                                           -0.0000 -0.0030  0.1848 -0.1453  0.0833
                                            0.0168 -0.0968 -0.1144  0.1234  0.0013
                                            0.0845 -0.4819  0.4461 -0.0065  0.0422
                                            0.1880  0.2914  0.3195 -0.0913 -0.4209
                                           -0.1645 -0.1571
    33. (0.00014) RY*( 9) C   1           s(  4.40%)p14.45( 63.59%)d 7.28( 32.01%)
                                           -0.0000  0.0032  0.1694  0.1035 -0.0678
                                            0.0180 -0.1723 -0.3512  0.0306 -0.0113
                                            0.0123 -0.4074 -0.5091  0.0043  0.0400
                                           -0.1706 -0.1594  0.0163 -0.1676  0.1870
                                           -0.5021 -0.0681
    34. (0.00003) RY*(10) C   1           s(  7.85%)p 9.75( 76.53%)d 1.99( 15.62%)
    35. (0.00000) RY*(11) C   1           s(  0.39%)p99.99( 96.89%)d 6.89(  2.72%)
    36. (0.00001) RY*(12) C   1           s(  2.76%)p34.96( 96.35%)d 0.32(  0.89%)
    37. (0.00000) RY*(13) C   1           s( 98.14%)p 0.02(  1.49%)d 0.00(  0.37%)
    38. (0.00001) RY*(14) C   1           s(  0.79%)p72.03( 56.78%)d53.82( 42.43%)
    39. (0.00001) RY*(15) C   1           s( 16.76%)p 1.55( 26.02%)d 3.41( 57.22%)
    40. (0.00001) RY*(16) C   1           s( 52.93%)p 0.62( 32.64%)d 0.27( 14.43%)
    41. (0.00000) RY*(17) C   1           s(  2.46%)p10.63( 26.17%)d28.99( 71.37%)
    42. (0.00365) RY*( 1) C   2           s(  1.56%)p49.80( 77.45%)d13.50( 20.99%)
                                            0.0000  0.0223  0.1213 -0.0060 -0.0177
                                            0.0352  0.5088  0.1183 -0.0428  0.0453
                                            0.6439 -0.0189 -0.1208 -0.0156 -0.2558
                                           -0.0340 -0.0127  0.2340  0.1528 -0.0871
                                           -0.3524 -0.0054
    43. (0.00296) RY*( 2) C   2           s( 16.32%)p 3.47( 56.61%)d 1.66( 27.07%)
                                            0.0000 -0.0125  0.3951  0.0829  0.0092
                                           -0.0137  0.5139  0.1145 -0.0099  0.0050
                                           -0.3806  0.0459  0.0576 -0.0329  0.3588
                                            0.0020  0.0921 -0.0428 -0.2915 -0.1284
                                           -0.1944  0.3600
    44. (0.00253) RY*( 3) C   2           s( 13.47%)p 2.99( 40.28%)d 3.43( 46.25%)
                                           -0.0000  0.0161  0.3446  0.1255 -0.0034
                                            0.0374 -0.2166 -0.0529 -0.1436 -0.0030
                                            0.3039 -0.0986  0.0521 -0.0159 -0.3714
                                            0.2862  0.0786 -0.4521 -0.3638 -0.1472
                                            0.1645  0.2776
    45. (0.00098) RY*( 4) C   2           s(  2.71%)p 7.80( 21.10%)d28.16( 76.20%)
                                           -0.0000  0.0040  0.1513  0.0616  0.0186
                                            0.0326  0.2474  0.1188 -0.0201  0.0167
                                            0.1134  0.2197  0.0433 -0.0167  0.0529
                                           -0.2555 -0.0507 -0.4641  0.3553  0.5499
                                            0.3333  0.0826
    46. (0.00067) RY*( 5) C   2           s(  4.33%)p18.48( 79.95%)d 3.64( 15.73%)
                                           -0.0000 -0.0027  0.1210  0.1682 -0.0180
                                           -0.0036  0.3369 -0.1595  0.0153 -0.0094
                                           -0.4559 -0.0085  0.1069  0.0090 -0.6626
                                            0.0181 -0.0377  0.1486  0.1313 -0.0988
                                            0.2631 -0.1974
    47. (0.00043) RY*( 6) C   2           s(  7.52%)p 9.58( 72.03%)d 2.72( 20.45%)
                                            0.0000  0.0007  0.2199 -0.1615  0.0268
                                           -0.0109  0.2017 -0.7154  0.1093  0.0025
                                            0.2318 -0.1077 -0.0051  0.0010  0.2951
                                           -0.0093 -0.0567  0.1001 -0.1911  0.0381
                                            0.3120 -0.2432
    48. (0.00025) RY*( 7) C   2           s( 61.31%)p 0.27( 16.82%)d 0.36( 21.87%)
                                           -0.0000  0.0044  0.5607 -0.5463 -0.0127
                                            0.0117 -0.2622  0.1249 -0.1000 -0.0032
                                           -0.1308 -0.0866 -0.1717 -0.0164 -0.1330
                                            0.0251 -0.0323  0.3213  0.0774  0.3195
                                           -0.0333  0.0793
    49. (0.00022) RY*( 8) C   2           s(  6.22%)p 9.62( 59.85%)d 5.45( 33.93%)
                                           -0.0000 -0.0030  0.1848 -0.1453  0.0833
                                            0.0168 -0.0968 -0.1144  0.1234 -0.0013
                                           -0.0845  0.4819 -0.4461  0.0065 -0.0422
                                           -0.1880 -0.2914 -0.3195  0.0913 -0.4209
                                           -0.1645 -0.1571
    50. (0.00014) RY*( 9) C   2           s(  4.40%)p14.45( 63.59%)d 7.28( 32.01%)
                                           -0.0000  0.0032  0.1694  0.1035 -0.0678
                                            0.0180 -0.1723 -0.3512  0.0306  0.0113
                                           -0.0123  0.4074  0.5091 -0.0043 -0.0400
                                            0.1706  0.1594 -0.0163  0.1676  0.1870
                                           -0.5021 -0.0681
    51. (0.00003) RY*(10) C   2           s(  7.85%)p 9.75( 76.53%)d 1.99( 15.62%)
    52. (0.00000) RY*(11) C   2           s(  0.39%)p99.99( 96.89%)d 6.89(  2.72%)
    53. (0.00001) RY*(12) C   2           s(  2.76%)p34.96( 96.35%)d 0.32(  0.89%)
    54. (0.00000) RY*(13) C   2           s( 98.14%)p 0.02(  1.49%)d 0.00(  0.37%)
    55. (0.00001) RY*(14) C   2           s(  0.79%)p72.03( 56.78%)d53.82( 42.43%)
    56. (0.00001) RY*(15) C   2           s( 16.76%)p 1.55( 26.02%)d 3.41( 57.22%)
    57. (0.00001) RY*(16) C   2           s( 52.93%)p 0.62( 32.64%)d 0.27( 14.43%)
    58. (0.00000) RY*(17) C   2           s(  2.46%)p10.63( 26.17%)d28.99( 71.37%)
    59. (0.00678) RY*( 1) O   3           s( 12.82%)p 6.73( 86.34%)d 0.07(  0.84%)
                                           -0.0000  0.0045  0.3516  0.0677  0.0006
                                           -0.0000 -0.0000 -0.0000  0.0000  0.0087
                                           -0.7254 -0.0927 -0.0145  0.0209 -0.5290
                                            0.2183 -0.0164 -0.0000 -0.0000 -0.0179
                                            0.0498  0.0748
    60. (0.00218) RY*( 2) O   3           s( 22.08%)p 3.15( 69.52%)d 0.38(  8.40%)
                                           -0.0000  0.0107  0.4689  0.0285 -0.0010
                                            0.0000  0.0000  0.0000 -0.0000 -0.0196
                                            0.6121 -0.3375  0.0116  0.0182 -0.3490
                                            0.2890 -0.0187  0.0000 -0.0000 -0.0529
                                           -0.2546  0.1280
    61. (0.00143) RY*( 3) O   3           s(  0.00%)p 1.00( 93.35%)d 0.07(  6.65%)
                                            0.0000 -0.0000 -0.0000  0.0000 -0.0000
                                            0.0338  0.4777  0.8386 -0.0297  0.0000
                                           -0.0000  0.0000 -0.0000 -0.0000  0.0000
                                           -0.0000  0.0000  0.2096 -0.1502  0.0000
                                            0.0000 -0.0000
    62. (0.00064) RY*( 4) O   3           s( 20.01%)p 3.97( 79.43%)d 0.03(  0.56%)
                                            0.0000  0.0107  0.4223  0.1468  0.0087
                                            0.0000  0.0000  0.0000 -0.0000 -0.0041
                                           -0.2177 -0.5754 -0.0228  0.0141  0.6185
                                           -0.1803  0.0034  0.0000 -0.0000  0.0641
                                           -0.0367 -0.0099
    63. (0.00039) RY*( 5) O   3           s(  0.00%)p 1.00( 94.41%)d 0.06(  5.59%)
                                            0.0000 -0.0000 -0.0000 -0.0000  0.0000
                                            0.0357  0.8313 -0.4879 -0.1177  0.0000
                                            0.0000  0.0000 -0.0000  0.0000 -0.0000
                                            0.0000 -0.0000  0.1598  0.1742 -0.0000
                                           -0.0000  0.0000
    64. (0.00029) RY*( 6) O   3           s( 67.89%)p 0.44( 29.95%)d 0.03(  2.16%)
                                            0.0000 -0.0024 -0.3310  0.7545 -0.0067
                                            0.0000  0.0000 -0.0000 -0.0000  0.0049
                                            0.0840 -0.3134 -0.1039 -0.0104 -0.2962
                                           -0.3070  0.0352  0.0000  0.0000 -0.0352
                                            0.1423 -0.0122
    65. (0.00022) RY*( 7) O   3           s( 30.47%)p 2.15( 65.50%)d 0.13(  4.03%)
                                           -0.0000 -0.0052  0.5361  0.1305  0.0170
                                           -0.0000 -0.0000  0.0000 -0.0000 -0.0089
                                            0.0876  0.4885 -0.1677  0.0187 -0.1103
                                           -0.5977  0.1037 -0.0000 -0.0000  0.0956
                                           -0.0758 -0.1594
    66. (0.00009) RY*( 8) O   3           s(  0.00%)p 1.00(  5.72%)d16.49( 94.28%)
    67. (0.00003) RY*( 9) O   3           s( 39.16%)p 1.46( 57.16%)d 0.09(  3.68%)
    68. (0.00000) RY*(10) O   3           s( 99.78%)p 0.00(  0.21%)d 0.00(  0.01%)
    69. (0.00001) RY*(11) O   3           s(  0.00%)p 1.00( 99.53%)d 0.00(  0.47%)
    70. (0.00000) RY*(12) O   3           s(  0.39%)p99.99( 99.56%)d 0.13(  0.05%)
    71. (0.00001) RY*(13) O   3           s(  0.00%)p 1.00(  7.08%)d13.12( 92.92%)
    72. (0.00000) RY*(14) O   3           s(  0.27%)p99.99( 99.53%)d 0.72(  0.20%)
    73. (0.00000) RY*(15) O   3           s(  1.15%)p 1.97(  2.26%)d84.20( 96.59%)
    74. (0.00001) RY*(16) O   3           s(  5.43%)p 1.10(  5.95%)d16.32( 88.62%)
    75. (0.00000) RY*(17) O   3           s(  0.42%)p11.39(  4.83%)d99.99( 94.75%)
    76. (0.00365) RY*( 1) C   4           s(  1.56%)p49.80( 77.45%)d13.50( 20.99%)
                                            0.0000  0.0223  0.1213 -0.0060 -0.0177
                                           -0.0352 -0.5088 -0.1183  0.0428  0.0453
                                            0.6439 -0.0189 -0.1208 -0.0156 -0.2558
                                           -0.0340 -0.0127 -0.2340 -0.1528 -0.0871
                                           -0.3524 -0.0054
    77. (0.00296) RY*( 2) C   4           s( 16.32%)p 3.47( 56.61%)d 1.66( 27.07%)
                                            0.0000 -0.0125  0.3951  0.0829  0.0092
                                            0.0137 -0.5139 -0.1145  0.0099  0.0050
                                           -0.3806  0.0459  0.0576 -0.0329  0.3588
                                            0.0020  0.0921  0.0428  0.2915 -0.1284
                                           -0.1944  0.3600
    78. (0.00253) RY*( 3) C   4           s( 13.47%)p 2.99( 40.28%)d 3.43( 46.25%)
                                           -0.0000  0.0161  0.3446  0.1255 -0.0034
                                           -0.0374  0.2166  0.0529  0.1436 -0.0030
                                            0.3039 -0.0986  0.0521 -0.0159 -0.3714
                                            0.2862  0.0786  0.4521  0.3638 -0.1472
                                            0.1645  0.2776
    79. (0.00098) RY*( 4) C   4           s(  2.71%)p 7.80( 21.10%)d28.16( 76.20%)
                                           -0.0000  0.0040  0.1513  0.0616  0.0186
                                           -0.0326 -0.2474 -0.1188  0.0201  0.0167
                                            0.1134  0.2197  0.0433 -0.0167  0.0529
                                           -0.2555 -0.0507  0.4641 -0.3553  0.5499
                                            0.3333  0.0826
    80. (0.00067) RY*( 5) C   4           s(  4.33%)p18.48( 79.95%)d 3.64( 15.73%)
                                           -0.0000 -0.0027  0.1210  0.1682 -0.0180
                                            0.0036 -0.3369  0.1595 -0.0153 -0.0094
                                           -0.4559 -0.0085  0.1069  0.0090 -0.6626
                                            0.0181 -0.0377 -0.1486 -0.1313 -0.0988
                                            0.2631 -0.1974
    81. (0.00043) RY*( 6) C   4           s(  7.52%)p 9.58( 72.03%)d 2.72( 20.45%)
                                            0.0000  0.0007  0.2199 -0.1615  0.0268
                                            0.0109 -0.2017  0.7154 -0.1093  0.0025
                                            0.2318 -0.1077 -0.0051  0.0010  0.2951
                                           -0.0093 -0.0567 -0.1001  0.1911  0.0381
                                            0.3120 -0.2432
    82. (0.00025) RY*( 7) C   4           s( 61.31%)p 0.27( 16.82%)d 0.36( 21.87%)
                                           -0.0000  0.0044  0.5607 -0.5463 -0.0127
                                           -0.0117  0.2622 -0.1249  0.1000 -0.0032
                                           -0.1308 -0.0866 -0.1717 -0.0164 -0.1330
                                            0.0251 -0.0323 -0.3213 -0.0774  0.3195
                                           -0.0333  0.0793
    83. (0.00022) RY*( 8) C   4           s(  6.22%)p 9.62( 59.85%)d 5.45( 33.93%)
                                           -0.0000 -0.0030  0.1848 -0.1453  0.0833
                                           -0.0168  0.0968  0.1144 -0.1234 -0.0013
                                           -0.0845  0.4819 -0.4461  0.0065 -0.0422
                                           -0.1880 -0.2914  0.3195 -0.0913 -0.4209
                                           -0.1645 -0.1571
    84. (0.00014) RY*( 9) C   4           s(  4.40%)p14.45( 63.59%)d 7.28( 32.01%)
                                           -0.0000  0.0032  0.1694  0.1035 -0.0678
                                           -0.0180  0.1723  0.3512 -0.0306  0.0113
                                           -0.0123  0.4074  0.5091 -0.0043 -0.0400
                                            0.1706  0.1594  0.0163 -0.1676  0.1870
                                           -0.5021 -0.0681
    85. (0.00003) RY*(10) C   4           s(  7.85%)p 9.75( 76.53%)d 1.99( 15.62%)
    86. (0.00000) RY*(11) C   4           s(  0.39%)p99.99( 96.89%)d 6.89(  2.72%)
    87. (0.00001) RY*(12) C   4           s(  2.76%)p34.96( 96.35%)d 0.32(  0.89%)
    88. (0.00000) RY*(13) C   4           s( 98.14%)p 0.02(  1.49%)d 0.00(  0.37%)
    89. (0.00001) RY*(14) C   4           s(  0.79%)p72.03( 56.78%)d53.82( 42.43%)
    90. (0.00001) RY*(15) C   4           s( 16.76%)p 1.55( 26.02%)d 3.41( 57.22%)
    91. (0.00001) RY*(16) C   4           s( 52.93%)p 0.62( 32.64%)d 0.27( 14.43%)
    92. (0.00000) RY*(17) C   4           s(  2.46%)p10.63( 26.17%)d28.99( 71.37%)
    93. (0.00365) RY*( 1) C   5           s(  1.56%)p49.80( 77.45%)d13.50( 20.99%)
                                            0.0000  0.0223  0.1213 -0.0060 -0.0177
                                           -0.0352 -0.5088 -0.1183  0.0428 -0.0453
                                           -0.6439  0.0189  0.1208  0.0156  0.2558
                                            0.0340  0.0127  0.2340  0.1528 -0.0871
                                           -0.3524 -0.0054
    94. (0.00296) RY*( 2) C   5           s( 16.32%)p 3.47( 56.61%)d 1.66( 27.07%)
                                            0.0000 -0.0125  0.3951  0.0829  0.0092
                                            0.0137 -0.5139 -0.1145  0.0099 -0.0050
                                            0.3806 -0.0459 -0.0576  0.0329 -0.3588
                                           -0.0020 -0.0921 -0.0428 -0.2915 -0.1284
                                           -0.1944  0.3600
    95. (0.00253) RY*( 3) C   5           s( 13.47%)p 2.99( 40.28%)d 3.43( 46.25%)
                                           -0.0000  0.0161  0.3446  0.1255 -0.0034
                                           -0.0374  0.2166  0.0529  0.1436  0.0030
                                           -0.3039  0.0986 -0.0521  0.0159  0.3714
                                           -0.2862 -0.0786 -0.4521 -0.3638 -0.1472
                                            0.1645  0.2776
    96. (0.00098) RY*( 4) C   5           s(  2.71%)p 7.80( 21.10%)d28.16( 76.20%)
                                           -0.0000  0.0040  0.1513  0.0616  0.0186
                                           -0.0326 -0.2474 -0.1188  0.0201 -0.0167
                                           -0.1134 -0.2197 -0.0433  0.0167 -0.0529
                                            0.2555  0.0507 -0.4641  0.3553  0.5499
                                            0.3333  0.0826
    97. (0.00067) RY*( 5) C   5           s(  4.33%)p18.48( 79.95%)d 3.64( 15.73%)
                                           -0.0000 -0.0027  0.1210  0.1682 -0.0180
                                            0.0036 -0.3369  0.1595 -0.0153  0.0094
                                            0.4559  0.0085 -0.1069 -0.0090  0.6626
                                           -0.0181  0.0377  0.1486  0.1313 -0.0988
                                            0.2631 -0.1974
    98. (0.00043) RY*( 6) C   5           s(  7.52%)p 9.58( 72.03%)d 2.72( 20.45%)
                                            0.0000  0.0007  0.2199 -0.1615  0.0268
                                            0.0109 -0.2017  0.7154 -0.1093 -0.0025
                                           -0.2318  0.1077  0.0051 -0.0010 -0.2951
                                            0.0093  0.0567  0.1001 -0.1911  0.0381
                                            0.3120 -0.2432
    99. (0.00025) RY*( 7) C   5           s( 61.31%)p 0.27( 16.82%)d 0.36( 21.87%)
                                           -0.0000  0.0044  0.5607 -0.5463 -0.0127
                                           -0.0117  0.2622 -0.1249  0.1000  0.0032
                                            0.1308  0.0866  0.1717  0.0164  0.1330
                                           -0.0251  0.0323  0.3213  0.0774  0.3195
                                           -0.0333  0.0793
   100. (0.00022) RY*( 8) C   5           s(  6.22%)p 9.62( 59.85%)d 5.45( 33.93%)
                                           -0.0000 -0.0030  0.1848 -0.1453  0.0833
                                           -0.0168  0.0968  0.1144 -0.1234  0.0013
                                            0.0845 -0.4819  0.4461 -0.0065  0.0422
                                            0.1880  0.2914 -0.3195  0.0913 -0.4209
                                           -0.1645 -0.1571
   101. (0.00014) RY*( 9) C   5           s(  4.40%)p14.45( 63.59%)d 7.28( 32.01%)
                                           -0.0000  0.0032  0.1694  0.1035 -0.0678
                                           -0.0180  0.1723  0.3512 -0.0306 -0.0113
                                            0.0123 -0.4074 -0.5091  0.0043  0.0400
                                           -0.1706 -0.1594 -0.0163  0.1676  0.1870
                                           -0.5021 -0.0681
   102. (0.00003) RY*(10) C   5           s(  7.85%)p 9.75( 76.53%)d 1.99( 15.62%)
   103. (0.00000) RY*(11) C   5           s(  0.39%)p99.99( 96.89%)d 6.89(  2.72%)
   104. (0.00001) RY*(12) C   5           s(  2.76%)p34.96( 96.35%)d 0.32(  0.89%)
   105. (0.00000) RY*(13) C   5           s( 98.14%)p 0.02(  1.49%)d 0.00(  0.37%)
   106. (0.00001) RY*(14) C   5           s(  0.79%)p72.03( 56.78%)d53.82( 42.43%)
   107. (0.00001) RY*(15) C   5           s( 16.76%)p 1.55( 26.02%)d 3.41( 57.22%)
   108. (0.00001) RY*(16) C   5           s( 52.93%)p 0.62( 32.64%)d 0.27( 14.43%)
   109. (0.00000) RY*(17) C   5           s(  2.46%)p10.63( 26.17%)d28.99( 71.37%)
   110. (0.00678) RY*( 1) O   6           s( 12.82%)p 6.73( 86.34%)d 0.07(  0.84%)
                                           -0.0000  0.0045  0.3516  0.0677  0.0006
                                           -0.0000 -0.0000 -0.0000  0.0000 -0.0087
                                            0.7254  0.0927  0.0145 -0.0209  0.5290
                                           -0.2183  0.0164  0.0000  0.0000 -0.0179
                                            0.0498  0.0748
   111. (0.00218) RY*( 2) O   6           s( 22.08%)p 3.15( 69.52%)d 0.38(  8.40%)
                                           -0.0000  0.0107  0.4689  0.0285 -0.0010
                                            0.0000  0.0000  0.0000 -0.0000  0.0196
                                           -0.6121  0.3375 -0.0116 -0.0182  0.3490
                                           -0.2890  0.0187 -0.0000  0.0000 -0.0529
                                           -0.2546  0.1280
   112. (0.00143) RY*( 3) O   6           s(  0.00%)p 1.00( 93.35%)d 0.07(  6.65%)
                                            0.0000 -0.0000 -0.0000  0.0000 -0.0000
                                            0.0338  0.4777  0.8386 -0.0297 -0.0000
                                            0.0000 -0.0000  0.0000  0.0000 -0.0000
                                            0.0000 -0.0000 -0.2096  0.1502  0.0000
                                            0.0000 -0.0000
   113. (0.00064) RY*( 4) O   6           s( 20.01%)p 3.97( 79.43%)d 0.03(  0.56%)
                                           -0.0000  0.0107  0.4223  0.1468  0.0087
                                            0.0000  0.0000 -0.0000 -0.0000  0.0041
                                            0.2177  0.5754  0.0228 -0.0141 -0.6185
                                            0.1803 -0.0034 -0.0000  0.0000  0.0641
                                           -0.0367 -0.0099
   114. (0.00039) RY*( 5) O   6           s(  0.00%)p 1.00( 94.41%)d 0.06(  5.59%)
                                            0.0000 -0.0000  0.0000 -0.0000  0.0000
                                            0.0357  0.8313 -0.4879 -0.1177  0.0000
                                            0.0000 -0.0000 -0.0000 -0.0000 -0.0000
                                           -0.0000  0.0000 -0.1598 -0.1742 -0.0000
                                           -0.0000  0.0000
   115. (0.00029) RY*( 6) O   6           s( 67.89%)p 0.44( 29.95%)d 0.03(  2.16%)
                                            0.0000 -0.0024 -0.3310  0.7545 -0.0067
                                            0.0000  0.0000 -0.0000 -0.0000 -0.0049
                                           -0.0840  0.3134  0.1039  0.0104  0.2962
                                            0.3070 -0.0352 -0.0000 -0.0000 -0.0352
                                            0.1423 -0.0122
   116. (0.00022) RY*( 7) O   6           s( 30.47%)p 2.15( 65.50%)d 0.13(  4.03%)
                                           -0.0000 -0.0052  0.5361  0.1305  0.0170
                                           -0.0000  0.0000  0.0000 -0.0000  0.0089
                                           -0.0876 -0.4885  0.1677 -0.0187  0.1103
                                            0.5977 -0.1037  0.0000 -0.0000  0.0956
                                           -0.0758 -0.1594
   117. (0.00009) RY*( 8) O   6           s(  0.00%)p 1.00(  5.72%)d16.49( 94.28%)
   118. (0.00003) RY*( 9) O   6           s( 39.16%)p 1.46( 57.16%)d 0.09(  3.68%)
   119. (0.00000) RY*(10) O   6           s( 99.78%)p 0.00(  0.21%)d 0.00(  0.01%)
   120. (0.00001) RY*(11) O   6           s(  0.00%)p 1.00( 99.53%)d 0.00(  0.47%)
   121. (0.00000) RY*(12) O   6           s(  0.39%)p99.99( 99.56%)d 0.13(  0.05%)
   122. (0.00001) RY*(13) O   6           s(  0.00%)p 1.00(  7.08%)d13.12( 92.92%)
   123. (0.00000) RY*(14) O   6           s(  0.27%)p99.99( 99.53%)d 0.72(  0.20%)
   124. (0.00000) RY*(15) O   6           s(  1.15%)p 1.97(  2.26%)d84.20( 96.59%)
   125. (0.00001) RY*(16) O   6           s(  5.43%)p 1.10(  5.95%)d16.32( 88.62%)
   126. (0.00000) RY*(17) O   6           s(  0.42%)p11.39(  4.83%)d99.99( 94.75%)
   127. (0.00190) RY*( 1) H   7           s( 99.49%)p 0.01(  0.51%)
                                           -0.0040  0.9974 -0.0006 -0.0040 -0.0112
                                           -0.0280 -0.0650
   128. (0.00030) RY*( 2) H   7           s( 38.52%)p 1.60( 61.48%)
                                           -0.0049  0.0299  0.6033  0.1427  0.2280
                                            0.7454  0.0845
   129. (0.00024) RY*( 3) H   7           s( 63.67%)p 0.57( 36.33%)
                                           -0.0070  0.0291 -0.3439  0.7194 -0.4112
                                            0.2220  0.3807
   130. (0.00016) RY*( 4) H   7           s( 60.68%)p 0.65( 39.32%)
                                            0.0026 -0.0161  0.7112  0.3175 -0.3183
                                           -0.5400  0.0149
   131. (0.00006) RY*( 5) H   7           s(  4.58%)p20.83( 95.42%)
   132. (0.00002) RY*( 6) H   7           s( 33.10%)p 2.02( 66.90%)
   133. (0.00107) RY*( 1) H   8           s( 99.37%)p 0.01(  0.63%)
                                           -0.0012  0.9968  0.0056 -0.0004 -0.0678
                                            0.0326  0.0255
   134. (0.00028) RY*( 2) H   8           s( 37.17%)p 1.69( 62.83%)
                                           -0.0045 -0.0397  0.6083 -0.0089 -0.0592
                                            0.7008  0.3656
   135. (0.00012) RY*( 3) H   8           s( 19.47%)p 4.14( 80.53%)
                                           -0.0135  0.0134 -0.0732  0.4347  0.1329
                                            0.4728 -0.7511
   136. (0.00009) RY*( 4) H   8           s( 81.16%)p 0.23( 18.84%)
   137. (0.00006) RY*( 5) H   8           s( 61.67%)p 0.62( 38.33%)
   138. (0.00006) RY*( 6) H   8           s(  1.21%)p81.77( 98.79%)
   139. (0.00190) RY*( 1) H   9           s( 99.49%)p 0.01(  0.51%)
                                           -0.0040  0.9974 -0.0006 -0.0040 -0.0112
                                            0.0280  0.0650
   140. (0.00030) RY*( 2) H   9           s( 38.52%)p 1.60( 61.48%)
                                           -0.0049  0.0299  0.6033  0.1427  0.2280
                                           -0.7454 -0.0845
   141. (0.00024) RY*( 3) H   9           s( 63.67%)p 0.57( 36.33%)
                                           -0.0070  0.0291 -0.3439  0.7194 -0.4112
                                           -0.2220 -0.3807
   142. (0.00016) RY*( 4) H   9           s( 60.68%)p 0.65( 39.32%)
                                            0.0026 -0.0161  0.7112  0.3175 -0.3183
                                            0.5400 -0.0149
   143. (0.00006) RY*( 5) H   9           s(  4.58%)p20.83( 95.42%)
   144. (0.00002) RY*( 6) H   9           s( 33.10%)p 2.02( 66.90%)
   145. (0.00107) RY*( 1) H  10           s( 99.37%)p 0.01(  0.63%)
                                           -0.0012  0.9968  0.0056 -0.0004 -0.0678
                                           -0.0326 -0.0255
   146. (0.00028) RY*( 2) H  10           s( 37.17%)p 1.69( 62.83%)
                                           -0.0045 -0.0397  0.6083 -0.0089 -0.0592
                                           -0.7008 -0.3656
   147. (0.00012) RY*( 3) H  10           s( 19.47%)p 4.14( 80.53%)
                                           -0.0135  0.0134 -0.0732  0.4347  0.1329
                                           -0.4728  0.7511
   148. (0.00009) RY*( 4) H  10           s( 81.16%)p 0.23( 18.84%)
   149. (0.00006) RY*( 5) H  10           s( 61.67%)p 0.62( 38.33%)
   150. (0.00006) RY*( 6) H  10           s(  1.21%)p81.77( 98.79%)
   151. (0.00190) RY*( 1) H  11           s( 99.49%)p 0.01(  0.51%)
                                           -0.0040  0.9974 -0.0006 -0.0040  0.0112
                                            0.0280  0.0650
   152. (0.00030) RY*( 2) H  11           s( 38.52%)p 1.60( 61.48%)
                                           -0.0049  0.0299  0.6033  0.1427 -0.2280
                                           -0.7454 -0.0845
   153. (0.00024) RY*( 3) H  11           s( 63.67%)p 0.57( 36.33%)
                                           -0.0070  0.0291 -0.3439  0.7194  0.4112
                                           -0.2220 -0.3807
   154. (0.00016) RY*( 4) H  11           s( 60.68%)p 0.65( 39.32%)
                                            0.0026 -0.0161  0.7112  0.3175  0.3183
                                            0.5400 -0.0149
   155. (0.00006) RY*( 5) H  11           s(  4.58%)p20.83( 95.42%)
   156. (0.00002) RY*( 6) H  11           s( 33.10%)p 2.02( 66.90%)
   157. (0.00107) RY*( 1) H  12           s( 99.37%)p 0.01(  0.63%)
                                           -0.0012  0.9968  0.0056 -0.0004  0.0678
                                           -0.0326 -0.0255
   158. (0.00028) RY*( 2) H  12           s( 37.17%)p 1.69( 62.83%)
                                           -0.0045 -0.0397  0.6083 -0.0089  0.0592
                                           -0.7008 -0.3656
   159. (0.00012) RY*( 3) H  12           s( 19.47%)p 4.14( 80.53%)
                                           -0.0135  0.0134 -0.0732  0.4347 -0.1329
                                           -0.4728  0.7511
   160. (0.00009) RY*( 4) H  12           s( 81.16%)p 0.23( 18.84%)
   161. (0.00006) RY*( 5) H  12           s( 61.67%)p 0.62( 38.33%)
   162. (0.00006) RY*( 6) H  12           s(  1.21%)p81.77( 98.79%)
   163. (0.00107) RY*( 1) H  13           s( 99.37%)p 0.01(  0.63%)
                                           -0.0012  0.9968  0.0056 -0.0004  0.0678
                                            0.0326  0.0255
   164. (0.00028) RY*( 2) H  13           s( 37.17%)p 1.69( 62.83%)
                                           -0.0045 -0.0397  0.6083 -0.0089  0.0592
                                            0.7008  0.3656
   165. (0.00012) RY*( 3) H  13           s( 19.47%)p 4.14( 80.53%)
                                           -0.0135  0.0134 -0.0732  0.4347 -0.1329
                                            0.4728 -0.7511
   166. (0.00009) RY*( 4) H  13           s( 81.16%)p 0.23( 18.84%)
   167. (0.00006) RY*( 5) H  13           s( 61.67%)p 0.62( 38.33%)
   168. (0.00006) RY*( 6) H  13           s(  1.21%)p81.77( 98.79%)
   169. (0.00190) RY*( 1) H  14           s( 99.49%)p 0.01(  0.51%)
                                           -0.0040  0.9974 -0.0006 -0.0040  0.0112
                                           -0.0280 -0.0650
   170. (0.00030) RY*( 2) H  14           s( 38.52%)p 1.60( 61.48%)
                                           -0.0049  0.0299  0.6033  0.1427 -0.2280
                                            0.7454  0.0845
   171. (0.00024) RY*( 3) H  14           s( 63.67%)p 0.57( 36.33%)
                                           -0.0070  0.0291 -0.3439  0.7194  0.4112
                                            0.2220  0.3807
   172. (0.00016) RY*( 4) H  14           s( 60.68%)p 0.65( 39.32%)
                                            0.0026 -0.0161  0.7112  0.3175  0.3183
                                           -0.5400  0.0149
   173. (0.00006) RY*( 5) H  14           s(  4.58%)p20.83( 95.42%)
   174. (0.00002) RY*( 6) H  14           s( 33.10%)p 2.02( 66.90%)
   175. (0.03091) BD*( 1) C   1 - C   2  
                ( 50.00%)   0.7071* C   1 s( 29.90%)p 2.34( 70.05%)d 0.00(  0.05%)
                                            0.0002  0.5466 -0.0109 -0.0059 -0.0002
                                            0.0089  0.0238  0.0004  0.0012  0.8073
                                           -0.0086 -0.0073  0.0014  0.2192 -0.0025
                                            0.0000  0.0030  0.0029 -0.0010  0.0101
                                           -0.0174 -0.0089
                ( 50.00%)  -0.7071* C   2 s( 29.90%)p 2.34( 70.05%)d 0.00(  0.05%)
                                            0.0002  0.5466 -0.0109 -0.0059 -0.0002
                                            0.0089  0.0238  0.0004  0.0012 -0.8073
                                            0.0086  0.0073 -0.0014 -0.2192  0.0025
                                           -0.0000 -0.0030 -0.0029  0.0010  0.0101
                                           -0.0174 -0.0089
   176. (0.02094) BD*( 1) C   1 - O   6  
                ( 67.42%)   0.8211* C   1 s( 20.94%)p 3.76( 78.77%)d 0.01(  0.28%)
                                           -0.0000 -0.4563  0.0346 -0.0074  0.0001
                                           -0.7399  0.0165  0.0052  0.0040  0.3935
                                           -0.0533  0.0020 -0.0040 -0.2853  0.0285
                                           -0.0020  0.0037  0.0316 -0.0259  0.0125
                                           -0.0252  0.0196
                ( 32.58%)  -0.5708* O   6 s( 27.65%)p 2.61( 72.28%)d 0.00(  0.07%)
                                            0.0000 -0.5255  0.0207 -0.0012  0.0000
                                            0.7061 -0.0317 -0.0038  0.0009 -0.3730
                                           -0.0062  0.0081  0.0019  0.2899  0.0013
                                           -0.0043 -0.0013  0.0172 -0.0126  0.0135
                                           -0.0014  0.0057
   177. (0.03041) BD*( 1) C   1 - H   7  
                ( 41.19%)   0.6418* C   1 s( 24.57%)p 3.07( 75.35%)d 0.00(  0.07%)
                                           -0.0000  0.4952  0.0232 -0.0015 -0.0002
                                           -0.0255  0.0114  0.0043 -0.0040 -0.1008
                                            0.0092  0.0000 -0.0022 -0.8615 -0.0138
                                           -0.0021 -0.0035  0.0042 -0.0011  0.0029
                                           -0.0015  0.0267
                ( 58.81%)  -0.7668* H   7 s( 99.96%)p 0.00(  0.04%)
                                            0.9998  0.0054  0.0001 -0.0006  0.0026
                                            0.0034  0.0200
   178. (0.01552) BD*( 1) C   1 - H   8  
                ( 40.38%)   0.6354* C   1 s( 24.67%)p 3.05( 75.26%)d 0.00(  0.06%)
                                            0.0002 -0.4967 -0.0054 -0.0040 -0.0004
                                            0.6680  0.0211  0.0029  0.0025  0.4243
                                           -0.0033  0.0032 -0.0029 -0.3546 -0.0115
                                           -0.0034  0.0021 -0.0166  0.0156  0.0078
                                           -0.0069  0.0035
                ( 59.62%)  -0.7722* H   8 s( 99.95%)p 0.00(  0.05%)
                                           -0.9998 -0.0022 -0.0001  0.0000 -0.0162
                                           -0.0119  0.0077
   179. (0.02094) BD*( 1) C   2 - O   3  
                ( 67.42%)   0.8211* C   2 s( 20.94%)p 3.76( 78.77%)d 0.01(  0.28%)
                                           -0.0000 -0.4563  0.0346 -0.0074  0.0001
                                           -0.7399  0.0165  0.0052  0.0040 -0.3935
                                            0.0533 -0.0020  0.0040  0.2853 -0.0285
                                            0.0020 -0.0037 -0.0316  0.0259  0.0125
                                           -0.0252  0.0196
                ( 32.58%)  -0.5708* O   3 s( 27.65%)p 2.61( 72.28%)d 0.00(  0.07%)
                                            0.0000 -0.5255  0.0207 -0.0012  0.0000
                                            0.7061 -0.0317 -0.0038  0.0009  0.3730
                                            0.0062 -0.0081 -0.0019 -0.2899 -0.0013
                                            0.0043  0.0013 -0.0172  0.0126  0.0135
                                           -0.0014  0.0057
   180. (0.03041) BD*( 1) C   2 - H   9  
                ( 41.19%)   0.6418* C   2 s( 24.57%)p 3.07( 75.35%)d 0.00(  0.07%)
                                            0.0000 -0.4952 -0.0232  0.0015  0.0002
                                            0.0255 -0.0114 -0.0043  0.0040 -0.1008
                                            0.0092  0.0000 -0.0022 -0.8615 -0.0138
                                           -0.0021 -0.0035  0.0042 -0.0011 -0.0029
                                            0.0015 -0.0267
                ( 58.81%)  -0.7668* H   9 s( 99.96%)p 0.00(  0.04%)
                                           -0.9998 -0.0054 -0.0001  0.0006 -0.0026
                                            0.0034  0.0200
   181. (0.01552) BD*( 1) C   2 - H  10  
                ( 40.38%)   0.6354* C   2 s( 24.67%)p 3.05( 75.26%)d 0.00(  0.06%)
                                            0.0002 -0.4967 -0.0054 -0.0040 -0.0004
                                            0.6680  0.0211  0.0029  0.0025 -0.4243
                                            0.0033 -0.0032  0.0029  0.3546  0.0115
                                            0.0034 -0.0021  0.0166 -0.0156  0.0078
                                           -0.0069  0.0035
                ( 59.62%)  -0.7722* H  10 s( 99.95%)p 0.00(  0.05%)
                                           -0.9998 -0.0022 -0.0001  0.0000 -0.0162
                                            0.0119 -0.0077
   182. (0.02094) BD*( 1) O   3 - C   4  
                ( 32.58%)   0.5708* O   3 s( 27.65%)p 2.61( 72.28%)d 0.00(  0.07%)
                                            0.0000 -0.5255  0.0207 -0.0012  0.0000
                                           -0.7061  0.0317  0.0038 -0.0009  0.3730
                                            0.0062 -0.0081 -0.0019 -0.2899 -0.0013
                                            0.0043  0.0013  0.0172 -0.0126  0.0135
                                           -0.0014  0.0057
                ( 67.42%)  -0.8211* C   4 s( 20.94%)p 3.76( 78.77%)d 0.01(  0.28%)
                                           -0.0000 -0.4563  0.0346 -0.0074  0.0001
                                            0.7399 -0.0165 -0.0052 -0.0040 -0.3935
                                            0.0533 -0.0020  0.0040  0.2853 -0.0285
                                            0.0020 -0.0037  0.0316 -0.0259  0.0125
                                           -0.0252  0.0196
   183. (0.03091) BD*( 1) C   4 - C   5  
                ( 50.00%)   0.7071* C   4 s( 29.90%)p 2.34( 70.05%)d 0.00(  0.05%)
                                            0.0002  0.5466 -0.0109 -0.0059 -0.0002
                                           -0.0089 -0.0238 -0.0004 -0.0012 -0.8073
                                            0.0086  0.0073 -0.0014 -0.2192  0.0025
                                           -0.0000 -0.0030  0.0029 -0.0010  0.0101
                                           -0.0174 -0.0089
                ( 50.00%)  -0.7071* C   5 s( 29.90%)p 2.34( 70.05%)d 0.00(  0.05%)
                                            0.0002  0.5466 -0.0109 -0.0059 -0.0002
                                           -0.0089 -0.0238 -0.0004 -0.0012  0.8073
                                           -0.0086 -0.0073  0.0014  0.2192 -0.0025
                                            0.0000  0.0030 -0.0029  0.0010  0.0101
                                           -0.0174 -0.0089
   184. (0.03041) BD*( 1) C   4 - H  11  
                ( 41.19%)   0.6418* C   4 s( 24.57%)p 3.07( 75.35%)d 0.00(  0.07%)
                                            0.0000 -0.4952 -0.0232  0.0015  0.0002
                                           -0.0255  0.0114  0.0043 -0.0040 -0.1008
                                            0.0092  0.0000 -0.0022 -0.8615 -0.0138
                                           -0.0021 -0.0035 -0.0042  0.0011 -0.0029
                                            0.0015 -0.0267
                ( 58.81%)  -0.7668* H  11 s( 99.96%)p 0.00(  0.04%)
                                           -0.9998 -0.0054 -0.0001  0.0006  0.0026
                                            0.0034  0.0200
   185. (0.01552) BD*( 1) C   4 - H  12  
                ( 40.38%)   0.6354* C   4 s( 24.67%)p 3.05( 75.26%)d 0.00(  0.06%)
                                            0.0002 -0.4967 -0.0054 -0.0040 -0.0004
                                           -0.6680 -0.0211 -0.0029 -0.0025 -0.4243
                                            0.0033 -0.0032  0.0029  0.3546  0.0115
                                            0.0034 -0.0021 -0.0166  0.0156  0.0078
                                           -0.0069  0.0035
                ( 59.62%)  -0.7722* H  12 s( 99.95%)p 0.00(  0.05%)
                                           -0.9998 -0.0022 -0.0001  0.0000  0.0162
                                            0.0119 -0.0077
   186. (0.02094) BD*( 1) C   5 - O   6  
                ( 67.42%)   0.8211* C   5 s( 20.94%)p 3.76( 78.77%)d 0.01(  0.28%)
                                            0.0000  0.4563 -0.0346  0.0074 -0.0001
                                           -0.7399  0.0165  0.0052  0.0040 -0.3935
                                            0.0533 -0.0020  0.0040  0.2853 -0.0285
                                            0.0020 -0.0037  0.0316 -0.0259 -0.0125
                                            0.0252 -0.0196
                ( 32.58%)  -0.5708* O   6 s( 27.65%)p 2.61( 72.28%)d 0.00(  0.07%)
                                           -0.0000  0.5255 -0.0207  0.0012 -0.0000
                                            0.7061 -0.0317 -0.0038  0.0009  0.3730
                                            0.0062 -0.0081 -0.0019 -0.2899 -0.0013
                                            0.0043  0.0013  0.0172 -0.0126 -0.0135
                                            0.0014 -0.0057
   187. (0.01552) BD*( 1) C   5 - H  13  
                ( 40.38%)   0.6354* C   5 s( 24.67%)p 3.05( 75.26%)d 0.00(  0.06%)
                                            0.0002 -0.4967 -0.0054 -0.0040 -0.0004
                                           -0.6680 -0.0211 -0.0029 -0.0025  0.4243
                                           -0.0033  0.0032 -0.0029 -0.3546 -0.0115
                                           -0.0034  0.0021  0.0166 -0.0156  0.0078
                                           -0.0069  0.0035
                ( 59.62%)  -0.7722* H  13 s( 99.95%)p 0.00(  0.05%)
                                           -0.9998 -0.0022 -0.0001  0.0000  0.0162
                                           -0.0119  0.0077
   188. (0.03041) BD*( 1) C   5 - H  14  
                ( 41.19%)   0.6418* C   5 s( 24.57%)p 3.07( 75.35%)d 0.00(  0.07%)
                                           -0.0000  0.4952  0.0232 -0.0015 -0.0002
                                            0.0255 -0.0114 -0.0043  0.0040 -0.1008
                                            0.0092  0.0000 -0.0022 -0.8615 -0.0138
                                           -0.0021 -0.0035 -0.0042  0.0011  0.0029
                                           -0.0015  0.0267
                ( 58.81%)  -0.7668* H  14 s( 99.96%)p 0.00(  0.04%)
                                            0.9998  0.0054  0.0001 -0.0006 -0.0026
                                            0.0034  0.0200


 NHO Directionality and "Bond Bending" (deviations from line of nuclear centers)

         [Thresholds for printing:  angular deviation  >  1.0 degree]
                                    hybrid p-character > 25.0%
                                    orbital occupancy  >  0.10e

                                Line of Centers        Hybrid 1              Hybrid 2
                                ---------------  -------------------   ------------------
                NBO               Theta   Phi    Theta   Phi    Dev    Theta   Phi    Dev
 ========================================================================================
     1. BD (   1) C   1 - C   2    75.3   90.0    74.5   87.5   2.5    105.5  272.5   2.5
     2. BD (   1) C   1 - O   6    70.2  331.2    72.1  334.7   3.8      --     --    --
     3. BD (   1) C   1 - H   7   174.1  241.0   173.9  261.6   2.2      --     --    --
     5. BD (   1) C   2 - O   3   109.8   28.8   107.9   25.3   3.8      --     --    --
     6. BD (   1) C   2 - H   9     5.9  119.0     6.1   98.4   2.2      --     --    --
     8. BD (   1) O   3 - C   4    70.2  331.2     --     --    --     107.9  154.7   3.8
     9. BD (   1) C   4 - C   5   104.7  270.0   105.5  267.5   2.5     74.5   92.5   2.5
    10. BD (   1) C   4 - H  11     5.9   61.0     6.1   81.6   2.2      --     --    --
    12. BD (   1) C   5 - O   6    70.2  208.8    72.1  205.3   3.8      --     --    --
    14. BD (   1) C   5 - H  14   174.1  299.0   173.9  278.4   2.2      --     --    --
    21. LP (   1) O   3             --     --    128.0   90.0   --       --     --    --
    22. LP (   2) O   3             --     --    141.2  270.0   --       --     --    --
    23. LP (   1) O   6             --     --     52.0  270.0   --       --     --    --
    24. LP (   2) O   6             --     --     38.8   90.0   --       --     --    --


 Second Order Perturbation Theory Analysis of Fock Matrix in NBO Basis

     Threshold for printing:   0.50 kcal/mol
                                                                              E(2)  E(j)-E(i) F(i,j)
         Donor NBO (i)                     Acceptor NBO (j)                 kcal/mol   a.u.    a.u. 
 ===================================================================================================

 within unit  1
   1. BD (   1) C   1 - C   2        / 59. RY*(   1) O   3                    0.86    1.29    0.030
   1. BD (   1) C   1 - C   2        /110. RY*(   1) O   6                    0.86    1.29    0.030
   2. BD (   1) C   1 - O   6        / 94. RY*(   2) C   5                    0.79    2.13    0.037
   2. BD (   1) C   1 - O   6        / 95. RY*(   3) C   5                    0.62    2.13    0.032
   2. BD (   1) C   1 - O   6        /181. BD*(   1) C   2 - H  10            0.87    1.20    0.029
   2. BD (   1) C   1 - O   6        /187. BD*(   1) C   5 - H  13            0.92    1.20    0.030
   3. BD (   1) C   1 - H   7        /180. BD*(   1) C   2 - H   9            2.54    0.89    0.043
   4. BD (   1) C   1 - H   8        /111. RY*(   2) O   6                    0.66    1.47    0.028
   4. BD (   1) C   1 - H   8        /179. BD*(   1) C   2 - O   3            3.68    0.81    0.049
   4. BD (   1) C   1 - H   8        /186. BD*(   1) C   5 - O   6            3.04    0.81    0.044
   5. BD (   1) C   2 - O   3        / 77. RY*(   2) C   4                    0.79    2.13    0.037
   5. BD (   1) C   2 - O   3        / 78. RY*(   3) C   4                    0.62    2.13    0.032
   5. BD (   1) C   2 - O   3        /178. BD*(   1) C   1 - H   8            0.87    1.20    0.029
   5. BD (   1) C   2 - O   3        /185. BD*(   1) C   4 - H  12            0.92    1.20    0.030
   6. BD (   1) C   2 - H   9        /177. BD*(   1) C   1 - H   7            2.54    0.89    0.043
   7. BD (   1) C   2 - H  10        / 60. RY*(   2) O   3                    0.66    1.47    0.028
   7. BD (   1) C   2 - H  10        /176. BD*(   1) C   1 - O   6            3.68    0.81    0.049
   7. BD (   1) C   2 - H  10        /182. BD*(   1) O   3 - C   4            3.04    0.81    0.044
   8. BD (   1) O   3 - C   4        / 43. RY*(   2) C   2                    0.79    2.13    0.037
   8. BD (   1) O   3 - C   4        / 44. RY*(   3) C   2                    0.62    2.13    0.032
   8. BD (   1) O   3 - C   4        /181. BD*(   1) C   2 - H  10            0.92    1.20    0.030
   8. BD (   1) O   3 - C   4        /187. BD*(   1) C   5 - H  13            0.87    1.20    0.029
   9. BD (   1) C   4 - C   5        / 59. RY*(   1) O   3                    0.86    1.29    0.030
   9. BD (   1) C   4 - C   5        /110. RY*(   1) O   6                    0.86    1.29    0.030
  10. BD (   1) C   4 - H  11        /188. BD*(   1) C   5 - H  14            2.54    0.89    0.043
  11. BD (   1) C   4 - H  12        / 60. RY*(   2) O   3                    0.66    1.47    0.028
  11. BD (   1) C   4 - H  12        /179. BD*(   1) C   2 - O   3            3.04    0.81    0.044
  11. BD (   1) C   4 - H  12        /186. BD*(   1) C   5 - O   6            3.68    0.81    0.049
  12. BD (   1) C   5 - O   6        / 26. RY*(   2) C   1                    0.79    2.13    0.037
  12. BD (   1) C   5 - O   6        / 27. RY*(   3) C   1                    0.62    2.13    0.032
  12. BD (   1) C   5 - O   6        /178. BD*(   1) C   1 - H   8            0.92    1.20    0.030
  12. BD (   1) C   5 - O   6        /185. BD*(   1) C   4 - H  12            0.87    1.20    0.029
  13. BD (   1) C   5 - H  13        /111. RY*(   2) O   6                    0.66    1.47    0.028
  13. BD (   1) C   5 - H  13        /176. BD*(   1) C   1 - O   6            3.04    0.81    0.044
  13. BD (   1) C   5 - H  13        /182. BD*(   1) O   3 - C   4            3.68    0.81    0.049
  14. BD (   1) C   5 - H  14        /184. BD*(   1) C   4 - H  11            2.54    0.89    0.043
  15. CR (   1) C   1                /176. BD*(   1) C   1 - O   6            1.04   10.39    0.093
  15. CR (   1) C   1                /186. BD*(   1) C   5 - O   6            0.89   10.39    0.086
  16. CR (   1) C   2                /179. BD*(   1) C   2 - O   3            1.04   10.39    0.093
  16. CR (   1) C   2                /182. BD*(   1) O   3 - C   4            0.89   10.39    0.086
  17. CR (   1) O   3                / 42. RY*(   1) C   2                    1.23   19.89    0.140
  17. CR (   1) O   3                / 76. RY*(   1) C   4                    1.23   19.89    0.140
  18. CR (   1) C   4                /179. BD*(   1) C   2 - O   3            0.89   10.39    0.086
  18. CR (   1) C   4                /182. BD*(   1) O   3 - C   4            1.04   10.39    0.093
  19. CR (   1) C   5                /176. BD*(   1) C   1 - O   6            0.89   10.39    0.086
  19. CR (   1) C   5                /186. BD*(   1) C   5 - O   6            1.04   10.39    0.093
  20. CR (   1) O   6                / 25. RY*(   1) C   1                    1.23   19.89    0.140
  20. CR (   1) O   6                / 93. RY*(   1) C   5                    1.23   19.89    0.140
  21. LP (   1) O   3                / 42. RY*(   1) C   2                    2.60    1.53    0.057
  21. LP (   1) O   3                / 76. RY*(   1) C   4                    2.60    1.53    0.057
  21. LP (   1) O   3                /175. BD*(   1) C   1 - C   2            1.04    0.94    0.028
  21. LP (   1) O   3                /180. BD*(   1) C   2 - H   9            0.67    0.95    0.023
  21. LP (   1) O   3                /181. BD*(   1) C   2 - H  10            2.35    0.97    0.043
  21. LP (   1) O   3                /183. BD*(   1) C   4 - C   5            1.04    0.94    0.028
  21. LP (   1) O   3                /184. BD*(   1) C   4 - H  11            0.67    0.95    0.023
  21. LP (   1) O   3                /185. BD*(   1) C   4 - H  12            2.35    0.97    0.043
  22. LP (   2) O   3                / 44. RY*(   3) C   2                    1.19    1.63    0.040
  22. LP (   2) O   3                / 78. RY*(   3) C   4                    1.19    1.63    0.040
  22. LP (   2) O   3                /175. BD*(   1) C   1 - C   2            4.93    0.67    0.052
  22. LP (   2) O   3                /178. BD*(   1) C   1 - H   8            0.58    0.69    0.018
  22. LP (   2) O   3                /180. BD*(   1) C   2 - H   9            6.43    0.67    0.059
  22. LP (   2) O   3                /183. BD*(   1) C   4 - C   5            4.93    0.67    0.052
  22. LP (   2) O   3                /184. BD*(   1) C   4 - H  11            6.43    0.67    0.059
  22. LP (   2) O   3                /187. BD*(   1) C   5 - H  13            0.58    0.69    0.018
  23. LP (   1) O   6                / 25. RY*(   1) C   1                    2.60    1.53    0.057
  23. LP (   1) O   6                / 93. RY*(   1) C   5                    2.60    1.53    0.057
  23. LP (   1) O   6                /175. BD*(   1) C   1 - C   2            1.04    0.94    0.028
  23. LP (   1) O   6                /177. BD*(   1) C   1 - H   7            0.67    0.95    0.023
  23. LP (   1) O   6                /178. BD*(   1) C   1 - H   8            2.35    0.97    0.043
  23. LP (   1) O   6                /183. BD*(   1) C   4 - C   5            1.04    0.94    0.028
  23. LP (   1) O   6                /187. BD*(   1) C   5 - H  13            2.35    0.97    0.043
  23. LP (   1) O   6                /188. BD*(   1) C   5 - H  14            0.67    0.95    0.023
  24. LP (   2) O   6                / 27. RY*(   3) C   1                    1.19    1.63    0.040
  24. LP (   2) O   6                / 95. RY*(   3) C   5                    1.19    1.63    0.040
  24. LP (   2) O   6                /175. BD*(   1) C   1 - C   2            4.93    0.67    0.052
  24. LP (   2) O   6                /177. BD*(   1) C   1 - H   7            6.43    0.67    0.059
  24. LP (   2) O   6                /181. BD*(   1) C   2 - H  10            0.58    0.69    0.018
  24. LP (   2) O   6                /183. BD*(   1) C   4 - C   5            4.93    0.67    0.052
  24. LP (   2) O   6                /185. BD*(   1) C   4 - H  12            0.58    0.69    0.018
  24. LP (   2) O   6                /188. BD*(   1) C   5 - H  14            6.43    0.67    0.059


 Natural Bond Orbitals (Summary):

                                                            Principal Delocalizations
           NBO                        Occupancy    Energy   (geminal,vicinal,remote)
 ====================================================================================
 Molecular unit  1  (C4H8O2)
     1. BD (   1) C   1 - C   2          1.99284    -0.63638  59(v),110(v)
     2. BD (   1) C   1 - O   6          1.99048    -0.80229  187(v),181(v),94(v),95(v)
     3. BD (   1) C   1 - H   7          1.98544    -0.51515  180(v)
     4. BD (   1) C   1 - H   8          1.97988    -0.51885  179(v),186(v),111(v)
     5. BD (   1) C   2 - O   3          1.99048    -0.80229  185(v),178(v),77(v),78(v)
     6. BD (   1) C   2 - H   9          1.98544    -0.51515  177(v)
     7. BD (   1) C   2 - H  10          1.97988    -0.51885  176(v),182(v),60(v)
     8. BD (   1) O   3 - C   4          1.99048    -0.80229  181(v),187(v),43(v),44(v)
     9. BD (   1) C   4 - C   5          1.99284    -0.63638  59(v),110(v)
    10. BD (   1) C   4 - H  11          1.98544    -0.51515  188(v)
    11. BD (   1) C   4 - H  12          1.97988    -0.51885  186(v),179(v),60(v)
    12. BD (   1) C   5 - O   6          1.99048    -0.80229  178(v),185(v),26(v),27(v)
    13. BD (   1) C   5 - H  13          1.97988    -0.51885  182(v),176(v),111(v)
    14. BD (   1) C   5 - H  14          1.98544    -0.51515  184(v)
    15. CR (   1) C   1                  1.99919   -10.09837  176(g),186(v)
    16. CR (   1) C   2                  1.99919   -10.09837  179(g),182(v)
    17. CR (   1) O   3                  1.99979   -18.93526  42(v),76(v)
    18. CR (   1) C   4                  1.99919   -10.09837  182(g),179(v)
    19. CR (   1) C   5                  1.99919   -10.09837  186(g),176(v)
    20. CR (   1) O   6                  1.99979   -18.93526  25(v),93(v)
    21. LP (   1) O   3                  1.96595    -0.57142  42(v),76(v),181(v),185(v)
                                                    175(v),183(v),180(v),184(v)
    22. LP (   2) O   3                  1.92226    -0.29767  180(v),184(v),175(v),183(v)
                                                    44(v),78(v),178(r),187(r)
    23. LP (   1) O   6                  1.96595    -0.57142  25(v),93(v),178(v),187(v)
                                                    175(v),183(v),177(v),188(v)
    24. LP (   2) O   6                  1.92226    -0.29767  177(v),188(v),175(v),183(v)
                                                    27(v),95(v),181(r),185(r)
    25. RY*(   1) C   1                  0.00365     0.95810   
    26. RY*(   2) C   1                  0.00296     1.32847   
    27. RY*(   3) C   1                  0.00253     1.32989   
    28. RY*(   4) C   1                  0.00098     1.73012   
    29. RY*(   5) C   1                  0.00067     1.02966   
    30. RY*(   6) C   1                  0.00043     1.03108   
    31. RY*(   7) C   1                  0.00025     1.19232   
    32. RY*(   8) C   1                  0.00022     1.66818   
    33. RY*(   9) C   1                  0.00014     2.42454   
    34. RY*(  10) C   1                  0.00003     0.93344   
    35. RY*(  11) C   1                  0.00000     2.75633   
    36. RY*(  12) C   1                  0.00001     2.43983   
    37. RY*(  13) C   1                  0.00000    22.76914   
    38. RY*(  14) C   1                  0.00001     1.16238   
    39. RY*(  15) C   1                  0.00001     1.56377   
    40. RY*(  16) C   1                  0.00001     1.24731   
    41. RY*(  17) C   1                  0.00000     1.87002   
    42. RY*(   1) C   2                  0.00365     0.95810   
    43. RY*(   2) C   2                  0.00296     1.32847   
    44. RY*(   3) C   2                  0.00253     1.32989   
    45. RY*(   4) C   2                  0.00098     1.73012   
    46. RY*(   5) C   2                  0.00067     1.02966   
    47. RY*(   6) C   2                  0.00043     1.03108   
    48. RY*(   7) C   2                  0.00025     1.19232   
    49. RY*(   8) C   2                  0.00022     1.66818   
    50. RY*(   9) C   2                  0.00014     2.42454   
    51. RY*(  10) C   2                  0.00003     0.93344   
    52. RY*(  11) C   2                  0.00000     2.75633   
    53. RY*(  12) C   2                  0.00001     2.43983   
    54. RY*(  13) C   2                  0.00000    22.76914   
    55. RY*(  14) C   2                  0.00001     1.16238   
    56. RY*(  15) C   2                  0.00001     1.56377   
    57. RY*(  16) C   2                  0.00001     1.24731   
    58. RY*(  17) C   2                  0.00000     1.87002   
    59. RY*(   1) O   3                  0.00678     0.65152   
    60. RY*(   2) O   3                  0.00218     0.94782   
    61. RY*(   3) O   3                  0.00143     0.78910   
    62. RY*(   4) O   3                  0.00064     0.79101   
    63. RY*(   5) O   3                  0.00039     1.20260   
    64. RY*(   6) O   3                  0.00029     1.35141   
    65. RY*(   7) O   3                  0.00022     1.11738   
    66. RY*(   8) O   3                  0.00009     2.95021   
    67. RY*(   9) O   3                  0.00003     1.30320   
    68. RY*(  10) O   3                  0.00000    49.27549   
    69. RY*(  11) O   3                  0.00001     5.23391   
    70. RY*(  12) O   3                  0.00000     4.91694   
    71. RY*(  13) O   3                  0.00001     3.30944   
    72. RY*(  14) O   3                  0.00000     4.76854   
    73. RY*(  15) O   3                  0.00000     3.01747   
    74. RY*(  16) O   3                  0.00001     2.88912   
    75. RY*(  17) O   3                  0.00000     3.01184   
    76. RY*(   1) C   4                  0.00365     0.95810   
    77. RY*(   2) C   4                  0.00296     1.32847   
    78. RY*(   3) C   4                  0.00253     1.32989   
    79. RY*(   4) C   4                  0.00098     1.73012   
    80. RY*(   5) C   4                  0.00067     1.02966   
    81. RY*(   6) C   4                  0.00043     1.03108   
    82. RY*(   7) C   4                  0.00025     1.19232   
    83. RY*(   8) C   4                  0.00022     1.66818   
    84. RY*(   9) C   4                  0.00014     2.42454   
    85. RY*(  10) C   4                  0.00003     0.93344   
    86. RY*(  11) C   4                  0.00000     2.75633   
    87. RY*(  12) C   4                  0.00001     2.43983   
    88. RY*(  13) C   4                  0.00000    22.76914   
    89. RY*(  14) C   4                  0.00001     1.16238   
    90. RY*(  15) C   4                  0.00001     1.56377   
    91. RY*(  16) C   4                  0.00001     1.24731   
    92. RY*(  17) C   4                  0.00000     1.87002   
    93. RY*(   1) C   5                  0.00365     0.95810   
    94. RY*(   2) C   5                  0.00296     1.32847   
    95. RY*(   3) C   5                  0.00253     1.32989   
    96. RY*(   4) C   5                  0.00098     1.73012   
    97. RY*(   5) C   5                  0.00067     1.02966   
    98. RY*(   6) C   5                  0.00043     1.03108   
    99. RY*(   7) C   5                  0.00025     1.19232   
   100. RY*(   8) C   5                  0.00022     1.66818   
   101. RY*(   9) C   5                  0.00014     2.42454   
   102. RY*(  10) C   5                  0.00003     0.93344   
   103. RY*(  11) C   5                  0.00000     2.75633   
   104. RY*(  12) C   5                  0.00001     2.43983   
   105. RY*(  13) C   5                  0.00000    22.76914   
   106. RY*(  14) C   5                  0.00001     1.16238   
   107. RY*(  15) C   5                  0.00001     1.56377   
   108. RY*(  16) C   5                  0.00001     1.24731   
   109. RY*(  17) C   5                  0.00000     1.87002   
   110. RY*(   1) O   6                  0.00678     0.65152   
   111. RY*(   2) O   6                  0.00218     0.94782   
   112. RY*(   3) O   6                  0.00143     0.78910   
   113. RY*(   4) O   6                  0.00064     0.79101   
   114. RY*(   5) O   6                  0.00039     1.20260   
   115. RY*(   6) O   6                  0.00029     1.35141   
   116. RY*(   7) O   6                  0.00022     1.11738   
   117. RY*(   8) O   6                  0.00009     2.95021   
   118. RY*(   9) O   6                  0.00003     1.30320   
   119. RY*(  10) O   6                  0.00000    49.27549   
   120. RY*(  11) O   6                  0.00001     5.23391   
   121. RY*(  12) O   6                  0.00000     4.91694   
   122. RY*(  13) O   6                  0.00001     3.30944   
   123. RY*(  14) O   6                  0.00000     4.76854   
   124. RY*(  15) O   6                  0.00000     3.01747   
   125. RY*(  16) O   6                  0.00001     2.88912   
   126. RY*(  17) O   6                  0.00000     3.01184   
   127. RY*(   1) H   7                  0.00190     0.79790   
   128. RY*(   2) H   7                  0.00030     1.76389   
   129. RY*(   3) H   7                  0.00024     0.91466   
   130. RY*(   4) H   7                  0.00016     1.98844   
   131. RY*(   5) H   7                  0.00006     2.50846   
   132. RY*(   6) H   7                  0.00002     1.43536   
   133. RY*(   1) H   8                  0.00107     0.55160   
   134. RY*(   2) H   8                  0.00028     1.37204   
   135. RY*(   3) H   8                  0.00012     1.96537   
   136. RY*(   4) H   8                  0.00009     1.89135   
   137. RY*(   5) H   8                  0.00006     1.17462   
   138. RY*(   6) H   8                  0.00006     2.29025   
   139. RY*(   1) H   9                  0.00190     0.79790   
   140. RY*(   2) H   9                  0.00030     1.76389   
   141. RY*(   3) H   9                  0.00024     0.91466   
   142. RY*(   4) H   9                  0.00016     1.98844   
   143. RY*(   5) H   9                  0.00006     2.50846   
   144. RY*(   6) H   9                  0.00002     1.43536   
   145. RY*(   1) H  10                  0.00107     0.55160   
   146. RY*(   2) H  10                  0.00028     1.37204   
   147. RY*(   3) H  10                  0.00012     1.96537   
   148. RY*(   4) H  10                  0.00009     1.89135   
   149. RY*(   5) H  10                  0.00006     1.17462   
   150. RY*(   6) H  10                  0.00006     2.29025   
   151. RY*(   1) H  11                  0.00190     0.79790   
   152. RY*(   2) H  11                  0.00030     1.76389   
   153. RY*(   3) H  11                  0.00024     0.91466   
   154. RY*(   4) H  11                  0.00016     1.98844   
   155. RY*(   5) H  11                  0.00006     2.50846   
   156. RY*(   6) H  11                  0.00002     1.43536   
   157. RY*(   1) H  12                  0.00107     0.55160   
   158. RY*(   2) H  12                  0.00028     1.37204   
   159. RY*(   3) H  12                  0.00012     1.96537   
   160. RY*(   4) H  12                  0.00009     1.89134   
   161. RY*(   5) H  12                  0.00006     1.17463   
   162. RY*(   6) H  12                  0.00006     2.29025   
   163. RY*(   1) H  13                  0.00107     0.55160   
   164. RY*(   2) H  13                  0.00028     1.37204   
   165. RY*(   3) H  13                  0.00012     1.96537   
   166. RY*(   4) H  13                  0.00009     1.89134   
   167. RY*(   5) H  13                  0.00006     1.17463   
   168. RY*(   6) H  13                  0.00006     2.29025   
   169. RY*(   1) H  14                  0.00190     0.79790   
   170. RY*(   2) H  14                  0.00030     1.76389   
   171. RY*(   3) H  14                  0.00024     0.91466   
   172. RY*(   4) H  14                  0.00016     1.98844   
   173. RY*(   5) H  14                  0.00006     2.50846   
   174. RY*(   6) H  14                  0.00002     1.43536   
   175. BD*(   1) C   1 - C   2          0.03091     0.37336   
   176. BD*(   1) C   1 - O   6          0.02094     0.29435   
   177. BD*(   1) C   1 - H   7          0.03041     0.37541   
   178. BD*(   1) C   1 - H   8          0.01552     0.39628   
   179. BD*(   1) C   2 - O   3          0.02094     0.29435   
   180. BD*(   1) C   2 - H   9          0.03041     0.37541   
   181. BD*(   1) C   2 - H  10          0.01552     0.39628   
   182. BD*(   1) O   3 - C   4          0.02094     0.29435   
   183. BD*(   1) C   4 - C   5          0.03091     0.37336   
   184. BD*(   1) C   4 - H  11          0.03041     0.37541   
   185. BD*(   1) C   4 - H  12          0.01552     0.39628   
   186. BD*(   1) C   5 - O   6          0.02094     0.29435   
   187. BD*(   1) C   5 - H  13          0.01552     0.39628   
   188. BD*(   1) C   5 - H  14          0.03041     0.37541   
       -------------------------------
              Total Lewis   47.58160  ( 99.1283%)
        Valence non-Lewis    0.32926  (  0.6860%)
        Rydberg non-Lewis    0.08914  (  0.1857%)
       -------------------------------
            Total unit  1   48.00000  (100.0000%)
           Charge unit  1    0.00000
 Unable to Open any file for archive entry.
 1\1\GINC-CCC067\FOpt\RB3LYP\6-311++G(d,p)\C4H8O2\ROOT\12-Jun-2024\0\\#
  opt freq b3lyp/6-311++g(d,p) pop=nbo geom=connectivity\\C1COCCO1\\0,1
 \C,-1.2414951634,0.6459577771,-0.0478105\C,-1.0620777583,-0.8284549281
 ,-0.3827673799\O,0.0477195183,-1.3743893434,0.3272269114\C,1.241495246
 7,-0.6459577478,0.0478104906\C,1.0620778765,0.8284548243,0.3827675494\
 O,-0.0477194926,1.3743893166,-0.3272270163\H,-1.5049779587,0.757714126
 ,1.0144341431\H,-2.0300545428,1.0934421385,-0.6564732683\H,-0.90630966
 71,-0.9487446209,-1.4651457891\H,-1.9386465516,-1.4078565773,-0.085346
 1468\H,1.5049778952,-0.7577138043,-1.0144342213\H,2.030054658,-1.09344
 24719,0.6564729245\H,1.9386464929,1.4078567265,0.0853464016\H,0.906309
 4468,0.9487445948,1.4651458912\\Version=ES64L-G16RevC.02\State=1-A\HF=
 -307.7519072\RMSD=3.111e-09\RMSF=6.946e-05\Dipole=0.0000003,0.,0.00000
 02\Quadrupole=4.5967976,-4.4518761,-0.1449215,0.3466021,0.7552325,2.05
 23751\PG=C01 [X(C4H8O2)]\\@
 The archive entry for this job was punched.


 I LOVE MANKIND - IT'S PEOPLE I CAN'T STAND.
     -- LINUS OF PEANUTS
 Job cpu time:       0 days  0 hours  4 minutes 51.4 seconds.
 Elapsed time:       0 days  0 hours  0 minutes 44.8 seconds.
 File lengths (MBytes):  RWF=     27 Int=      0 D2E=      0 Chk=      4 Scr=      1
 Normal termination of Gaussian 16 at Wed Jun 12 22:04:01 2024.
 Link1:  Proceeding to internal job step number  2.
 ----------------------------------------------------------------------
 #N Geom=AllCheck Guess=TCheck SCRF=Check GenChk RB3LYP/6-311++G(d,p) F
 req
 ----------------------------------------------------------------------
 1/10=4,29=7,30=1,38=1,40=1/1,3;
 2/12=2,40=1/2;
 3/5=4,6=6,7=1111,11=2,14=-4,25=1,30=1,70=2,71=2,74=-5,116=1,140=1/1,2,3;
 4/5=101/1;
 5/5=2,38=6,98=1/2;
 8/6=4,10=90,11=11/1;
 11/6=1,8=1,9=11,15=111,16=1/1,2,10;
 10/6=1/2;
 6/7=2,8=2,9=2,10=2,28=1,40=1/1,7;
 7/8=1,10=1,25=1/1,2,3,16;
 1/10=4,30=1/3;
 99//99;
 Structure from the checkpoint file:  "C1COCCO1.chk"
 --------
 C1COCCO1
 --------
 Charge =  0 Multiplicity = 1
 Redundant internal coordinates found in file.  (old form).
 C,0,-1.2414951634,0.6459577771,-0.0478105
 C,0,-1.0620777583,-0.8284549281,-0.3827673799
 O,0,0.0477195183,-1.3743893434,0.3272269114
 C,0,1.2414952467,-0.6459577478,0.0478104906
 C,0,1.0620778765,0.8284548243,0.3827675494
 O,0,-0.0477194926,1.3743893166,-0.3272270163
 H,0,-1.5049779587,0.757714126,1.0144341431
 H,0,-2.0300545428,1.0934421385,-0.6564732683
 H,0,-0.9063096671,-0.9487446209,-1.4651457891
 H,0,-1.9386465516,-1.4078565773,-0.0853461468
 H,0,1.5049778952,-0.7577138043,-1.0144342213
 H,0,2.030054658,-1.0934424719,0.6564729245
 H,0,1.9386464929,1.4078567265,0.0853464016
 H,0,0.9063094468,0.9487445948,1.4651458912
 Recover connectivity data from disk.

 GradGradGradGradGradGradGradGradGradGradGradGradGradGradGradGradGradGrad
 Berny optimization.
 Initialization pass.
                           ----------------------------
                           !    Initial Parameters    !
                           ! (Angstroms and Degrees)  !
 --------------------------                            --------------------------
 ! Name  Definition              Value          Derivative Info.                !
 --------------------------------------------------------------------------------
 ! R1    R(1,2)                  1.5226         calculate D2E/DX2 analytically  !
 ! R2    R(1,6)                  1.4261         calculate D2E/DX2 analytically  !
 ! R3    R(1,7)                  1.1001         calculate D2E/DX2 analytically  !
 ! R4    R(1,8)                  1.092          calculate D2E/DX2 analytically  !
 ! R5    R(2,3)                  1.4261         calculate D2E/DX2 analytically  !
 ! R6    R(2,9)                  1.1001         calculate D2E/DX2 analytically  !
 ! R7    R(2,10)                 1.092          calculate D2E/DX2 analytically  !
 ! R8    R(3,4)                  1.4261         calculate D2E/DX2 analytically  !
 ! R9    R(4,5)                  1.5226         calculate D2E/DX2 analytically  !
 ! R10   R(4,11)                 1.1001         calculate D2E/DX2 analytically  !
 ! R11   R(4,12)                 1.092          calculate D2E/DX2 analytically  !
 ! R12   R(5,6)                  1.4261         calculate D2E/DX2 analytically  !
 ! R13   R(5,13)                 1.092          calculate D2E/DX2 analytically  !
 ! R14   R(5,14)                 1.1001         calculate D2E/DX2 analytically  !
 ! A1    A(2,1,6)              110.6635         calculate D2E/DX2 analytically  !
 ! A2    A(2,1,7)              109.8165         calculate D2E/DX2 analytically  !
 ! A3    A(2,1,8)              111.056          calculate D2E/DX2 analytically  !
 ! A4    A(6,1,7)              109.7416         calculate D2E/DX2 analytically  !
 ! A5    A(6,1,8)              106.6158         calculate D2E/DX2 analytically  !
 ! A6    A(7,1,8)              108.8809         calculate D2E/DX2 analytically  !
 ! A7    A(1,2,3)              110.6635         calculate D2E/DX2 analytically  !
 ! A8    A(1,2,9)              109.8165         calculate D2E/DX2 analytically  !
 ! A9    A(1,2,10)             111.056          calculate D2E/DX2 analytically  !
 ! A10   A(3,2,9)              109.7416         calculate D2E/DX2 analytically  !
 ! A11   A(3,2,10)             106.6158         calculate D2E/DX2 analytically  !
 ! A12   A(9,2,10)             108.8809         calculate D2E/DX2 analytically  !
 ! A13   A(2,3,4)              110.9983         calculate D2E/DX2 analytically  !
 ! A14   A(3,4,5)              110.6635         calculate D2E/DX2 analytically  !
 ! A15   A(3,4,11)             109.7416         calculate D2E/DX2 analytically  !
 ! A16   A(3,4,12)             106.6158         calculate D2E/DX2 analytically  !
 ! A17   A(5,4,11)             109.8165         calculate D2E/DX2 analytically  !
 ! A18   A(5,4,12)             111.056          calculate D2E/DX2 analytically  !
 ! A19   A(11,4,12)            108.8809         calculate D2E/DX2 analytically  !
 ! A20   A(4,5,6)              110.6635         calculate D2E/DX2 analytically  !
 ! A21   A(4,5,13)             111.056          calculate D2E/DX2 analytically  !
 ! A22   A(4,5,14)             109.8165         calculate D2E/DX2 analytically  !
 ! A23   A(6,5,13)             106.6158         calculate D2E/DX2 analytically  !
 ! A24   A(6,5,14)             109.7416         calculate D2E/DX2 analytically  !
 ! A25   A(13,5,14)            108.8809         calculate D2E/DX2 analytically  !
 ! A26   A(1,6,5)              110.9983         calculate D2E/DX2 analytically  !
 ! D1    D(6,1,2,3)             56.527          calculate D2E/DX2 analytically  !
 ! D2    D(6,1,2,9)            -64.7803         calculate D2E/DX2 analytically  !
 ! D3    D(6,1,2,10)           174.7349         calculate D2E/DX2 analytically  !
 ! D4    D(7,1,2,3)            -64.7803         calculate D2E/DX2 analytically  !
 ! D5    D(7,1,2,9)            173.9125         calculate D2E/DX2 analytically  !
 ! D6    D(7,1,2,10)            53.4276         calculate D2E/DX2 analytically  !
 ! D7    D(8,1,2,3)            174.7349         calculate D2E/DX2 analytically  !
 ! D8    D(8,1,2,9)             53.4276         calculate D2E/DX2 analytically  !
 ! D9    D(8,1,2,10)           -67.0572         calculate D2E/DX2 analytically  !
 ! D10   D(2,1,6,5)            -56.7204         calculate D2E/DX2 analytically  !
 ! D11   D(7,1,6,5)             64.6311         calculate D2E/DX2 analytically  !
 ! D12   D(8,1,6,5)           -177.6015         calculate D2E/DX2 analytically  !
 ! D13   D(1,2,3,4)            -56.7204         calculate D2E/DX2 analytically  !
 ! D14   D(9,2,3,4)             64.6311         calculate D2E/DX2 analytically  !
 ! D15   D(10,2,3,4)          -177.6015         calculate D2E/DX2 analytically  !
 ! D16   D(2,3,4,5)             56.7204         calculate D2E/DX2 analytically  !
 ! D17   D(2,3,4,11)           -64.6311         calculate D2E/DX2 analytically  !
 ! D18   D(2,3,4,12)           177.6015         calculate D2E/DX2 analytically  !
 ! D19   D(3,4,5,6)            -56.527          calculate D2E/DX2 analytically  !
 ! D20   D(3,4,5,13)          -174.7349         calculate D2E/DX2 analytically  !
 ! D21   D(3,4,5,14)            64.7802         calculate D2E/DX2 analytically  !
 ! D22   D(11,4,5,6)            64.7802         calculate D2E/DX2 analytically  !
 ! D23   D(11,4,5,13)          -53.4276         calculate D2E/DX2 analytically  !
 ! D24   D(11,4,5,14)         -173.9125         calculate D2E/DX2 analytically  !
 ! D25   D(12,4,5,6)          -174.7349         calculate D2E/DX2 analytically  !
 ! D26   D(12,4,5,13)           67.0572         calculate D2E/DX2 analytically  !
 ! D27   D(12,4,5,14)          -53.4277         calculate D2E/DX2 analytically  !
 ! D28   D(4,5,6,1)             56.7204         calculate D2E/DX2 analytically  !
 ! D29   D(13,5,6,1)           177.6015         calculate D2E/DX2 analytically  !
 ! D30   D(14,5,6,1)           -64.6311         calculate D2E/DX2 analytically  !
 --------------------------------------------------------------------------------
 Trust Radius=3.00D-01 FncErr=1.00D-07 GrdErr=1.00D-07 EigMax=2.50D+02 EigMin=1.00D-04
 Number of steps in this run=      2 maximum allowed number of steps=      2.
 GradGradGradGradGradGradGradGradGradGradGradGradGradGradGradGradGradGrad

                          Input orientation:                          
 ---------------------------------------------------------------------
 Center     Atomic      Atomic             Coordinates (Angstroms)
 Number     Number       Type             X           Y           Z
 ---------------------------------------------------------------------
      1          6           0       -1.241495    0.645958   -0.047810
      2          6           0       -1.062078   -0.828455   -0.382767
      3          8           0        0.047720   -1.374389    0.327227
      4          6           0        1.241495   -0.645958    0.047810
      5          6           0        1.062078    0.828455    0.382768
      6          8           0       -0.047719    1.374389   -0.327227
      7          1           0       -1.504978    0.757714    1.014434
      8          1           0       -2.030055    1.093442   -0.656473
      9          1           0       -0.906310   -0.948745   -1.465146
     10          1           0       -1.938647   -1.407857   -0.085346
     11          1           0        1.504978   -0.757714   -1.014434
     12          1           0        2.030055   -1.093442    0.656473
     13          1           0        1.938646    1.407857    0.085346
     14          1           0        0.906309    0.948745    1.465146
 ---------------------------------------------------------------------
                    Distance matrix (angstroms):
                    1          2          3          4          5
     1  C    0.000000
     2  C    1.522590   0.000000
     3  O    2.425805   1.426109   0.000000
     4  C    2.800613   2.350564   1.426109   0.000000
     5  C    2.350564   2.800613   2.425805   1.522590   0.000000
     6  O    1.426109   2.425805   2.827225   2.425805   1.426109
     7  H    1.100126   2.159691   2.725617   3.232301   2.644576
     8  H    1.092034   2.169235   3.372685   3.771547   3.272846
     9  H    2.159691   1.100126   2.074595   2.644576   3.232301
    10  H    2.169235   1.092034   2.029036   3.272846   3.771547
    11  H    3.232301   2.644576   2.074595   1.100126   2.159691
    12  H    3.771547   3.272846   2.029036   1.092034   2.169236
    13  H    3.272846   3.771547   3.372685   2.169236   1.092034
    14  H    2.644576   3.232301   2.725617   2.159691   1.100126
                    6          7          8          9         10
     6  O    0.000000
     7  H    2.074595   0.000000
     8  H    2.029036   1.783354   0.000000
     9  H    2.725617   3.068994   2.467241   0.000000
    10  H    3.372685   2.467242   2.567301   1.783354   0.000000
    11  H    2.725617   3.933531   4.006416   2.460476   3.625526
    12  H    3.372685   4.006416   4.794870   3.625526   4.049659
    13  H    2.029036   3.625526   4.049659   4.006416   4.794870
    14  H    2.074595   2.460476   3.625526   3.933531   4.006416
                   11         12         13         14
    11  H    0.000000
    12  H    1.783354   0.000000
    13  H    2.467242   2.567302   0.000000
    14  H    3.068994   2.467242   1.783354   0.000000
 Stoichiometry    C4H8O2
 Framework group  C1[X(C4H8O2)]
 Deg. of freedom    36
 Full point group                 C1      NOp   1
 Largest Abelian subgroup         C1      NOp   1
 Largest concise Abelian subgroup C1      NOp   1
                         Standard orientation:                         
 ---------------------------------------------------------------------
 Center     Atomic      Atomic             Coordinates (Angstroms)
 Number     Number       Type             X           Y           Z
 ---------------------------------------------------------------------
      1          6           0       -1.175282   -0.736466   -0.192840
      2          6           0       -1.175282    0.736466    0.192840
      3          8           0       -0.000000    1.383350   -0.290938
      4          6           0        1.175282    0.736466    0.192840
      5          6           0        1.175282   -0.736466   -0.192840
      6          8           0        0.000000   -1.383350    0.290938
      7          1           0       -1.230238   -0.835460   -1.287123
      8          1           0       -2.024830   -1.258606    0.252332
      9          1           0       -1.230238    0.835460    1.287123
     10          1           0       -2.024830    1.258605   -0.252332
     11          1           0        1.230238    0.835460    1.287123
     12          1           0        2.024830    1.258606   -0.252332
     13          1           0        2.024830   -1.258606    0.252332
     14          1           0        1.230238   -0.835460   -1.287123
 ---------------------------------------------------------------------
 Rotational constants (GHZ):           5.0410217           4.6846540           2.7245798
 Standard basis: 6-311++G(d,p) (5D, 7F)
 There are   194 symmetry adapted cartesian basis functions of A   symmetry.
 There are   188 symmetry adapted basis functions of A   symmetry.
   188 basis functions,   288 primitive gaussians,   194 cartesian basis functions
    24 alpha electrons       24 beta electrons
       nuclear repulsion energy       263.6704250803 Hartrees.
 NAtoms=   14 NActive=   14 NUniq=   14 SFac= 1.00D+00 NAtFMM=   60 NAOKFM=F Big=F
 Integral buffers will be    131072 words long.
 Raffenetti 2 integral format.
 Two-electron integral symmetry is turned on.
 One-electron integrals computed using PRISM.
 NBasis=   188 RedAO= T EigKep=  1.85D-05  NBF=   188
 NBsUse=   188 1.00D-06 EigRej= -1.00D+00 NBFU=   188
 Initial guess from the checkpoint file:  "C1COCCO1.chk"
 B after Tr=     0.000000   -0.000000    0.000000
         Rot=    1.000000    0.000000   -0.000000    0.000000 Ang=   0.00 deg.
 Requested convergence on RMS density matrix=1.00D-08 within 128 cycles.
 Requested convergence on MAX density matrix=1.00D-06.
 Requested convergence on             energy=1.00D-06.
 No special actions if energy rises.
 SCF Done:  E(RB3LYP) =  -307.751907195     A.U. after    1 cycles
            NFock=  1  Conv=0.58D-09     -V/T= 2.0039
 DoSCS=F DFT=T ScalE2(SS,OS)=  1.000000  1.000000
 Range of M.O.s used for correlation:     1   188
 NBasis=   188 NAE=    24 NBE=    24 NFC=     0 NFV=     0
 NROrb=    188 NOA=    24 NOB=    24 NVA=   164 NVB=   164

 **** Warning!!: The largest alpha MO coefficient is  0.53621068D+02

 Symmetrizing basis deriv contribution to polar:
 IMax=3 JMax=2 DiffMx= 0.00D+00
 G2DrvN: will do    15 centers at a time, making    1 passes.
 Calling FoFCou, ICntrl=  3107 FMM=F I1Cent=   0 AccDes= 0.00D+00.
 End of G2Drv F.D. properties file   721 does not exist.
 End of G2Drv F.D. properties file   722 does not exist.
 End of G2Drv F.D. properties file   788 does not exist.
          IDoAtm=11111111111111
          Differentiating once with respect to electric field.
                with respect to dipole field.
          Differentiating once with respect to nuclear coordinates.
 Keep R1 ints in memory in canonical form, NReq=165990500.
          There are    45 degrees of freedom in the 1st order CPHF.  IDoFFX=6 NUNeed=     3.
     42 vectors produced by pass  0 Test12= 8.75D-15 2.22D-09 XBig12= 3.64D+01 2.19D+00.
 AX will form    42 AO Fock derivatives at one time.
     42 vectors produced by pass  1 Test12= 8.75D-15 2.22D-09 XBig12= 5.59D+00 4.63D-01.
     42 vectors produced by pass  2 Test12= 8.75D-15 2.22D-09 XBig12= 6.57D-02 5.28D-02.
     42 vectors produced by pass  3 Test12= 8.75D-15 2.22D-09 XBig12= 1.92D-04 2.30D-03.
     42 vectors produced by pass  4 Test12= 8.75D-15 2.22D-09 XBig12= 4.34D-07 1.45D-04.
     29 vectors produced by pass  5 Test12= 8.75D-15 2.22D-09 XBig12= 5.27D-10 4.97D-06.
      4 vectors produced by pass  6 Test12= 8.75D-15 2.22D-09 XBig12= 5.20D-13 1.09D-07.
      1 vectors produced by pass  7 Test12= 8.75D-15 2.22D-09 XBig12= 4.81D-16 4.01D-09.
 InvSVY:  IOpt=1 It=  1 EMax= 1.78D-15
 Solved reduced A of dimension   244 with    45 vectors.
 Isotropic polarizability for W=    0.000000       55.37 Bohr**3.
 End of Minotr F.D. properties file   721 does not exist.
 End of Minotr F.D. properties file   722 does not exist.
 End of Minotr F.D. properties file   788 does not exist.

 **********************************************************************

            Population analysis using the SCF Density.

 **********************************************************************

 Orbital symmetries:
       Occupied  (A) (A) (A) (A) (A) (A) (A) (A) (A) (A) (A) (A)
                 (A) (A) (A) (A) (A) (A) (A) (A) (A) (A) (A) (A)
       Virtual   (A) (A) (A) (A) (A) (A) (A) (A) (A) (A) (A) (A)
                 (A) (A) (A) (A) (A) (A) (A) (A) (A) (A) (A) (A)
                 (A) (A) (A) (A) (A) (A) (A) (A) (A) (A) (A) (A)
                 (A) (A) (A) (A) (A) (A) (A) (A) (A) (A) (A) (A)
                 (A) (A) (A) (A) (A) (A) (A) (A) (A) (A) (A) (A)
                 (A) (A) (A) (A) (A) (A) (A) (A) (A) (A) (A) (A)
                 (A) (A) (A) (A) (A) (A) (A) (A) (A) (A) (A) (A)
                 (A) (A) (A) (A) (A) (A) (A) (A) (A) (A) (A) (A)
                 (A) (A) (A) (A) (A) (A) (A) (A) (A) (A) (A) (A)
                 (A) (A) (A) (A) (A) (A) (A) (A) (A) (A) (A) (A)
                 (A) (A) (A) (A) (A) (A) (A) (A) (A) (A) (A) (A)
                 (A) (A) (A) (A) (A) (A) (A) (A) (A) (A) (A) (A)
                 (A) (A) (A) (A) (A) (A) (A) (A) (A) (A) (A) (A)
                 (A) (A) (A) (A) (A) (A) (A) (A)
 The electronic state is 1-A.
 Alpha  occ. eigenvalues --  -19.13281 -19.13281 -10.22305 -10.22305 -10.22283
 Alpha  occ. eigenvalues --  -10.22281  -1.06310  -1.02554  -0.78800  -0.70317
 Alpha  occ. eigenvalues --   -0.67217  -0.58544  -0.51400  -0.48899  -0.48584
 Alpha  occ. eigenvalues --   -0.48358  -0.45394  -0.40809  -0.37970  -0.37410
 Alpha  occ. eigenvalues --   -0.37251  -0.31051  -0.29327  -0.25027
 Alpha virt. eigenvalues --   -0.00561   0.00605   0.00792   0.02346   0.03286
 Alpha virt. eigenvalues --    0.03697   0.03914   0.04504   0.07072   0.07382
 Alpha virt. eigenvalues --    0.07639   0.09753   0.09882   0.10959   0.11499
 Alpha virt. eigenvalues --    0.12073   0.12529   0.13356   0.13381   0.13871
 Alpha virt. eigenvalues --    0.14334   0.15092   0.15609   0.16357   0.16490
 Alpha virt. eigenvalues --    0.16523   0.20791   0.21637   0.21822   0.21829
 Alpha virt. eigenvalues --    0.23170   0.25192   0.27104   0.27115   0.27164
 Alpha virt. eigenvalues --    0.29990   0.30525   0.31433   0.32097   0.32162
 Alpha virt. eigenvalues --    0.33140   0.34579   0.34612   0.36510   0.37889
 Alpha virt. eigenvalues --    0.38768   0.45899   0.47950   0.48786   0.49960
 Alpha virt. eigenvalues --    0.55379   0.55634   0.58542   0.59205   0.61186
 Alpha virt. eigenvalues --    0.64260   0.65063   0.65898   0.67328   0.67328
 Alpha virt. eigenvalues --    0.68826   0.70505   0.70995   0.72701   0.73285
 Alpha virt. eigenvalues --    0.87593   0.89500   0.91837   0.95576   1.03119
 Alpha virt. eigenvalues --    1.03756   1.03928   1.05093   1.16071   1.18599
 Alpha virt. eigenvalues --    1.20035   1.22136   1.25690   1.26151   1.33965
 Alpha virt. eigenvalues --    1.34069   1.36053   1.49471   1.50316   1.52703
 Alpha virt. eigenvalues --    1.52885   1.56349   1.57389   1.57988   1.58861
 Alpha virt. eigenvalues --    1.61503   1.62590   1.65896   1.67990   1.69108
 Alpha virt. eigenvalues --    1.69851   1.71391   1.72705   1.77017   1.77044
 Alpha virt. eigenvalues --    1.84253   1.88038   1.89858   1.95374   1.97896
 Alpha virt. eigenvalues --    1.98694   2.08962   2.10693   2.10700   2.12684
 Alpha virt. eigenvalues --    2.17136   2.22538   2.28263   2.28783   2.39403
 Alpha virt. eigenvalues --    2.44614   2.48012   2.50356   2.51384   2.54707
 Alpha virt. eigenvalues --    2.59310   2.59583   2.67652   2.68034   2.68105
 Alpha virt. eigenvalues --    2.76326   2.78213   2.79072   2.80917   2.90671
 Alpha virt. eigenvalues --    2.92095   2.94758   2.97807   2.99041   3.08653
 Alpha virt. eigenvalues --    3.11556   3.17166   3.18456   3.24603   3.31117
 Alpha virt. eigenvalues --    3.35060   3.37310   3.74374   3.80372   3.83563
 Alpha virt. eigenvalues --    3.85010   3.96427   4.05850   4.06023   4.07611
 Alpha virt. eigenvalues --    4.16897   4.30347   5.07639   5.12133   5.35071
 Alpha virt. eigenvalues --    5.40308   5.65359   5.65400  23.81064  23.85668
 Alpha virt. eigenvalues --   23.89644  23.89908  49.88265  49.93181
          Condensed to atoms (all electrons):
               1          2          3          4          5          6
     1  C    5.565114  -0.046662  -0.089543   0.243933  -0.346864   0.238778
     2  C   -0.046662   5.565113   0.238778  -0.346864   0.243933  -0.089543
     3  O   -0.089543   0.238778   8.119781   0.238778  -0.089543  -0.025853
     4  C    0.243933  -0.346864   0.238778   5.565114  -0.046662  -0.089543
     5  C   -0.346864   0.243933  -0.089543  -0.046662   5.565114   0.238778
     6  O    0.238778  -0.089543  -0.025853  -0.089543   0.238778   8.119781
     7  H    0.392003  -0.080503   0.001613  -0.014243  -0.024502  -0.040985
     8  H    0.373603  -0.012036   0.005764  -0.004267   0.032040  -0.089214
     9  H   -0.080503   0.392003  -0.040985  -0.024503  -0.014243   0.001613
    10  H   -0.012036   0.373603  -0.089214   0.032040  -0.004267   0.005764
    11  H   -0.014243  -0.024503  -0.040985   0.392003  -0.080503   0.001613
    12  H   -0.004267   0.032040  -0.089214   0.373603  -0.012035   0.005764
    13  H    0.032040  -0.004267   0.005764  -0.012035   0.373603  -0.089214
    14  H   -0.024502  -0.014243   0.001613  -0.080503   0.392003  -0.040985
               7          8          9         10         11         12
     1  C    0.392003   0.373603  -0.080503  -0.012036  -0.014243  -0.004267
     2  C   -0.080503  -0.012036   0.392003   0.373603  -0.024503   0.032040
     3  O    0.001613   0.005764  -0.040985  -0.089214  -0.040985  -0.089214
     4  C   -0.014243  -0.004267  -0.024503   0.032040   0.392003   0.373603
     5  C   -0.024502   0.032040  -0.014243  -0.004267  -0.080503  -0.012035
     6  O   -0.040985  -0.089214   0.001613   0.005764   0.001613   0.005764
     7  H    0.632246  -0.039454   0.011204  -0.006723   0.005031  -0.001669
     8  H   -0.039454   0.573291  -0.006723   0.010265  -0.001669   0.001734
     9  H    0.011204  -0.006723   0.632246  -0.039454   0.034344  -0.008456
    10  H   -0.006723   0.010265  -0.039454   0.573291  -0.008456   0.004989
    11  H    0.005031  -0.001669   0.034344  -0.008456   0.632246  -0.039454
    12  H   -0.001669   0.001734  -0.008456   0.004989  -0.039454   0.573291
    13  H   -0.008456   0.004989  -0.001669   0.001734  -0.006723   0.010265
    14  H    0.034344  -0.008456   0.005031  -0.001669   0.011204  -0.006723
              13         14
     1  C    0.032040  -0.024502
     2  C   -0.004267  -0.014243
     3  O    0.005764   0.001613
     4  C   -0.012035  -0.080503
     5  C    0.373603   0.392003
     6  O   -0.089214  -0.040985
     7  H   -0.008456   0.034344
     8  H    0.004989  -0.008456
     9  H   -0.001669   0.005031
    10  H    0.001734  -0.001669
    11  H   -0.006723   0.011204
    12  H    0.010265  -0.006723
    13  H    0.573291  -0.039454
    14  H   -0.039454   0.632246
 Mulliken charges:
               1
     1  C   -0.226850
     2  C   -0.226850
     3  O   -0.146756
     4  C   -0.226850
     5  C   -0.226850
     6  O   -0.146756
     7  H    0.140095
     8  H    0.160133
     9  H    0.140095
    10  H    0.160133
    11  H    0.140095
    12  H    0.160133
    13  H    0.160133
    14  H    0.140095
 Sum of Mulliken charges =  -0.00000
 Mulliken charges with hydrogens summed into heavy atoms:
               1
     1  C    0.073378
     2  C    0.073378
     3  O   -0.146756
     4  C    0.073378
     5  C    0.073378
     6  O   -0.146756
 APT charges:
               1
     1  C    0.439277
     2  C    0.439277
     3  O   -0.712301
     4  C    0.439277
     5  C    0.439277
     6  O   -0.712301
     7  H   -0.063011
     8  H   -0.020115
     9  H   -0.063011
    10  H   -0.020115
    11  H   -0.063011
    12  H   -0.020115
    13  H   -0.020115
    14  H   -0.063011
 Sum of APT charges =   0.00000
 APT charges with hydrogens summed into heavy atoms:
               1
     1  C    0.356150
     2  C    0.356150
     3  O   -0.712301
     4  C    0.356150
     5  C    0.356150
     6  O   -0.712301
 Electronic spatial extent (au):  <R**2>=            502.8713
 Charge=             -0.0000 electrons
 Dipole moment (field-independent basis, Debye):
    X=              0.0000    Y=              0.0000    Z=             -0.0000  Tot=              0.0000
 Quadrupole moment (field-independent basis, Debye-Ang):
   XX=            -30.9296   YY=            -43.4847   ZZ=            -37.6035
   XY=              0.0000   XZ=             -0.0000   YZ=              2.5436
 Traceless Quadrupole moment (field-independent basis, Debye-Ang):
   XX=              6.4097   YY=             -6.1454   ZZ=             -0.2642
   XY=              0.0000   XZ=             -0.0000   YZ=              2.5436
 Octapole moment (field-independent basis, Debye-Ang**2):
  XXX=              0.0000  YYY=              0.0000  ZZZ=             -0.0000  XYY=              0.0000
  XXY=              0.0000  XXZ=              0.0000  XZZ=              0.0000  YZZ=             -0.0000
  YYZ=             -0.0000  XYZ=              0.0000
 Hexadecapole moment (field-independent basis, Debye-Ang**3):
 XXXX=           -290.4148 YYYY=           -300.0809 ZZZZ=            -81.5133 XXXY=             -0.0000
 XXXZ=              0.0000 YYYX=              0.0000 YYYZ=              1.1938 ZZZX=             -0.0000
 ZZZY=              1.2868 XXYY=            -85.6343 XXZZ=            -63.9047 YYZZ=            -61.2571
 XXYZ=             -5.2673 YYXZ=             -0.0000 ZZXY=             -0.0000
 N-N= 2.636704250803D+02 E-N=-1.247384499663D+03  KE= 3.065515473942D+02
  Exact polarizability:      62.411       0.000      52.306       0.000       1.106      51.390
 Approx polarizability:      79.266       0.000      69.601       0.000      -1.838      73.851
 ******************************Gaussian NBO Version 3.1******************************
             N A T U R A L   A T O M I C   O R B I T A L   A N D
          N A T U R A L   B O N D   O R B I T A L   A N A L Y S I S
 ******************************Gaussian NBO Version 3.1******************************
       /RESON  / : Allow strongly delocalized NBO set

 Analyzing the SCF density

 Job title: C1COCCO1                                                        

 Storage needed:    106904 in NPA,    142158 in NBO (1258290080 available)
 GSVD:  LWork=        9360 too small for GESVD, short by       41600 words or       41600 for optimal perf.


 NATURAL POPULATIONS:  Natural atomic orbital occupancies 
                                                          
   NAO  Atom  No  lang   Type(AO)    Occupancy      Energy
 ----------------------------------------------------------
     1    C    1  S      Cor( 1S)     1.99919     -10.09837
     2    C    1  S      Val( 2S)     1.01836      -0.24739
     3    C    1  S      Ryd( 4S)     0.00231       1.02187
     4    C    1  S      Ryd( 3S)     0.00028       0.96507
     5    C    1  S      Ryd( 5S)     0.00001      23.15149
     6    C    1  px     Val( 2p)     0.89106      -0.08283
     7    C    1  px     Ryd( 4p)     0.00318       0.78163
     8    C    1  px     Ryd( 3p)     0.00040       0.47079
     9    C    1  px     Ryd( 5p)     0.00011       2.75940
    10    C    1  py     Val( 2p)     1.00001      -0.09160
    11    C    1  py     Ryd( 4p)     0.00427       0.74756
    12    C    1  py     Ryd( 3p)     0.00022       0.52595
    13    C    1  py     Ryd( 5p)     0.00019       2.65868
    14    C    1  pz     Val( 2p)     1.12287      -0.09603
    15    C    1  pz     Ryd( 4p)     0.00225       0.78339
    16    C    1  pz     Ryd( 3p)     0.00032       0.56328
    17    C    1  pz     Ryd( 5p)     0.00011       2.72780
    18    C    1  dxy    Ryd( 3d)     0.00185       2.05220
    19    C    1  dxz    Ryd( 3d)     0.00153       1.93513
    20    C    1  dyz    Ryd( 3d)     0.00080       1.94280
    21    C    1  dx2y2  Ryd( 3d)     0.00155       2.14936
    22    C    1  dz2    Ryd( 3d)     0.00161       2.22129
 
    23    C    2  S      Cor( 1S)     1.99919     -10.09837
    24    C    2  S      Val( 2S)     1.01836      -0.24739
    25    C    2  S      Ryd( 4S)     0.00231       1.02187
    26    C    2  S      Ryd( 3S)     0.00028       0.96507
    27    C    2  S      Ryd( 5S)     0.00001      23.15149
    28    C    2  px     Val( 2p)     0.89106      -0.08283
    29    C    2  px     Ryd( 4p)     0.00318       0.78163
    30    C    2  px     Ryd( 3p)     0.00040       0.47079
    31    C    2  px     Ryd( 5p)     0.00011       2.75940
    32    C    2  py     Val( 2p)     1.00001      -0.09160
    33    C    2  py     Ryd( 4p)     0.00427       0.74756
    34    C    2  py     Ryd( 3p)     0.00022       0.52595
    35    C    2  py     Ryd( 5p)     0.00019       2.65868
    36    C    2  pz     Val( 2p)     1.12287      -0.09603
    37    C    2  pz     Ryd( 4p)     0.00225       0.78339
    38    C    2  pz     Ryd( 3p)     0.00032       0.56328
    39    C    2  pz     Ryd( 5p)     0.00011       2.72780
    40    C    2  dxy    Ryd( 3d)     0.00185       2.05220
    41    C    2  dxz    Ryd( 3d)     0.00153       1.93513
    42    C    2  dyz    Ryd( 3d)     0.00080       1.94280
    43    C    2  dx2y2  Ryd( 3d)     0.00155       2.14936
    44    C    2  dz2    Ryd( 3d)     0.00161       2.22129
 
    45    O    3  S      Cor( 1S)     1.99979     -18.93483
    46    O    3  S      Val( 2S)     1.62792      -0.86616
    47    O    3  S      Ryd( 3S)     0.00418       0.72964
    48    O    3  S      Ryd( 4S)     0.00025       1.38082
    49    O    3  S      Ryd( 5S)     0.00000      49.64403
    50    O    3  px     Val( 2p)     1.34243      -0.27916
    51    O    3  px     Ryd( 3p)     0.00321       0.81535
    52    O    3  px     Ryd( 4p)     0.00113       0.90692
    53    O    3  px     Ryd( 5p)     0.00002       5.20438
    54    O    3  py     Val( 2p)     1.77388      -0.30953
    55    O    3  py     Ryd( 3p)     0.00531       0.55301
    56    O    3  py     Ryd( 4p)     0.00090       0.90618
    57    O    3  py     Ryd( 5p)     0.00005       5.07275
    58    O    3  pz     Val( 2p)     1.83137      -0.30211
    59    O    3  pz     Ryd( 3p)     0.00268       0.50901
    60    O    3  pz     Ryd( 4p)     0.00070       0.87488
    61    O    3  pz     Ryd( 5p)     0.00002       5.02578
    62    O    3  dxy    Ryd( 3d)     0.00088       3.36891
    63    O    3  dxz    Ryd( 3d)     0.00054       3.19635
    64    O    3  dyz    Ryd( 3d)     0.00087       3.07627
    65    O    3  dx2y2  Ryd( 3d)     0.00063       3.17734
    66    O    3  dz2    Ryd( 3d)     0.00074       3.09453
 
    67    C    4  S      Cor( 1S)     1.99919     -10.09837
    68    C    4  S      Val( 2S)     1.01836      -0.24739
    69    C    4  S      Ryd( 4S)     0.00231       1.02187
    70    C    4  S      Ryd( 3S)     0.00028       0.96507
    71    C    4  S      Ryd( 5S)     0.00001      23.15149
    72    C    4  px     Val( 2p)     0.89106      -0.08283
    73    C    4  px     Ryd( 4p)     0.00318       0.78163
    74    C    4  px     Ryd( 3p)     0.00040       0.47079
    75    C    4  px     Ryd( 5p)     0.00011       2.75940
    76    C    4  py     Val( 2p)     1.00001      -0.09160
    77    C    4  py     Ryd( 4p)     0.00427       0.74756
    78    C    4  py     Ryd( 3p)     0.00022       0.52595
    79    C    4  py     Ryd( 5p)     0.00019       2.65868
    80    C    4  pz     Val( 2p)     1.12287      -0.09603
    81    C    4  pz     Ryd( 4p)     0.00225       0.78339
    82    C    4  pz     Ryd( 3p)     0.00032       0.56328
    83    C    4  pz     Ryd( 5p)     0.00011       2.72780
    84    C    4  dxy    Ryd( 3d)     0.00185       2.05220
    85    C    4  dxz    Ryd( 3d)     0.00153       1.93513
    86    C    4  dyz    Ryd( 3d)     0.00080       1.94280
    87    C    4  dx2y2  Ryd( 3d)     0.00155       2.14936
    88    C    4  dz2    Ryd( 3d)     0.00161       2.22129
 
    89    C    5  S      Cor( 1S)     1.99919     -10.09837
    90    C    5  S      Val( 2S)     1.01836      -0.24739
    91    C    5  S      Ryd( 4S)     0.00231       1.02187
    92    C    5  S      Ryd( 3S)     0.00028       0.96507
    93    C    5  S      Ryd( 5S)     0.00001      23.15149
    94    C    5  px     Val( 2p)     0.89106      -0.08283
    95    C    5  px     Ryd( 4p)     0.00318       0.78163
    96    C    5  px     Ryd( 3p)     0.00040       0.47079
    97    C    5  px     Ryd( 5p)     0.00011       2.75940
    98    C    5  py     Val( 2p)     1.00001      -0.09160
    99    C    5  py     Ryd( 4p)     0.00427       0.74756
   100    C    5  py     Ryd( 3p)     0.00022       0.52595
   101    C    5  py     Ryd( 5p)     0.00019       2.65868
   102    C    5  pz     Val( 2p)     1.12287      -0.09603
   103    C    5  pz     Ryd( 4p)     0.00225       0.78339
   104    C    5  pz     Ryd( 3p)     0.00032       0.56328
   105    C    5  pz     Ryd( 5p)     0.00011       2.72780
   106    C    5  dxy    Ryd( 3d)     0.00185       2.05220
   107    C    5  dxz    Ryd( 3d)     0.00153       1.93513
   108    C    5  dyz    Ryd( 3d)     0.00080       1.94281
   109    C    5  dx2y2  Ryd( 3d)     0.00155       2.14936
   110    C    5  dz2    Ryd( 3d)     0.00161       2.22129
 
   111    O    6  S      Cor( 1S)     1.99979     -18.93483
   112    O    6  S      Val( 2S)     1.62792      -0.86616
   113    O    6  S      Ryd( 3S)     0.00418       0.72964
   114    O    6  S      Ryd( 4S)     0.00025       1.38082
   115    O    6  S      Ryd( 5S)     0.00000      49.64403
   116    O    6  px     Val( 2p)     1.34243      -0.27916
   117    O    6  px     Ryd( 3p)     0.00321       0.81535
   118    O    6  px     Ryd( 4p)     0.00113       0.90692
   119    O    6  px     Ryd( 5p)     0.00002       5.20438
   120    O    6  py     Val( 2p)     1.77388      -0.30953
   121    O    6  py     Ryd( 3p)     0.00531       0.55301
   122    O    6  py     Ryd( 4p)     0.00090       0.90618
   123    O    6  py     Ryd( 5p)     0.00005       5.07275
   124    O    6  pz     Val( 2p)     1.83137      -0.30211
   125    O    6  pz     Ryd( 3p)     0.00268       0.50901
   126    O    6  pz     Ryd( 4p)     0.00070       0.87488
   127    O    6  pz     Ryd( 5p)     0.00002       5.02578
   128    O    6  dxy    Ryd( 3d)     0.00088       3.36891
   129    O    6  dxz    Ryd( 3d)     0.00054       3.19635
   130    O    6  dyz    Ryd( 3d)     0.00087       3.07627
   131    O    6  dx2y2  Ryd( 3d)     0.00063       3.17734
   132    O    6  dz2    Ryd( 3d)     0.00074       3.09453
 
   133    H    7  S      Val( 1S)     0.83541       0.00752
   134    H    7  S      Ryd( 2S)     0.00187       0.79996
   135    H    7  S      Ryd( 4S)     0.00022       1.36831
   136    H    7  S      Ryd( 3S)     0.00016       0.89558
   137    H    7  px     Ryd( 2p)     0.00010       1.83449
   138    H    7  py     Ryd( 2p)     0.00024       1.81568
   139    H    7  pz     Ryd( 2p)     0.00046       2.69779
 
   140    H    8  S      Val( 1S)     0.80823       0.01947
   141    H    8  S      Ryd( 2S)     0.00106       0.55010
   142    H    8  S      Ryd( 3S)     0.00014       0.84448
   143    H    8  S      Ryd( 4S)     0.00010       1.57079
   144    H    8  px     Ryd( 2p)     0.00029       2.37260
   145    H    8  py     Ryd( 2p)     0.00031       1.96490
   146    H    8  pz     Ryd( 2p)     0.00018       1.94436
 
   147    H    9  S      Val( 1S)     0.83541       0.00752
   148    H    9  S      Ryd( 2S)     0.00187       0.79996
   149    H    9  S      Ryd( 4S)     0.00022       1.36831
   150    H    9  S      Ryd( 3S)     0.00016       0.89558
   151    H    9  px     Ryd( 2p)     0.00010       1.83449
   152    H    9  py     Ryd( 2p)     0.00024       1.81568
   153    H    9  pz     Ryd( 2p)     0.00046       2.69779
 
   154    H   10  S      Val( 1S)     0.80823       0.01947
   155    H   10  S      Ryd( 2S)     0.00106       0.55010
   156    H   10  S      Ryd( 3S)     0.00014       0.84448
   157    H   10  S      Ryd( 4S)     0.00010       1.57079
   158    H   10  px     Ryd( 2p)     0.00029       2.37260
   159    H   10  py     Ryd( 2p)     0.00031       1.96490
   160    H   10  pz     Ryd( 2p)     0.00018       1.94436
 
   161    H   11  S      Val( 1S)     0.83541       0.00752
   162    H   11  S      Ryd( 2S)     0.00187       0.79996
   163    H   11  S      Ryd( 4S)     0.00022       1.36831
   164    H   11  S      Ryd( 3S)     0.00016       0.89557
   165    H   11  px     Ryd( 2p)     0.00010       1.83449
   166    H   11  py     Ryd( 2p)     0.00024       1.81568
   167    H   11  pz     Ryd( 2p)     0.00046       2.69779
 
   168    H   12  S      Val( 1S)     0.80823       0.01947
   169    H   12  S      Ryd( 2S)     0.00106       0.55010
   170    H   12  S      Ryd( 3S)     0.00014       0.84447
   171    H   12  S      Ryd( 4S)     0.00010       1.57079
   172    H   12  px     Ryd( 2p)     0.00029       2.37260
   173    H   12  py     Ryd( 2p)     0.00031       1.96490
   174    H   12  pz     Ryd( 2p)     0.00018       1.94436
 
   175    H   13  S      Val( 1S)     0.80823       0.01947
   176    H   13  S      Ryd( 2S)     0.00106       0.55010
   177    H   13  S      Ryd( 3S)     0.00014       0.84447
   178    H   13  S      Ryd( 4S)     0.00010       1.57079
   179    H   13  px     Ryd( 2p)     0.00029       2.37260
   180    H   13  py     Ryd( 2p)     0.00031       1.96490
   181    H   13  pz     Ryd( 2p)     0.00018       1.94436
 
   182    H   14  S      Val( 1S)     0.83541       0.00752
   183    H   14  S      Ryd( 2S)     0.00187       0.79996
   184    H   14  S      Ryd( 4S)     0.00022       1.36831
   185    H   14  S      Ryd( 3S)     0.00016       0.89557
   186    H   14  px     Ryd( 2p)     0.00010       1.83449
   187    H   14  py     Ryd( 2p)     0.00024       1.81568
   188    H   14  pz     Ryd( 2p)     0.00046       2.69779

 WARNING:  Population inversion found on atom  C    1
           Population inversion found on atom  C    2
           Population inversion found on atom  C    4
           Population inversion found on atom  C    5
           Population inversion found on atom  H    7
           Population inversion found on atom  H    9
           Population inversion found on atom  H   11
           Population inversion found on atom  H   14


 Summary of Natural Population Analysis:                  
                                                          
                                       Natural Population 
                Natural  -----------------------------------------------
    Atom  No    Charge         Core      Valence    Rydberg      Total
 -----------------------------------------------------------------------
      C    1   -0.05249      1.99919     4.03230    0.02099     6.05249
      C    2   -0.05249      1.99919     4.03230    0.02099     6.05249
      O    3   -0.59751      1.99979     6.57561    0.02212     8.59751
      C    4   -0.05249      1.99919     4.03230    0.02099     6.05249
      C    5   -0.05249      1.99919     4.03230    0.02099     6.05249
      O    6   -0.59751      1.99979     6.57561    0.02212     8.59751
      H    7    0.16155      0.00000     0.83541    0.00304     0.83845
      H    8    0.18969      0.00000     0.80823    0.00208     0.81031
      H    9    0.16155      0.00000     0.83541    0.00304     0.83845
      H   10    0.18969      0.00000     0.80823    0.00208     0.81031
      H   11    0.16155      0.00000     0.83541    0.00304     0.83845
      H   12    0.18969      0.00000     0.80823    0.00208     0.81031
      H   13    0.18969      0.00000     0.80823    0.00208     0.81031
      H   14    0.16155      0.00000     0.83541    0.00304     0.83845
 =======================================================================
   * Total *   -0.00000     11.99636    35.85498    0.14866    48.00000

                                 Natural Population      
 --------------------------------------------------------
   Core                      11.99636 ( 99.9696% of  12)
   Valence                   35.85498 ( 99.5972% of  36)
   Natural Minimal Basis     47.85134 ( 99.6903% of  48)
   Natural Rydberg Basis      0.14866 (  0.3097% of  48)
 --------------------------------------------------------

    Atom  No          Natural Electron Configuration
 ----------------------------------------------------------------------------
      C    1      [core]2S( 1.02)2p( 3.01)3d( 0.01)4p( 0.01)
      C    2      [core]2S( 1.02)2p( 3.01)3d( 0.01)4p( 0.01)
      O    3      [core]2S( 1.63)2p( 4.95)3p( 0.01)
      C    4      [core]2S( 1.02)2p( 3.01)3d( 0.01)4p( 0.01)
      C    5      [core]2S( 1.02)2p( 3.01)3d( 0.01)4p( 0.01)
      O    6      [core]2S( 1.63)2p( 4.95)3p( 0.01)
      H    7            1S( 0.84)
      H    8            1S( 0.81)
      H    9            1S( 0.84)
      H   10            1S( 0.81)
      H   11            1S( 0.84)
      H   12            1S( 0.81)
      H   13            1S( 0.81)
      H   14            1S( 0.84)


 NATURAL BOND ORBITAL ANALYSIS:

                       Occupancies       Lewis Structure    Low   High
           Occ.    -------------------  -----------------   occ   occ
  Cycle   Thresh.   Lewis   Non-Lewis     CR  BD  3C  LP    (L)   (NL)   Dev
 =============================================================================
   1(1)    1.90    47.58160   0.41840      6  14   0   4     0      0    0.03
 -----------------------------------------------------------------------------

 Structure accepted: No low occupancy Lewis orbitals

 --------------------------------------------------------
   Core                     11.99634 ( 99.970% of  12)
   Valence Lewis            35.58525 ( 98.848% of  36)
  ==================       ============================
   Total Lewis              47.58160 ( 99.128% of  48)
  -----------------------------------------------------
   Valence non-Lewis         0.32926 (  0.686% of  48)
   Rydberg non-Lewis         0.08914 (  0.186% of  48)
  ==================       ============================
   Total non-Lewis           0.41840 (  0.872% of  48)
 --------------------------------------------------------


       (Occupancy)   Bond orbital/ Coefficients/ Hybrids
 ---------------------------------------------------------------------------------
     1. (1.99284) BD ( 1) C   1 - C   2  
                ( 50.00%)   0.7071* C   1 s( 29.90%)p 2.34( 70.05%)d 0.00(  0.05%)
                                            0.0002  0.5466 -0.0109 -0.0059 -0.0002
                                            0.0089  0.0238  0.0004  0.0012  0.8073
                                           -0.0086 -0.0073  0.0014  0.2192 -0.0025
                                            0.0000  0.0030  0.0029 -0.0010  0.0101
                                           -0.0174 -0.0089
                ( 50.00%)   0.7071* C   2 s( 29.90%)p 2.34( 70.05%)d 0.00(  0.05%)
                                            0.0002  0.5466 -0.0109 -0.0059 -0.0002
                                            0.0089  0.0238  0.0004  0.0012 -0.8073
                                            0.0086  0.0073 -0.0014 -0.2192  0.0025
                                           -0.0000 -0.0030 -0.0029  0.0010  0.0101
                                           -0.0174 -0.0089
     2. (1.99048) BD ( 1) C   1 - O   6  
                ( 32.58%)   0.5708* C   1 s( 20.94%)p 3.76( 78.77%)d 0.01(  0.28%)
                                           -0.0000 -0.4563  0.0346 -0.0074  0.0001
                                           -0.7399  0.0165  0.0052  0.0040  0.3935
                                           -0.0533  0.0020 -0.0040 -0.2853  0.0285
                                           -0.0020  0.0037  0.0316 -0.0259  0.0125
                                           -0.0252  0.0196
                ( 67.42%)   0.8211* O   6 s( 27.65%)p 2.61( 72.28%)d 0.00(  0.07%)
                                            0.0000 -0.5255  0.0207 -0.0012  0.0000
                                            0.7061 -0.0317 -0.0038  0.0009 -0.3730
                                           -0.0062  0.0081  0.0019  0.2899  0.0013
                                           -0.0043 -0.0013  0.0172 -0.0126  0.0135
                                           -0.0014  0.0057
     3. (1.98544) BD ( 1) C   1 - H   7  
                ( 58.81%)   0.7668* C   1 s( 24.57%)p 3.07( 75.35%)d 0.00(  0.07%)
                                            0.0000 -0.4952 -0.0232  0.0015  0.0002
                                            0.0255 -0.0114 -0.0043  0.0040  0.1008
                                           -0.0092 -0.0000  0.0022  0.8615  0.0138
                                            0.0021  0.0035 -0.0042  0.0011 -0.0029
                                            0.0015 -0.0267
                ( 41.19%)   0.6418* H   7 s( 99.96%)p 0.00(  0.04%)
                                           -0.9998 -0.0054 -0.0001  0.0006 -0.0026
                                           -0.0034 -0.0200
     4. (1.97988) BD ( 1) C   1 - H   8  
                ( 59.62%)   0.7722* C   1 s( 24.67%)p 3.05( 75.26%)d 0.00(  0.06%)
                                           -0.0002  0.4967  0.0054  0.0040  0.0004
                                           -0.6680 -0.0211 -0.0029 -0.0025 -0.4243
                                            0.0033 -0.0032  0.0029  0.3546  0.0115
                                            0.0034 -0.0021  0.0166 -0.0156 -0.0078
                                            0.0069 -0.0035
                ( 40.38%)   0.6354* H   8 s( 99.95%)p 0.00(  0.05%)
                                            0.9998  0.0022  0.0001 -0.0000  0.0162
                                            0.0119 -0.0077
     5. (1.99048) BD ( 1) C   2 - O   3  
                ( 32.58%)   0.5708* C   2 s( 20.94%)p 3.76( 78.77%)d 0.01(  0.28%)
                                           -0.0000 -0.4563  0.0346 -0.0074  0.0001
                                           -0.7399  0.0165  0.0052  0.0040 -0.3935
                                            0.0533 -0.0020  0.0040  0.2853 -0.0285
                                            0.0020 -0.0037 -0.0316  0.0259  0.0125
                                           -0.0252  0.0196
                ( 67.42%)   0.8211* O   3 s( 27.65%)p 2.61( 72.28%)d 0.00(  0.07%)
                                            0.0000 -0.5255  0.0207 -0.0012  0.0000
                                            0.7061 -0.0317 -0.0038  0.0009  0.3730
                                            0.0062 -0.0081 -0.0019 -0.2899 -0.0013
                                            0.0043  0.0013 -0.0172  0.0126  0.0135
                                           -0.0014  0.0057
     6. (1.98544) BD ( 1) C   2 - H   9  
                ( 58.81%)   0.7668* C   2 s( 24.57%)p 3.07( 75.35%)d 0.00(  0.07%)
                                           -0.0000  0.4952  0.0232 -0.0015 -0.0002
                                           -0.0255  0.0114  0.0043 -0.0040  0.1008
                                           -0.0092 -0.0000  0.0022  0.8615  0.0138
                                            0.0021  0.0035 -0.0042  0.0011  0.0029
                                           -0.0015  0.0267
                ( 41.19%)   0.6418* H   9 s( 99.96%)p 0.00(  0.04%)
                                            0.9998  0.0054  0.0001 -0.0006  0.0026
                                           -0.0034 -0.0200
     7. (1.97988) BD ( 1) C   2 - H  10  
                ( 59.62%)   0.7722* C   2 s( 24.67%)p 3.05( 75.26%)d 0.00(  0.06%)
                                           -0.0002  0.4967  0.0054  0.0040  0.0004
                                           -0.6680 -0.0211 -0.0029 -0.0025  0.4243
                                           -0.0033  0.0032 -0.0029 -0.3546 -0.0115
                                           -0.0034  0.0021 -0.0166  0.0156 -0.0078
                                            0.0069 -0.0035
                ( 40.38%)   0.6354* H  10 s( 99.95%)p 0.00(  0.05%)
                                            0.9998  0.0022  0.0001 -0.0000  0.0162
                                           -0.0119  0.0077
     8. (1.99048) BD ( 1) O   3 - C   4  
                ( 67.42%)   0.8211* O   3 s( 27.65%)p 2.61( 72.28%)d 0.00(  0.07%)
                                           -0.0000  0.5255 -0.0207  0.0012 -0.0000
                                            0.7061 -0.0317 -0.0038  0.0009 -0.3730
                                           -0.0062  0.0081  0.0019  0.2899  0.0013
                                           -0.0043 -0.0013 -0.0172  0.0126 -0.0135
                                            0.0014 -0.0057
                ( 32.58%)   0.5708* C   4 s( 20.94%)p 3.76( 78.77%)d 0.01(  0.28%)
                                            0.0000  0.4563 -0.0346  0.0074 -0.0001
                                           -0.7399  0.0165  0.0052  0.0040  0.3935
                                           -0.0533  0.0020 -0.0040 -0.2853  0.0285
                                           -0.0020  0.0037 -0.0316  0.0259 -0.0125
                                            0.0252 -0.0196
     9. (1.99284) BD ( 1) C   4 - C   5  
                ( 50.00%)   0.7071* C   4 s( 29.90%)p 2.34( 70.05%)d 0.00(  0.05%)
                                            0.0002  0.5466 -0.0109 -0.0059 -0.0002
                                           -0.0089 -0.0238 -0.0004 -0.0012 -0.8073
                                            0.0086  0.0073 -0.0014 -0.2192  0.0025
                                           -0.0000 -0.0030  0.0029 -0.0010  0.0101
                                           -0.0174 -0.0089
                ( 50.00%)   0.7071* C   5 s( 29.90%)p 2.34( 70.05%)d 0.00(  0.05%)
                                            0.0002  0.5466 -0.0109 -0.0059 -0.0002
                                           -0.0089 -0.0238 -0.0004 -0.0012  0.8073
                                           -0.0086 -0.0073  0.0014  0.2192 -0.0025
                                            0.0000  0.0030 -0.0029  0.0010  0.0101
                                           -0.0174 -0.0089
    10. (1.98544) BD ( 1) C   4 - H  11  
                ( 58.81%)   0.7668* C   4 s( 24.57%)p 3.07( 75.35%)d 0.00(  0.07%)
                                           -0.0000  0.4952  0.0232 -0.0015 -0.0002
                                            0.0255 -0.0114 -0.0043  0.0040  0.1008
                                           -0.0092 -0.0000  0.0022  0.8615  0.0138
                                            0.0021  0.0035  0.0042 -0.0011  0.0029
                                           -0.0015  0.0267
                ( 41.19%)   0.6418* H  11 s( 99.96%)p 0.00(  0.04%)
                                            0.9998  0.0054  0.0001 -0.0006 -0.0026
                                           -0.0034 -0.0200
    11. (1.97988) BD ( 1) C   4 - H  12  
                ( 59.62%)   0.7722* C   4 s( 24.67%)p 3.05( 75.26%)d 0.00(  0.06%)
                                           -0.0002  0.4967  0.0054  0.0040  0.0004
                                            0.6680  0.0211  0.0029  0.0025  0.4243
                                           -0.0033  0.0032 -0.0029 -0.3546 -0.0115
                                           -0.0034  0.0021  0.0166 -0.0156 -0.0078
                                            0.0069 -0.0035
                ( 40.38%)   0.6354* H  12 s( 99.95%)p 0.00(  0.05%)
                                            0.9998  0.0022  0.0001 -0.0000 -0.0162
                                           -0.0119  0.0077
    12. (1.99048) BD ( 1) C   5 - O   6  
                ( 32.58%)   0.5708* C   5 s( 20.94%)p 3.76( 78.77%)d 0.01(  0.28%)
                                            0.0000  0.4563 -0.0346  0.0074 -0.0001
                                           -0.7399  0.0165  0.0052  0.0040 -0.3935
                                            0.0533 -0.0020  0.0040  0.2853 -0.0285
                                            0.0020 -0.0037  0.0316 -0.0259 -0.0125
                                            0.0252 -0.0196
                ( 67.42%)   0.8211* O   6 s( 27.65%)p 2.61( 72.28%)d 0.00(  0.07%)
                                           -0.0000  0.5255 -0.0207  0.0012 -0.0000
                                            0.7061 -0.0317 -0.0038  0.0009  0.3730
                                            0.0062 -0.0081 -0.0019 -0.2899 -0.0013
                                            0.0043  0.0013  0.0172 -0.0126 -0.0135
                                            0.0014 -0.0057
    13. (1.97988) BD ( 1) C   5 - H  13  
                ( 59.62%)   0.7722* C   5 s( 24.67%)p 3.05( 75.26%)d 0.00(  0.06%)
                                           -0.0002  0.4967  0.0054  0.0040  0.0004
                                            0.6680  0.0211  0.0029  0.0025 -0.4243
                                            0.0033 -0.0032  0.0029  0.3546  0.0115
                                            0.0034 -0.0021 -0.0166  0.0156 -0.0078
                                            0.0069 -0.0035
                ( 40.38%)   0.6354* H  13 s( 99.95%)p 0.00(  0.05%)
                                            0.9998  0.0022  0.0001 -0.0000 -0.0162
                                            0.0119 -0.0077
    14. (1.98544) BD ( 1) C   5 - H  14  
                ( 58.81%)   0.7668* C   5 s( 24.57%)p 3.07( 75.35%)d 0.00(  0.07%)
                                            0.0000 -0.4952 -0.0232  0.0015  0.0002
                                           -0.0255  0.0114  0.0043 -0.0040  0.1008
                                           -0.0092 -0.0000  0.0022  0.8615  0.0138
                                            0.0021  0.0035  0.0042 -0.0011 -0.0029
                                            0.0015 -0.0267
                ( 41.19%)   0.6418* H  14 s( 99.96%)p 0.00(  0.04%)
                                           -0.9998 -0.0054 -0.0001  0.0006  0.0026
                                           -0.0034 -0.0200
    15. (1.99919) CR ( 1) C   1           s(100.00%)p 0.00(  0.00%)
                                            1.0000 -0.0000  0.0000  0.0000  0.0000
                                           -0.0002 -0.0000 -0.0000 -0.0000 -0.0003
                                            0.0000  0.0000  0.0000 -0.0000  0.0000
                                            0.0000 -0.0000  0.0000 -0.0000 -0.0000
                                            0.0000  0.0000
    16. (1.99919) CR ( 1) C   2           s(100.00%)p 0.00(  0.00%)
                                            1.0000 -0.0000  0.0000  0.0000  0.0000
                                           -0.0002 -0.0000 -0.0000 -0.0000  0.0003
                                           -0.0000 -0.0000 -0.0000  0.0000 -0.0000
                                           -0.0000  0.0000 -0.0000  0.0000 -0.0000
                                            0.0000  0.0000
    17. (1.99979) CR ( 1) O   3           s(100.00%)p 0.00(  0.00%)
                                            1.0000  0.0001 -0.0000  0.0000  0.0000
                                            0.0000 -0.0000 -0.0000  0.0000  0.0001
                                            0.0000  0.0000  0.0000  0.0001  0.0000
                                           -0.0000 -0.0000 -0.0000  0.0000 -0.0000
                                            0.0000  0.0000
    18. (1.99919) CR ( 1) C   4           s(100.00%)p 0.00(  0.00%)
                                            1.0000 -0.0000  0.0000  0.0000  0.0000
                                            0.0002  0.0000  0.0000  0.0000  0.0003
                                           -0.0000 -0.0000 -0.0000  0.0000 -0.0000
                                           -0.0000  0.0000  0.0000 -0.0000 -0.0000
                                            0.0000  0.0000
    19. (1.99919) CR ( 1) C   5           s(100.00%)p 0.00(  0.00%)
                                            1.0000 -0.0000  0.0000  0.0000  0.0000
                                            0.0002  0.0000  0.0000  0.0000 -0.0003
                                            0.0000  0.0000  0.0000 -0.0000  0.0000
                                            0.0000 -0.0000 -0.0000  0.0000 -0.0000
                                            0.0000  0.0000
    20. (1.99979) CR ( 1) O   6           s(100.00%)p 0.00(  0.00%)
                                            1.0000  0.0001 -0.0000  0.0000  0.0000
                                            0.0000 -0.0000 -0.0000  0.0000 -0.0001
                                           -0.0000 -0.0000 -0.0000 -0.0001 -0.0000
                                            0.0000  0.0000  0.0000 -0.0000 -0.0000
                                            0.0000  0.0000
    21. (1.96595) LP ( 1) O   3           s( 44.78%)p 1.23( 55.19%)d 0.00(  0.03%)
                                           -0.0001  0.6688  0.0225 -0.0009  0.0000
                                            0.0000 -0.0000  0.0000  0.0000  0.5823
                                            0.0109  0.0054  0.0027 -0.4612 -0.0046
                                           -0.0020 -0.0021 -0.0000  0.0000  0.0126
                                            0.0115 -0.0022
    22. (1.92226) LP ( 2) O   3           s(  0.03%)p99.99( 99.93%)d 1.46(  0.04%)
                                            0.0001 -0.0044  0.0161 -0.0029 -0.0002
                                            0.0000  0.0000 -0.0000 -0.0000 -0.6176
                                           -0.0174 -0.0063  0.0019 -0.7858 -0.0102
                                           -0.0012  0.0006  0.0000  0.0000  0.0050
                                           -0.0100 -0.0171
    23. (1.96595) LP ( 1) O   6           s( 44.78%)p 1.23( 55.19%)d 0.00(  0.03%)
                                           -0.0001  0.6688  0.0225 -0.0009  0.0000
                                            0.0000  0.0000  0.0000  0.0000 -0.5823
                                           -0.0109 -0.0054 -0.0027  0.4612  0.0046
                                            0.0020  0.0021  0.0000 -0.0000  0.0126
                                            0.0115 -0.0022
    24. (1.92226) LP ( 2) O   6           s(  0.03%)p99.99( 99.93%)d 1.46(  0.04%)
                                            0.0001 -0.0044  0.0161 -0.0029 -0.0002
                                           -0.0000 -0.0000 -0.0000 -0.0000  0.6176
                                            0.0174  0.0063 -0.0019  0.7858  0.0102
                                            0.0012 -0.0006 -0.0000 -0.0000  0.0050
                                           -0.0100 -0.0171
    25. (0.00365) RY*( 1) C   1           s(  1.56%)p49.80( 77.45%)d13.50( 20.99%)
                                            0.0000  0.0223  0.1213 -0.0060 -0.0177
                                            0.0352  0.5088  0.1183 -0.0428 -0.0453
                                           -0.6439  0.0189  0.1208  0.0156  0.2558
                                            0.0340  0.0127 -0.2340 -0.1528 -0.0871
                                           -0.3524 -0.0054
    26. (0.00296) RY*( 2) C   1           s( 16.32%)p 3.47( 56.61%)d 1.66( 27.07%)
                                            0.0000 -0.0125  0.3951  0.0829  0.0092
                                           -0.0137  0.5139  0.1145 -0.0099 -0.0050
                                            0.3806 -0.0459 -0.0576  0.0329 -0.3588
                                           -0.0020 -0.0921  0.0428  0.2915 -0.1284
                                           -0.1944  0.3600
    27. (0.00253) RY*( 3) C   1           s( 13.47%)p 2.99( 40.28%)d 3.43( 46.25%)
                                           -0.0000  0.0161  0.3446  0.1255 -0.0034
                                            0.0374 -0.2166 -0.0529 -0.1436  0.0030
                                           -0.3039  0.0986 -0.0521  0.0159  0.3714
                                           -0.2862 -0.0786  0.4521  0.3638 -0.1472
                                            0.1645  0.2776
    28. (0.00098) RY*( 4) C   1           s(  2.71%)p 7.80( 21.10%)d28.16( 76.20%)
                                           -0.0000  0.0040  0.1513  0.0616  0.0186
                                            0.0326  0.2474  0.1188 -0.0201 -0.0167
                                           -0.1134 -0.2197 -0.0433  0.0167 -0.0529
                                            0.2555  0.0507  0.4641 -0.3553  0.5499
                                            0.3333  0.0826
    29. (0.00067) RY*( 5) C   1           s(  4.33%)p18.48( 79.95%)d 3.64( 15.73%)
                                           -0.0000 -0.0027  0.1210  0.1682 -0.0180
                                           -0.0036  0.3369 -0.1595  0.0153  0.0094
                                            0.4559  0.0085 -0.1069 -0.0090  0.6626
                                           -0.0181  0.0377 -0.1486 -0.1313 -0.0988
                                            0.2631 -0.1974
    30. (0.00043) RY*( 6) C   1           s(  7.52%)p 9.58( 72.03%)d 2.72( 20.45%)
                                            0.0000  0.0007  0.2199 -0.1615  0.0268
                                           -0.0109  0.2017 -0.7154  0.1093 -0.0025
                                           -0.2318  0.1077  0.0051 -0.0010 -0.2951
                                            0.0093  0.0567 -0.1001  0.1911  0.0381
                                            0.3120 -0.2432
    31. (0.00025) RY*( 7) C   1           s( 61.31%)p 0.27( 16.82%)d 0.36( 21.87%)
                                           -0.0000  0.0044  0.5607 -0.5463 -0.0127
                                            0.0117 -0.2622  0.1249 -0.1000  0.0032
                                            0.1308  0.0866  0.1717  0.0164  0.1330
                                           -0.0251  0.0323 -0.3213 -0.0774  0.3195
                                           -0.0333  0.0793
    32. (0.00022) RY*( 8) C   1           s(  6.22%)p 9.62( 59.85%)d 5.45( 33.93%)
                                           -0.0000 -0.0030  0.1848 -0.1453  0.0833
                                            0.0168 -0.0968 -0.1144  0.1234  0.0013
                                            0.0845 -0.4819  0.4461 -0.0065  0.0422
                                            0.1880  0.2914  0.3195 -0.0913 -0.4209
                                           -0.1645 -0.1571
    33. (0.00014) RY*( 9) C   1           s(  4.40%)p14.45( 63.59%)d 7.28( 32.01%)
                                           -0.0000  0.0032  0.1694  0.1035 -0.0678
                                            0.0180 -0.1723 -0.3512  0.0306 -0.0113
                                            0.0123 -0.4074 -0.5091  0.0043  0.0400
                                           -0.1706 -0.1594  0.0163 -0.1676  0.1870
                                           -0.5021 -0.0681
    34. (0.00003) RY*(10) C   1           s(  7.85%)p 9.75( 76.53%)d 1.99( 15.62%)
    35. (0.00000) RY*(11) C   1           s(  0.39%)p99.99( 96.89%)d 6.89(  2.72%)
    36. (0.00001) RY*(12) C   1           s(  2.76%)p34.96( 96.35%)d 0.32(  0.89%)
    37. (0.00000) RY*(13) C   1           s( 98.14%)p 0.02(  1.49%)d 0.00(  0.37%)
    38. (0.00001) RY*(14) C   1           s(  0.79%)p72.03( 56.78%)d53.82( 42.43%)
    39. (0.00001) RY*(15) C   1           s( 16.76%)p 1.55( 26.02%)d 3.41( 57.22%)
    40. (0.00001) RY*(16) C   1           s( 52.93%)p 0.62( 32.64%)d 0.27( 14.43%)
    41. (0.00000) RY*(17) C   1           s(  2.46%)p10.63( 26.17%)d28.99( 71.37%)
    42. (0.00365) RY*( 1) C   2           s(  1.56%)p49.80( 77.45%)d13.50( 20.99%)
                                            0.0000  0.0223  0.1213 -0.0060 -0.0177
                                            0.0352  0.5088  0.1183 -0.0428  0.0453
                                            0.6439 -0.0189 -0.1208 -0.0156 -0.2558
                                           -0.0340 -0.0127  0.2340  0.1528 -0.0871
                                           -0.3524 -0.0054
    43. (0.00296) RY*( 2) C   2           s( 16.32%)p 3.47( 56.61%)d 1.66( 27.07%)
                                            0.0000 -0.0125  0.3951  0.0829  0.0092
                                           -0.0137  0.5139  0.1145 -0.0099  0.0050
                                           -0.3806  0.0459  0.0576 -0.0329  0.3588
                                            0.0020  0.0921 -0.0428 -0.2915 -0.1284
                                           -0.1944  0.3600
    44. (0.00253) RY*( 3) C   2           s( 13.47%)p 2.99( 40.28%)d 3.43( 46.25%)
                                           -0.0000  0.0161  0.3446  0.1255 -0.0034
                                            0.0374 -0.2166 -0.0529 -0.1436 -0.0030
                                            0.3039 -0.0986  0.0521 -0.0159 -0.3714
                                            0.2862  0.0786 -0.4521 -0.3638 -0.1472
                                            0.1645  0.2776
    45. (0.00098) RY*( 4) C   2           s(  2.71%)p 7.80( 21.10%)d28.16( 76.20%)
                                           -0.0000  0.0040  0.1513  0.0616  0.0186
                                            0.0326  0.2474  0.1188 -0.0201  0.0167
                                            0.1134  0.2197  0.0433 -0.0167  0.0529
                                           -0.2555 -0.0507 -0.4641  0.3553  0.5499
                                            0.3333  0.0826
    46. (0.00067) RY*( 5) C   2           s(  4.33%)p18.48( 79.95%)d 3.64( 15.73%)
                                           -0.0000 -0.0027  0.1210  0.1682 -0.0180
                                           -0.0036  0.3369 -0.1595  0.0153 -0.0094
                                           -0.4559 -0.0085  0.1069  0.0090 -0.6626
                                            0.0181 -0.0377  0.1486  0.1313 -0.0988
                                            0.2631 -0.1974
    47. (0.00043) RY*( 6) C   2           s(  7.52%)p 9.58( 72.03%)d 2.72( 20.45%)
                                            0.0000  0.0007  0.2199 -0.1615  0.0268
                                           -0.0109  0.2017 -0.7154  0.1093  0.0025
                                            0.2318 -0.1077 -0.0051  0.0010  0.2951
                                           -0.0093 -0.0567  0.1001 -0.1911  0.0381
                                            0.3120 -0.2432
    48. (0.00025) RY*( 7) C   2           s( 61.31%)p 0.27( 16.82%)d 0.36( 21.87%)
                                           -0.0000  0.0044  0.5607 -0.5463 -0.0127
                                            0.0117 -0.2622  0.1249 -0.1000 -0.0032
                                           -0.1308 -0.0866 -0.1717 -0.0164 -0.1330
                                            0.0251 -0.0323  0.3213  0.0774  0.3195
                                           -0.0333  0.0793
    49. (0.00022) RY*( 8) C   2           s(  6.22%)p 9.62( 59.85%)d 5.45( 33.93%)
                                           -0.0000 -0.0030  0.1848 -0.1453  0.0833
                                            0.0168 -0.0968 -0.1144  0.1234 -0.0013
                                           -0.0845  0.4819 -0.4461  0.0065 -0.0422
                                           -0.1880 -0.2914 -0.3195  0.0913 -0.4209
                                           -0.1645 -0.1571
    50. (0.00014) RY*( 9) C   2           s(  4.40%)p14.45( 63.59%)d 7.28( 32.01%)
                                           -0.0000  0.0032  0.1694  0.1035 -0.0678
                                            0.0180 -0.1723 -0.3512  0.0306  0.0113
                                           -0.0123  0.4074  0.5091 -0.0043 -0.0400
                                            0.1706  0.1594 -0.0163  0.1676  0.1870
                                           -0.5021 -0.0681
    51. (0.00003) RY*(10) C   2           s(  7.85%)p 9.75( 76.53%)d 1.99( 15.62%)
    52. (0.00000) RY*(11) C   2           s(  0.39%)p99.99( 96.89%)d 6.89(  2.72%)
    53. (0.00001) RY*(12) C   2           s(  2.76%)p34.96( 96.35%)d 0.32(  0.89%)
    54. (0.00000) RY*(13) C   2           s( 98.14%)p 0.02(  1.49%)d 0.00(  0.37%)
    55. (0.00001) RY*(14) C   2           s(  0.79%)p72.03( 56.78%)d53.82( 42.43%)
    56. (0.00001) RY*(15) C   2           s( 16.76%)p 1.55( 26.02%)d 3.41( 57.22%)
    57. (0.00001) RY*(16) C   2           s( 52.93%)p 0.62( 32.64%)d 0.27( 14.43%)
    58. (0.00000) RY*(17) C   2           s(  2.46%)p10.63( 26.17%)d28.99( 71.37%)
    59. (0.00678) RY*( 1) O   3           s( 12.82%)p 6.73( 86.34%)d 0.07(  0.84%)
                                           -0.0000  0.0045  0.3516  0.0677  0.0006
                                           -0.0000 -0.0000 -0.0000  0.0000  0.0087
                                           -0.7254 -0.0927 -0.0145  0.0209 -0.5290
                                            0.2183 -0.0164 -0.0000 -0.0000 -0.0179
                                            0.0498  0.0748
    60. (0.00218) RY*( 2) O   3           s( 22.08%)p 3.15( 69.52%)d 0.38(  8.40%)
                                           -0.0000  0.0107  0.4689  0.0285 -0.0010
                                            0.0000  0.0000  0.0000 -0.0000 -0.0196
                                            0.6121 -0.3375  0.0116  0.0182 -0.3490
                                            0.2890 -0.0187  0.0000 -0.0000 -0.0529
                                           -0.2546  0.1280
    61. (0.00143) RY*( 3) O   3           s(  0.00%)p 1.00( 93.35%)d 0.07(  6.65%)
                                            0.0000 -0.0000 -0.0000  0.0000 -0.0000
                                            0.0338  0.4777  0.8386 -0.0297  0.0000
                                           -0.0000  0.0000 -0.0000 -0.0000  0.0000
                                           -0.0000  0.0000  0.2096 -0.1502  0.0000
                                            0.0000 -0.0000
    62. (0.00064) RY*( 4) O   3           s( 20.01%)p 3.97( 79.43%)d 0.03(  0.56%)
                                            0.0000  0.0107  0.4223  0.1468  0.0087
                                            0.0000  0.0000  0.0000 -0.0000 -0.0041
                                           -0.2177 -0.5754 -0.0228  0.0141  0.6185
                                           -0.1803  0.0034  0.0000 -0.0000  0.0641
                                           -0.0367 -0.0099
    63. (0.00039) RY*( 5) O   3           s(  0.00%)p 1.00( 94.41%)d 0.06(  5.59%)
                                            0.0000 -0.0000 -0.0000 -0.0000  0.0000
                                            0.0357  0.8313 -0.4879 -0.1177  0.0000
                                            0.0000  0.0000 -0.0000  0.0000 -0.0000
                                            0.0000 -0.0000  0.1598  0.1742 -0.0000
                                           -0.0000  0.0000
    64. (0.00029) RY*( 6) O   3           s( 67.89%)p 0.44( 29.95%)d 0.03(  2.16%)
                                            0.0000 -0.0024 -0.3310  0.7545 -0.0067
                                            0.0000  0.0000 -0.0000 -0.0000  0.0049
                                            0.0840 -0.3134 -0.1039 -0.0104 -0.2962
                                           -0.3070  0.0352  0.0000  0.0000 -0.0352
                                            0.1423 -0.0122
    65. (0.00022) RY*( 7) O   3           s( 30.47%)p 2.15( 65.50%)d 0.13(  4.03%)
                                           -0.0000 -0.0052  0.5361  0.1305  0.0170
                                           -0.0000 -0.0000  0.0000 -0.0000 -0.0089
                                            0.0876  0.4885 -0.1677  0.0187 -0.1103
                                           -0.5977  0.1037 -0.0000 -0.0000  0.0956
                                           -0.0758 -0.1594
    66. (0.00009) RY*( 8) O   3           s(  0.00%)p 1.00(  5.72%)d16.49( 94.28%)
    67. (0.00003) RY*( 9) O   3           s( 39.16%)p 1.46( 57.16%)d 0.09(  3.68%)
    68. (0.00000) RY*(10) O   3           s( 99.78%)p 0.00(  0.21%)d 0.00(  0.01%)
    69. (0.00001) RY*(11) O   3           s(  0.00%)p 1.00( 99.53%)d 0.00(  0.47%)
    70. (0.00000) RY*(12) O   3           s(  0.39%)p99.99( 99.56%)d 0.13(  0.05%)
    71. (0.00001) RY*(13) O   3           s(  0.00%)p 1.00(  7.08%)d13.12( 92.92%)
    72. (0.00000) RY*(14) O   3           s(  0.27%)p99.99( 99.53%)d 0.72(  0.20%)
    73. (0.00000) RY*(15) O   3           s(  1.15%)p 1.97(  2.26%)d84.20( 96.59%)
    74. (0.00001) RY*(16) O   3           s(  5.43%)p 1.10(  5.95%)d16.32( 88.62%)
    75. (0.00000) RY*(17) O   3           s(  0.42%)p11.39(  4.83%)d99.99( 94.75%)
    76. (0.00365) RY*( 1) C   4           s(  1.56%)p49.80( 77.45%)d13.50( 20.99%)
                                            0.0000  0.0223  0.1213 -0.0060 -0.0177
                                           -0.0352 -0.5088 -0.1183  0.0428  0.0453
                                            0.6439 -0.0189 -0.1208 -0.0156 -0.2558
                                           -0.0340 -0.0127 -0.2340 -0.1528 -0.0871
                                           -0.3524 -0.0054
    77. (0.00296) RY*( 2) C   4           s( 16.32%)p 3.47( 56.61%)d 1.66( 27.07%)
                                            0.0000 -0.0125  0.3951  0.0829  0.0092
                                            0.0137 -0.5139 -0.1145  0.0099  0.0050
                                           -0.3806  0.0459  0.0576 -0.0329  0.3588
                                            0.0020  0.0921  0.0428  0.2915 -0.1284
                                           -0.1944  0.3600
    78. (0.00253) RY*( 3) C   4           s( 13.47%)p 2.99( 40.28%)d 3.43( 46.25%)
                                           -0.0000  0.0161  0.3446  0.1255 -0.0034
                                           -0.0374  0.2166  0.0529  0.1436 -0.0030
                                            0.3039 -0.0986  0.0521 -0.0159 -0.3714
                                            0.2862  0.0786  0.4521  0.3638 -0.1472
                                            0.1645  0.2776
    79. (0.00098) RY*( 4) C   4           s(  2.71%)p 7.80( 21.10%)d28.16( 76.20%)
                                           -0.0000  0.0040  0.1513  0.0616  0.0186
                                           -0.0326 -0.2474 -0.1188  0.0201  0.0167
                                            0.1134  0.2197  0.0433 -0.0167  0.0529
                                           -0.2555 -0.0507  0.4641 -0.3553  0.5499
                                            0.3333  0.0826
    80. (0.00067) RY*( 5) C   4           s(  4.33%)p18.48( 79.95%)d 3.64( 15.73%)
                                           -0.0000 -0.0027  0.1210  0.1682 -0.0180
                                            0.0036 -0.3369  0.1595 -0.0153 -0.0094
                                           -0.4559 -0.0085  0.1069  0.0090 -0.6626
                                            0.0181 -0.0377 -0.1486 -0.1313 -0.0988
                                            0.2631 -0.1974
    81. (0.00043) RY*( 6) C   4           s(  7.52%)p 9.58( 72.03%)d 2.72( 20.45%)
                                            0.0000  0.0007  0.2199 -0.1615  0.0268
                                            0.0109 -0.2017  0.7154 -0.1093  0.0025
                                            0.2318 -0.1077 -0.0051  0.0010  0.2951
                                           -0.0093 -0.0567 -0.1001  0.1911  0.0381
                                            0.3120 -0.2432
    82. (0.00025) RY*( 7) C   4           s( 61.31%)p 0.27( 16.82%)d 0.36( 21.87%)
                                           -0.0000  0.0044  0.5607 -0.5463 -0.0127
                                           -0.0117  0.2622 -0.1249  0.1000 -0.0032
                                           -0.1308 -0.0866 -0.1717 -0.0164 -0.1330
                                            0.0251 -0.0323 -0.3213 -0.0774  0.3195
                                           -0.0333  0.0793
    83. (0.00022) RY*( 8) C   4           s(  6.22%)p 9.62( 59.85%)d 5.45( 33.93%)
                                           -0.0000 -0.0030  0.1848 -0.1453  0.0833
                                           -0.0168  0.0968  0.1144 -0.1234 -0.0013
                                           -0.0845  0.4819 -0.4461  0.0065 -0.0422
                                           -0.1880 -0.2914  0.3195 -0.0913 -0.4209
                                           -0.1645 -0.1571
    84. (0.00014) RY*( 9) C   4           s(  4.40%)p14.45( 63.59%)d 7.28( 32.01%)
                                           -0.0000  0.0032  0.1694  0.1035 -0.0678
                                           -0.0180  0.1723  0.3512 -0.0306  0.0113
                                           -0.0123  0.4074  0.5091 -0.0043 -0.0400
                                            0.1706  0.1594  0.0163 -0.1676  0.1870
                                           -0.5021 -0.0681
    85. (0.00003) RY*(10) C   4           s(  7.85%)p 9.75( 76.53%)d 1.99( 15.62%)
    86. (0.00000) RY*(11) C   4           s(  0.39%)p99.99( 96.89%)d 6.89(  2.72%)
    87. (0.00001) RY*(12) C   4           s(  2.76%)p34.96( 96.35%)d 0.32(  0.89%)
    88. (0.00000) RY*(13) C   4           s( 98.14%)p 0.02(  1.49%)d 0.00(  0.37%)
    89. (0.00001) RY*(14) C   4           s(  0.79%)p72.03( 56.78%)d53.82( 42.43%)
    90. (0.00001) RY*(15) C   4           s( 16.76%)p 1.55( 26.02%)d 3.41( 57.22%)
    91. (0.00001) RY*(16) C   4           s( 52.93%)p 0.62( 32.64%)d 0.27( 14.43%)
    92. (0.00000) RY*(17) C   4           s(  2.46%)p10.63( 26.17%)d28.99( 71.37%)
    93. (0.00365) RY*( 1) C   5           s(  1.56%)p49.80( 77.45%)d13.50( 20.99%)
                                            0.0000  0.0223  0.1213 -0.0060 -0.0177
                                           -0.0352 -0.5088 -0.1183  0.0428 -0.0453
                                           -0.6439  0.0189  0.1208  0.0156  0.2558
                                            0.0340  0.0127  0.2340  0.1528 -0.0871
                                           -0.3524 -0.0054
    94. (0.00296) RY*( 2) C   5           s( 16.32%)p 3.47( 56.61%)d 1.66( 27.07%)
                                            0.0000 -0.0125  0.3951  0.0829  0.0092
                                            0.0137 -0.5139 -0.1145  0.0099 -0.0050
                                            0.3806 -0.0459 -0.0576  0.0329 -0.3588
                                           -0.0020 -0.0921 -0.0428 -0.2915 -0.1284
                                           -0.1944  0.3600
    95. (0.00253) RY*( 3) C   5           s( 13.47%)p 2.99( 40.28%)d 3.43( 46.25%)
                                           -0.0000  0.0161  0.3446  0.1255 -0.0034
                                           -0.0374  0.2166  0.0529  0.1436  0.0030
                                           -0.3039  0.0986 -0.0521  0.0159  0.3714
                                           -0.2862 -0.0786 -0.4521 -0.3638 -0.1472
                                            0.1645  0.2776
    96. (0.00098) RY*( 4) C   5           s(  2.71%)p 7.80( 21.10%)d28.16( 76.20%)
                                           -0.0000  0.0040  0.1513  0.0616  0.0186
                                           -0.0326 -0.2474 -0.1188  0.0201 -0.0167
                                           -0.1134 -0.2197 -0.0433  0.0167 -0.0529
                                            0.2555  0.0507 -0.4641  0.3553  0.5499
                                            0.3333  0.0826
    97. (0.00067) RY*( 5) C   5           s(  4.33%)p18.48( 79.95%)d 3.64( 15.73%)
                                           -0.0000 -0.0027  0.1210  0.1682 -0.0180
                                            0.0036 -0.3369  0.1595 -0.0153  0.0094
                                            0.4559  0.0085 -0.1069 -0.0090  0.6626
                                           -0.0181  0.0377  0.1486  0.1313 -0.0988
                                            0.2631 -0.1974
    98. (0.00043) RY*( 6) C   5           s(  7.52%)p 9.58( 72.03%)d 2.72( 20.45%)
                                            0.0000  0.0007  0.2199 -0.1615  0.0268
                                            0.0109 -0.2017  0.7154 -0.1093 -0.0025
                                           -0.2318  0.1077  0.0051 -0.0010 -0.2951
                                            0.0093  0.0567  0.1001 -0.1911  0.0381
                                            0.3120 -0.2432
    99. (0.00025) RY*( 7) C   5           s( 61.31%)p 0.27( 16.82%)d 0.36( 21.87%)
                                           -0.0000  0.0044  0.5607 -0.5463 -0.0127
                                           -0.0117  0.2622 -0.1249  0.1000  0.0032
                                            0.1308  0.0866  0.1717  0.0164  0.1330
                                           -0.0251  0.0323  0.3213  0.0774  0.3195
                                           -0.0333  0.0793
   100. (0.00022) RY*( 8) C   5           s(  6.22%)p 9.62( 59.85%)d 5.45( 33.93%)
                                           -0.0000 -0.0030  0.1848 -0.1453  0.0833
                                           -0.0168  0.0968  0.1144 -0.1234  0.0013
                                            0.0845 -0.4819  0.4461 -0.0065  0.0422
                                            0.1880  0.2914 -0.3195  0.0913 -0.4209
                                           -0.1645 -0.1571
   101. (0.00014) RY*( 9) C   5           s(  4.40%)p14.45( 63.59%)d 7.28( 32.01%)
                                           -0.0000  0.0032  0.1694  0.1035 -0.0678
                                           -0.0180  0.1723  0.3512 -0.0306 -0.0113
                                            0.0123 -0.4074 -0.5091  0.0043  0.0400
                                           -0.1706 -0.1594 -0.0163  0.1676  0.1870
                                           -0.5021 -0.0681
   102. (0.00003) RY*(10) C   5           s(  7.85%)p 9.75( 76.53%)d 1.99( 15.62%)
   103. (0.00000) RY*(11) C   5           s(  0.39%)p99.99( 96.89%)d 6.89(  2.72%)
   104. (0.00001) RY*(12) C   5           s(  2.76%)p34.96( 96.35%)d 0.32(  0.89%)
   105. (0.00000) RY*(13) C   5           s( 98.14%)p 0.02(  1.49%)d 0.00(  0.37%)
   106. (0.00001) RY*(14) C   5           s(  0.79%)p72.03( 56.78%)d53.82( 42.43%)
   107. (0.00001) RY*(15) C   5           s( 16.76%)p 1.55( 26.02%)d 3.41( 57.22%)
   108. (0.00001) RY*(16) C   5           s( 52.93%)p 0.62( 32.64%)d 0.27( 14.43%)
   109. (0.00000) RY*(17) C   5           s(  2.46%)p10.63( 26.17%)d28.99( 71.37%)
   110. (0.00678) RY*( 1) O   6           s( 12.82%)p 6.73( 86.34%)d 0.07(  0.84%)
                                           -0.0000  0.0045  0.3516  0.0677  0.0006
                                           -0.0000 -0.0000 -0.0000  0.0000 -0.0087
                                            0.7254  0.0927  0.0145 -0.0209  0.5290
                                           -0.2183  0.0164  0.0000  0.0000 -0.0179
                                            0.0498  0.0748
   111. (0.00218) RY*( 2) O   6           s( 22.08%)p 3.15( 69.52%)d 0.38(  8.40%)
                                           -0.0000  0.0107  0.4689  0.0285 -0.0010
                                            0.0000  0.0000  0.0000 -0.0000  0.0196
                                           -0.6121  0.3375 -0.0116 -0.0182  0.3490
                                           -0.2890  0.0187 -0.0000  0.0000 -0.0529
                                           -0.2546  0.1280
   112. (0.00143) RY*( 3) O   6           s(  0.00%)p 1.00( 93.35%)d 0.07(  6.65%)
                                            0.0000 -0.0000 -0.0000  0.0000 -0.0000
                                            0.0338  0.4777  0.8386 -0.0297 -0.0000
                                            0.0000 -0.0000  0.0000  0.0000 -0.0000
                                            0.0000 -0.0000 -0.2096  0.1502  0.0000
                                            0.0000 -0.0000
   113. (0.00064) RY*( 4) O   6           s( 20.01%)p 3.97( 79.43%)d 0.03(  0.56%)
                                           -0.0000  0.0107  0.4223  0.1468  0.0087
                                            0.0000  0.0000 -0.0000 -0.0000  0.0041
                                            0.2177  0.5754  0.0228 -0.0141 -0.6185
                                            0.1803 -0.0034 -0.0000  0.0000  0.0641
                                           -0.0367 -0.0099
   114. (0.00039) RY*( 5) O   6           s(  0.00%)p 1.00( 94.41%)d 0.06(  5.59%)
                                            0.0000 -0.0000  0.0000 -0.0000  0.0000
                                            0.0357  0.8313 -0.4879 -0.1177  0.0000
                                            0.0000 -0.0000 -0.0000 -0.0000 -0.0000
                                           -0.0000  0.0000 -0.1598 -0.1742 -0.0000
                                           -0.0000  0.0000
   115. (0.00029) RY*( 6) O   6           s( 67.89%)p 0.44( 29.95%)d 0.03(  2.16%)
                                            0.0000 -0.0024 -0.3310  0.7545 -0.0067
                                            0.0000  0.0000 -0.0000 -0.0000 -0.0049
                                           -0.0840  0.3134  0.1039  0.0104  0.2962
                                            0.3070 -0.0352 -0.0000 -0.0000 -0.0352
                                            0.1423 -0.0122
   116. (0.00022) RY*( 7) O   6           s( 30.47%)p 2.15( 65.50%)d 0.13(  4.03%)
                                           -0.0000 -0.0052  0.5361  0.1305  0.0170
                                           -0.0000  0.0000  0.0000 -0.0000  0.0089
                                           -0.0876 -0.4885  0.1677 -0.0187  0.1103
                                            0.5977 -0.1037  0.0000 -0.0000  0.0956
                                           -0.0758 -0.1594
   117. (0.00009) RY*( 8) O   6           s(  0.00%)p 1.00(  5.72%)d16.49( 94.28%)
   118. (0.00003) RY*( 9) O   6           s( 39.16%)p 1.46( 57.16%)d 0.09(  3.68%)
   119. (0.00000) RY*(10) O   6           s( 99.78%)p 0.00(  0.21%)d 0.00(  0.01%)
   120. (0.00001) RY*(11) O   6           s(  0.00%)p 1.00( 99.53%)d 0.00(  0.47%)
   121. (0.00000) RY*(12) O   6           s(  0.39%)p99.99( 99.56%)d 0.13(  0.05%)
   122. (0.00001) RY*(13) O   6           s(  0.00%)p 1.00(  7.08%)d13.12( 92.92%)
   123. (0.00000) RY*(14) O   6           s(  0.27%)p99.99( 99.53%)d 0.72(  0.20%)
   124. (0.00000) RY*(15) O   6           s(  1.15%)p 1.97(  2.26%)d84.20( 96.59%)
   125. (0.00001) RY*(16) O   6           s(  5.43%)p 1.10(  5.95%)d16.32( 88.62%)
   126. (0.00000) RY*(17) O   6           s(  0.42%)p11.39(  4.83%)d99.99( 94.75%)
   127. (0.00190) RY*( 1) H   7           s( 99.49%)p 0.01(  0.51%)
                                           -0.0040  0.9974 -0.0006 -0.0040 -0.0112
                                           -0.0280 -0.0650
   128. (0.00030) RY*( 2) H   7           s( 38.52%)p 1.60( 61.48%)
                                           -0.0049  0.0299  0.6033  0.1427  0.2280
                                            0.7454  0.0845
   129. (0.00024) RY*( 3) H   7           s( 63.67%)p 0.57( 36.33%)
                                           -0.0070  0.0291 -0.3439  0.7194 -0.4112
                                            0.2220  0.3807
   130. (0.00016) RY*( 4) H   7           s( 60.68%)p 0.65( 39.32%)
                                            0.0026 -0.0161  0.7112  0.3175 -0.3183
                                           -0.5400  0.0149
   131. (0.00006) RY*( 5) H   7           s(  4.58%)p20.83( 95.42%)
   132. (0.00002) RY*( 6) H   7           s( 33.10%)p 2.02( 66.90%)
   133. (0.00107) RY*( 1) H   8           s( 99.37%)p 0.01(  0.63%)
                                           -0.0012  0.9968  0.0056 -0.0004 -0.0678
                                            0.0326  0.0255
   134. (0.00028) RY*( 2) H   8           s( 37.17%)p 1.69( 62.83%)
                                           -0.0045 -0.0397  0.6083 -0.0089 -0.0592
                                            0.7008  0.3656
   135. (0.00012) RY*( 3) H   8           s( 19.47%)p 4.14( 80.53%)
                                           -0.0135  0.0134 -0.0732  0.4347  0.1329
                                            0.4728 -0.7511
   136. (0.00009) RY*( 4) H   8           s( 81.16%)p 0.23( 18.84%)
   137. (0.00006) RY*( 5) H   8           s( 61.67%)p 0.62( 38.33%)
   138. (0.00006) RY*( 6) H   8           s(  1.21%)p81.77( 98.79%)
   139. (0.00190) RY*( 1) H   9           s( 99.49%)p 0.01(  0.51%)
                                           -0.0040  0.9974 -0.0006 -0.0040 -0.0112
                                            0.0280  0.0650
   140. (0.00030) RY*( 2) H   9           s( 38.52%)p 1.60( 61.48%)
                                           -0.0049  0.0299  0.6033  0.1427  0.2280
                                           -0.7454 -0.0845
   141. (0.00024) RY*( 3) H   9           s( 63.67%)p 0.57( 36.33%)
                                           -0.0070  0.0291 -0.3439  0.7194 -0.4112
                                           -0.2220 -0.3807
   142. (0.00016) RY*( 4) H   9           s( 60.68%)p 0.65( 39.32%)
                                            0.0026 -0.0161  0.7112  0.3175 -0.3183
                                            0.5400 -0.0149
   143. (0.00006) RY*( 5) H   9           s(  4.58%)p20.83( 95.42%)
   144. (0.00002) RY*( 6) H   9           s( 33.10%)p 2.02( 66.90%)
   145. (0.00107) RY*( 1) H  10           s( 99.37%)p 0.01(  0.63%)
                                           -0.0012  0.9968  0.0056 -0.0004 -0.0678
                                           -0.0326 -0.0255
   146. (0.00028) RY*( 2) H  10           s( 37.17%)p 1.69( 62.83%)
                                           -0.0045 -0.0397  0.6083 -0.0089 -0.0592
                                           -0.7008 -0.3656
   147. (0.00012) RY*( 3) H  10           s( 19.47%)p 4.14( 80.53%)
                                           -0.0135  0.0134 -0.0732  0.4347  0.1329
                                           -0.4728  0.7511
   148. (0.00009) RY*( 4) H  10           s( 81.16%)p 0.23( 18.84%)
   149. (0.00006) RY*( 5) H  10           s( 61.67%)p 0.62( 38.33%)
   150. (0.00006) RY*( 6) H  10           s(  1.21%)p81.77( 98.79%)
   151. (0.00190) RY*( 1) H  11           s( 99.49%)p 0.01(  0.51%)
                                           -0.0040  0.9974 -0.0006 -0.0040  0.0112
                                            0.0280  0.0650
   152. (0.00030) RY*( 2) H  11           s( 38.52%)p 1.60( 61.48%)
                                           -0.0049  0.0299  0.6033  0.1427 -0.2280
                                           -0.7454 -0.0845
   153. (0.00024) RY*( 3) H  11           s( 63.67%)p 0.57( 36.33%)
                                           -0.0070  0.0291 -0.3439  0.7194  0.4112
                                           -0.2220 -0.3807
   154. (0.00016) RY*( 4) H  11           s( 60.68%)p 0.65( 39.32%)
                                            0.0026 -0.0161  0.7112  0.3175  0.3183
                                            0.5400 -0.0149
   155. (0.00006) RY*( 5) H  11           s(  4.58%)p20.83( 95.42%)
   156. (0.00002) RY*( 6) H  11           s( 33.10%)p 2.02( 66.90%)
   157. (0.00107) RY*( 1) H  12           s( 99.37%)p 0.01(  0.63%)
                                           -0.0012  0.9968  0.0056 -0.0004  0.0678
                                           -0.0326 -0.0255
   158. (0.00028) RY*( 2) H  12           s( 37.17%)p 1.69( 62.83%)
                                           -0.0045 -0.0397  0.6083 -0.0089  0.0592
                                           -0.7008 -0.3656
   159. (0.00012) RY*( 3) H  12           s( 19.47%)p 4.14( 80.53%)
                                           -0.0135  0.0134 -0.0732  0.4347 -0.1329
                                           -0.4728  0.7511
   160. (0.00009) RY*( 4) H  12           s( 81.16%)p 0.23( 18.84%)
   161. (0.00006) RY*( 5) H  12           s( 61.67%)p 0.62( 38.33%)
   162. (0.00006) RY*( 6) H  12           s(  1.21%)p81.77( 98.79%)
   163. (0.00107) RY*( 1) H  13           s( 99.37%)p 0.01(  0.63%)
                                           -0.0012  0.9968  0.0056 -0.0004  0.0678
                                            0.0326  0.0255
   164. (0.00028) RY*( 2) H  13           s( 37.17%)p 1.69( 62.83%)
                                           -0.0045 -0.0397  0.6083 -0.0089  0.0592
                                            0.7008  0.3656
   165. (0.00012) RY*( 3) H  13           s( 19.47%)p 4.14( 80.53%)
                                           -0.0135  0.0134 -0.0732  0.4347 -0.1329
                                            0.4728 -0.7511
   166. (0.00009) RY*( 4) H  13           s( 81.16%)p 0.23( 18.84%)
   167. (0.00006) RY*( 5) H  13           s( 61.67%)p 0.62( 38.33%)
   168. (0.00006) RY*( 6) H  13           s(  1.21%)p81.77( 98.79%)
   169. (0.00190) RY*( 1) H  14           s( 99.49%)p 0.01(  0.51%)
                                           -0.0040  0.9974 -0.0006 -0.0040  0.0112
                                           -0.0280 -0.0650
   170. (0.00030) RY*( 2) H  14           s( 38.52%)p 1.60( 61.48%)
                                           -0.0049  0.0299  0.6033  0.1427 -0.2280
                                            0.7454  0.0845
   171. (0.00024) RY*( 3) H  14           s( 63.67%)p 0.57( 36.33%)
                                           -0.0070  0.0291 -0.3439  0.7194  0.4112
                                            0.2220  0.3807
   172. (0.00016) RY*( 4) H  14           s( 60.68%)p 0.65( 39.32%)
                                            0.0026 -0.0161  0.7112  0.3175  0.3183
                                           -0.5400  0.0149
   173. (0.00006) RY*( 5) H  14           s(  4.58%)p20.83( 95.42%)
   174. (0.00002) RY*( 6) H  14           s( 33.10%)p 2.02( 66.90%)
   175. (0.03091) BD*( 1) C   1 - C   2  
                ( 50.00%)   0.7071* C   1 s( 29.90%)p 2.34( 70.05%)d 0.00(  0.05%)
                                            0.0002  0.5466 -0.0109 -0.0059 -0.0002
                                            0.0089  0.0238  0.0004  0.0012  0.8073
                                           -0.0086 -0.0073  0.0014  0.2192 -0.0025
                                            0.0000  0.0030  0.0029 -0.0010  0.0101
                                           -0.0174 -0.0089
                ( 50.00%)  -0.7071* C   2 s( 29.90%)p 2.34( 70.05%)d 0.00(  0.05%)
                                            0.0002  0.5466 -0.0109 -0.0059 -0.0002
                                            0.0089  0.0238  0.0004  0.0012 -0.8073
                                            0.0086  0.0073 -0.0014 -0.2192  0.0025
                                           -0.0000 -0.0030 -0.0029  0.0010  0.0101
                                           -0.0174 -0.0089
   176. (0.02094) BD*( 1) C   1 - O   6  
                ( 67.42%)   0.8211* C   1 s( 20.94%)p 3.76( 78.77%)d 0.01(  0.28%)
                                           -0.0000 -0.4563  0.0346 -0.0074  0.0001
                                           -0.7399  0.0165  0.0052  0.0040  0.3935
                                           -0.0533  0.0020 -0.0040 -0.2853  0.0285
                                           -0.0020  0.0037  0.0316 -0.0259  0.0125
                                           -0.0252  0.0196
                ( 32.58%)  -0.5708* O   6 s( 27.65%)p 2.61( 72.28%)d 0.00(  0.07%)
                                            0.0000 -0.5255  0.0207 -0.0012  0.0000
                                            0.7061 -0.0317 -0.0038  0.0009 -0.3730
                                           -0.0062  0.0081  0.0019  0.2899  0.0013
                                           -0.0043 -0.0013  0.0172 -0.0126  0.0135
                                           -0.0014  0.0057
   177. (0.03041) BD*( 1) C   1 - H   7  
                ( 41.19%)   0.6418* C   1 s( 24.57%)p 3.07( 75.35%)d 0.00(  0.07%)
                                           -0.0000  0.4952  0.0232 -0.0015 -0.0002
                                           -0.0255  0.0114  0.0043 -0.0040 -0.1008
                                            0.0092  0.0000 -0.0022 -0.8615 -0.0138
                                           -0.0021 -0.0035  0.0042 -0.0011  0.0029
                                           -0.0015  0.0267
                ( 58.81%)  -0.7668* H   7 s( 99.96%)p 0.00(  0.04%)
                                            0.9998  0.0054  0.0001 -0.0006  0.0026
                                            0.0034  0.0200
   178. (0.01552) BD*( 1) C   1 - H   8  
                ( 40.38%)   0.6354* C   1 s( 24.67%)p 3.05( 75.26%)d 0.00(  0.06%)
                                            0.0002 -0.4967 -0.0054 -0.0040 -0.0004
                                            0.6680  0.0211  0.0029  0.0025  0.4243
                                           -0.0033  0.0032 -0.0029 -0.3546 -0.0115
                                           -0.0034  0.0021 -0.0166  0.0156  0.0078
                                           -0.0069  0.0035
                ( 59.62%)  -0.7722* H   8 s( 99.95%)p 0.00(  0.05%)
                                           -0.9998 -0.0022 -0.0001  0.0000 -0.0162
                                           -0.0119  0.0077
   179. (0.02094) BD*( 1) C   2 - O   3  
                ( 67.42%)   0.8211* C   2 s( 20.94%)p 3.76( 78.77%)d 0.01(  0.28%)
                                           -0.0000 -0.4563  0.0346 -0.0074  0.0001
                                           -0.7399  0.0165  0.0052  0.0040 -0.3935
                                            0.0533 -0.0020  0.0040  0.2853 -0.0285
                                            0.0020 -0.0037 -0.0316  0.0259  0.0125
                                           -0.0252  0.0196
                ( 32.58%)  -0.5708* O   3 s( 27.65%)p 2.61( 72.28%)d 0.00(  0.07%)
                                            0.0000 -0.5255  0.0207 -0.0012  0.0000
                                            0.7061 -0.0317 -0.0038  0.0009  0.3730
                                            0.0062 -0.0081 -0.0019 -0.2899 -0.0013
                                            0.0043  0.0013 -0.0172  0.0126  0.0135
                                           -0.0014  0.0057
   180. (0.03041) BD*( 1) C   2 - H   9  
                ( 41.19%)   0.6418* C   2 s( 24.57%)p 3.07( 75.35%)d 0.00(  0.07%)
                                            0.0000 -0.4952 -0.0232  0.0015  0.0002
                                            0.0255 -0.0114 -0.0043  0.0040 -0.1008
                                            0.0092  0.0000 -0.0022 -0.8615 -0.0138
                                           -0.0021 -0.0035  0.0042 -0.0011 -0.0029
                                            0.0015 -0.0267
                ( 58.81%)  -0.7668* H   9 s( 99.96%)p 0.00(  0.04%)
                                           -0.9998 -0.0054 -0.0001  0.0006 -0.0026
                                            0.0034  0.0200
   181. (0.01552) BD*( 1) C   2 - H  10  
                ( 40.38%)   0.6354* C   2 s( 24.67%)p 3.05( 75.26%)d 0.00(  0.06%)
                                            0.0002 -0.4967 -0.0054 -0.0040 -0.0004
                                            0.6680  0.0211  0.0029  0.0025 -0.4243
                                            0.0033 -0.0032  0.0029  0.3546  0.0115
                                            0.0034 -0.0021  0.0166 -0.0156  0.0078
                                           -0.0069  0.0035
                ( 59.62%)  -0.7722* H  10 s( 99.95%)p 0.00(  0.05%)
                                           -0.9998 -0.0022 -0.0001  0.0000 -0.0162
                                            0.0119 -0.0077
   182. (0.02094) BD*( 1) O   3 - C   4  
                ( 32.58%)   0.5708* O   3 s( 27.65%)p 2.61( 72.28%)d 0.00(  0.07%)
                                            0.0000 -0.5255  0.0207 -0.0012  0.0000
                                           -0.7061  0.0317  0.0038 -0.0009  0.3730
                                            0.0062 -0.0081 -0.0019 -0.2899 -0.0013
                                            0.0043  0.0013  0.0172 -0.0126  0.0135
                                           -0.0014  0.0057
                ( 67.42%)  -0.8211* C   4 s( 20.94%)p 3.76( 78.77%)d 0.01(  0.28%)
                                           -0.0000 -0.4563  0.0346 -0.0074  0.0001
                                            0.7399 -0.0165 -0.0052 -0.0040 -0.3935
                                            0.0533 -0.0020  0.0040  0.2853 -0.0285
                                            0.0020 -0.0037  0.0316 -0.0259  0.0125
                                           -0.0252  0.0196
   183. (0.03091) BD*( 1) C   4 - C   5  
                ( 50.00%)   0.7071* C   4 s( 29.90%)p 2.34( 70.05%)d 0.00(  0.05%)
                                            0.0002  0.5466 -0.0109 -0.0059 -0.0002
                                           -0.0089 -0.0238 -0.0004 -0.0012 -0.8073
                                            0.0086  0.0073 -0.0014 -0.2192  0.0025
                                           -0.0000 -0.0030  0.0029 -0.0010  0.0101
                                           -0.0174 -0.0089
                ( 50.00%)  -0.7071* C   5 s( 29.90%)p 2.34( 70.05%)d 0.00(  0.05%)
                                            0.0002  0.5466 -0.0109 -0.0059 -0.0002
                                           -0.0089 -0.0238 -0.0004 -0.0012  0.8073
                                           -0.0086 -0.0073  0.0014  0.2192 -0.0025
                                            0.0000  0.0030 -0.0029  0.0010  0.0101
                                           -0.0174 -0.0089
   184. (0.03041) BD*( 1) C   4 - H  11  
                ( 41.19%)   0.6418* C   4 s( 24.57%)p 3.07( 75.35%)d 0.00(  0.07%)
                                            0.0000 -0.4952 -0.0232  0.0015  0.0002
                                           -0.0255  0.0114  0.0043 -0.0040 -0.1008
                                            0.0092  0.0000 -0.0022 -0.8615 -0.0138
                                           -0.0021 -0.0035 -0.0042  0.0011 -0.0029
                                            0.0015 -0.0267
                ( 58.81%)  -0.7668* H  11 s( 99.96%)p 0.00(  0.04%)
                                           -0.9998 -0.0054 -0.0001  0.0006  0.0026
                                            0.0034  0.0200
   185. (0.01552) BD*( 1) C   4 - H  12  
                ( 40.38%)   0.6354* C   4 s( 24.67%)p 3.05( 75.26%)d 0.00(  0.06%)
                                            0.0002 -0.4967 -0.0054 -0.0040 -0.0004
                                           -0.6680 -0.0211 -0.0029 -0.0025 -0.4243
                                            0.0033 -0.0032  0.0029  0.3546  0.0115
                                            0.0034 -0.0021 -0.0166  0.0156  0.0078
                                           -0.0069  0.0035
                ( 59.62%)  -0.7722* H  12 s( 99.95%)p 0.00(  0.05%)
                                           -0.9998 -0.0022 -0.0001  0.0000  0.0162
                                            0.0119 -0.0077
   186. (0.02094) BD*( 1) C   5 - O   6  
                ( 67.42%)   0.8211* C   5 s( 20.94%)p 3.76( 78.77%)d 0.01(  0.28%)
                                            0.0000  0.4563 -0.0346  0.0074 -0.0001
                                           -0.7399  0.0165  0.0052  0.0040 -0.3935
                                            0.0533 -0.0020  0.0040  0.2853 -0.0285
                                            0.0020 -0.0037  0.0316 -0.0259 -0.0125
                                            0.0252 -0.0196
                ( 32.58%)  -0.5708* O   6 s( 27.65%)p 2.61( 72.28%)d 0.00(  0.07%)
                                           -0.0000  0.5255 -0.0207  0.0012 -0.0000
                                            0.7061 -0.0317 -0.0038  0.0009  0.3730
                                            0.0062 -0.0081 -0.0019 -0.2899 -0.0013
                                            0.0043  0.0013  0.0172 -0.0126 -0.0135
                                            0.0014 -0.0057
   187. (0.01552) BD*( 1) C   5 - H  13  
                ( 40.38%)   0.6354* C   5 s( 24.67%)p 3.05( 75.26%)d 0.00(  0.06%)
                                            0.0002 -0.4967 -0.0054 -0.0040 -0.0004
                                           -0.6680 -0.0211 -0.0029 -0.0025  0.4243
                                           -0.0033  0.0032 -0.0029 -0.3546 -0.0115
                                           -0.0034  0.0021  0.0166 -0.0156  0.0078
                                           -0.0069  0.0035
                ( 59.62%)  -0.7722* H  13 s( 99.95%)p 0.00(  0.05%)
                                           -0.9998 -0.0022 -0.0001  0.0000  0.0162
                                           -0.0119  0.0077
   188. (0.03041) BD*( 1) C   5 - H  14  
                ( 41.19%)   0.6418* C   5 s( 24.57%)p 3.07( 75.35%)d 0.00(  0.07%)
                                           -0.0000  0.4952  0.0232 -0.0015 -0.0002
                                            0.0255 -0.0114 -0.0043  0.0040 -0.1008
                                            0.0092  0.0000 -0.0022 -0.8615 -0.0138
                                           -0.0021 -0.0035 -0.0042  0.0011  0.0029
                                           -0.0015  0.0267
                ( 58.81%)  -0.7668* H  14 s( 99.96%)p 0.00(  0.04%)
                                            0.9998  0.0054  0.0001 -0.0006 -0.0026
                                            0.0034  0.0200


 NHO Directionality and "Bond Bending" (deviations from line of nuclear centers)

         [Thresholds for printing:  angular deviation  >  1.0 degree]
                                    hybrid p-character > 25.0%
                                    orbital occupancy  >  0.10e

                                Line of Centers        Hybrid 1              Hybrid 2
                                ---------------  -------------------   ------------------
                NBO               Theta   Phi    Theta   Phi    Dev    Theta   Phi    Dev
 ========================================================================================
     1. BD (   1) C   1 - C   2    75.3   90.0    74.5   87.5   2.5    105.5  272.5   2.5
     2. BD (   1) C   1 - O   6    70.2  331.2    72.1  334.7   3.8      --     --    --
     3. BD (   1) C   1 - H   7   174.1  241.0   173.9  261.6   2.2      --     --    --
     5. BD (   1) C   2 - O   3   109.8   28.8   107.9   25.3   3.8      --     --    --
     6. BD (   1) C   2 - H   9     5.9  119.0     6.1   98.4   2.2      --     --    --
     8. BD (   1) O   3 - C   4    70.2  331.2     --     --    --     107.9  154.7   3.8
     9. BD (   1) C   4 - C   5   104.7  270.0   105.5  267.5   2.5     74.5   92.5   2.5
    10. BD (   1) C   4 - H  11     5.9   61.0     6.1   81.6   2.2      --     --    --
    12. BD (   1) C   5 - O   6    70.2  208.8    72.1  205.3   3.8      --     --    --
    14. BD (   1) C   5 - H  14   174.1  299.0   173.9  278.4   2.2      --     --    --
    21. LP (   1) O   3             --     --    128.0   90.0   --       --     --    --
    22. LP (   2) O   3             --     --    141.2  270.0   --       --     --    --
    23. LP (   1) O   6             --     --     52.0  270.0   --       --     --    --
    24. LP (   2) O   6             --     --     38.8   90.0   --       --     --    --


 Second Order Perturbation Theory Analysis of Fock Matrix in NBO Basis

     Threshold for printing:   0.50 kcal/mol
                                                                              E(2)  E(j)-E(i) F(i,j)
         Donor NBO (i)                     Acceptor NBO (j)                 kcal/mol   a.u.    a.u. 
 ===================================================================================================

 within unit  1
   1. BD (   1) C   1 - C   2        / 59. RY*(   1) O   3                    0.86    1.29    0.030
   1. BD (   1) C   1 - C   2        /110. RY*(   1) O   6                    0.86    1.29    0.030
   2. BD (   1) C   1 - O   6        / 94. RY*(   2) C   5                    0.79    2.13    0.037
   2. BD (   1) C   1 - O   6        / 95. RY*(   3) C   5                    0.62    2.13    0.032
   2. BD (   1) C   1 - O   6        /181. BD*(   1) C   2 - H  10            0.87    1.20    0.029
   2. BD (   1) C   1 - O   6        /187. BD*(   1) C   5 - H  13            0.92    1.20    0.030
   3. BD (   1) C   1 - H   7        /180. BD*(   1) C   2 - H   9            2.54    0.89    0.043
   4. BD (   1) C   1 - H   8        /111. RY*(   2) O   6                    0.66    1.47    0.028
   4. BD (   1) C   1 - H   8        /179. BD*(   1) C   2 - O   3            3.68    0.81    0.049
   4. BD (   1) C   1 - H   8        /186. BD*(   1) C   5 - O   6            3.04    0.81    0.044
   5. BD (   1) C   2 - O   3        / 77. RY*(   2) C   4                    0.79    2.13    0.037
   5. BD (   1) C   2 - O   3        / 78. RY*(   3) C   4                    0.62    2.13    0.032
   5. BD (   1) C   2 - O   3        /178. BD*(   1) C   1 - H   8            0.87    1.20    0.029
   5. BD (   1) C   2 - O   3        /185. BD*(   1) C   4 - H  12            0.92    1.20    0.030
   6. BD (   1) C   2 - H   9        /177. BD*(   1) C   1 - H   7            2.54    0.89    0.043
   7. BD (   1) C   2 - H  10        / 60. RY*(   2) O   3                    0.66    1.47    0.028
   7. BD (   1) C   2 - H  10        /176. BD*(   1) C   1 - O   6            3.68    0.81    0.049
   7. BD (   1) C   2 - H  10        /182. BD*(   1) O   3 - C   4            3.04    0.81    0.044
   8. BD (   1) O   3 - C   4        / 43. RY*(   2) C   2                    0.79    2.13    0.037
   8. BD (   1) O   3 - C   4        / 44. RY*(   3) C   2                    0.62    2.13    0.032
   8. BD (   1) O   3 - C   4        /181. BD*(   1) C   2 - H  10            0.92    1.20    0.030
   8. BD (   1) O   3 - C   4        /187. BD*(   1) C   5 - H  13            0.87    1.20    0.029
   9. BD (   1) C   4 - C   5        / 59. RY*(   1) O   3                    0.86    1.29    0.030
   9. BD (   1) C   4 - C   5        /110. RY*(   1) O   6                    0.86    1.29    0.030
  10. BD (   1) C   4 - H  11        /188. BD*(   1) C   5 - H  14            2.54    0.89    0.043
  11. BD (   1) C   4 - H  12        / 60. RY*(   2) O   3                    0.66    1.47    0.028
  11. BD (   1) C   4 - H  12        /179. BD*(   1) C   2 - O   3            3.04    0.81    0.044
  11. BD (   1) C   4 - H  12        /186. BD*(   1) C   5 - O   6            3.68    0.81    0.049
  12. BD (   1) C   5 - O   6        / 26. RY*(   2) C   1                    0.79    2.13    0.037
  12. BD (   1) C   5 - O   6        / 27. RY*(   3) C   1                    0.62    2.13    0.032
  12. BD (   1) C   5 - O   6        /178. BD*(   1) C   1 - H   8            0.92    1.20    0.030
  12. BD (   1) C   5 - O   6        /185. BD*(   1) C   4 - H  12            0.87    1.20    0.029
  13. BD (   1) C   5 - H  13        /111. RY*(   2) O   6                    0.66    1.47    0.028
  13. BD (   1) C   5 - H  13        /176. BD*(   1) C   1 - O   6            3.04    0.81    0.044
  13. BD (   1) C   5 - H  13        /182. BD*(   1) O   3 - C   4            3.68    0.81    0.049
  14. BD (   1) C   5 - H  14        /184. BD*(   1) C   4 - H  11            2.54    0.89    0.043
  15. CR (   1) C   1                /176. BD*(   1) C   1 - O   6            1.04   10.39    0.093
  15. CR (   1) C   1                /186. BD*(   1) C   5 - O   6            0.89   10.39    0.086
  16. CR (   1) C   2                /179. BD*(   1) C   2 - O   3            1.04   10.39    0.093
  16. CR (   1) C   2                /182. BD*(   1) O   3 - C   4            0.89   10.39    0.086
  17. CR (   1) O   3                / 42. RY*(   1) C   2                    1.23   19.89    0.140
  17. CR (   1) O   3                / 76. RY*(   1) C   4                    1.23   19.89    0.140
  18. CR (   1) C   4                /179. BD*(   1) C   2 - O   3            0.89   10.39    0.086
  18. CR (   1) C   4                /182. BD*(   1) O   3 - C   4            1.04   10.39    0.093
  19. CR (   1) C   5                /176. BD*(   1) C   1 - O   6            0.89   10.39    0.086
  19. CR (   1) C   5                /186. BD*(   1) C   5 - O   6            1.04   10.39    0.093
  20. CR (   1) O   6                / 25. RY*(   1) C   1                    1.23   19.89    0.140
  20. CR (   1) O   6                / 93. RY*(   1) C   5                    1.23   19.89    0.140
  21. LP (   1) O   3                / 42. RY*(   1) C   2                    2.60    1.53    0.057
  21. LP (   1) O   3                / 76. RY*(   1) C   4                    2.60    1.53    0.057
  21. LP (   1) O   3                /175. BD*(   1) C   1 - C   2            1.04    0.94    0.028
  21. LP (   1) O   3                /180. BD*(   1) C   2 - H   9            0.67    0.95    0.023
  21. LP (   1) O   3                /181. BD*(   1) C   2 - H  10            2.35    0.97    0.043
  21. LP (   1) O   3                /183. BD*(   1) C   4 - C   5            1.04    0.94    0.028
  21. LP (   1) O   3                /184. BD*(   1) C   4 - H  11            0.67    0.95    0.023
  21. LP (   1) O   3                /185. BD*(   1) C   4 - H  12            2.35    0.97    0.043
  22. LP (   2) O   3                / 44. RY*(   3) C   2                    1.19    1.63    0.040
  22. LP (   2) O   3                / 78. RY*(   3) C   4                    1.19    1.63    0.040
  22. LP (   2) O   3                /175. BD*(   1) C   1 - C   2            4.93    0.67    0.052
  22. LP (   2) O   3                /178. BD*(   1) C   1 - H   8            0.58    0.69    0.018
  22. LP (   2) O   3                /180. BD*(   1) C   2 - H   9            6.43    0.67    0.059
  22. LP (   2) O   3                /183. BD*(   1) C   4 - C   5            4.93    0.67    0.052
  22. LP (   2) O   3                /184. BD*(   1) C   4 - H  11            6.43    0.67    0.059
  22. LP (   2) O   3                /187. BD*(   1) C   5 - H  13            0.58    0.69    0.018
  23. LP (   1) O   6                / 25. RY*(   1) C   1                    2.60    1.53    0.057
  23. LP (   1) O   6                / 93. RY*(   1) C   5                    2.60    1.53    0.057
  23. LP (   1) O   6                /175. BD*(   1) C   1 - C   2            1.04    0.94    0.028
  23. LP (   1) O   6                /177. BD*(   1) C   1 - H   7            0.67    0.95    0.023
  23. LP (   1) O   6                /178. BD*(   1) C   1 - H   8            2.35    0.97    0.043
  23. LP (   1) O   6                /183. BD*(   1) C   4 - C   5            1.04    0.94    0.028
  23. LP (   1) O   6                /187. BD*(   1) C   5 - H  13            2.35    0.97    0.043
  23. LP (   1) O   6                /188. BD*(   1) C   5 - H  14            0.67    0.95    0.023
  24. LP (   2) O   6                / 27. RY*(   3) C   1                    1.19    1.63    0.040
  24. LP (   2) O   6                / 95. RY*(   3) C   5                    1.19    1.63    0.040
  24. LP (   2) O   6                /175. BD*(   1) C   1 - C   2            4.93    0.67    0.052
  24. LP (   2) O   6                /177. BD*(   1) C   1 - H   7            6.43    0.67    0.059
  24. LP (   2) O   6                /181. BD*(   1) C   2 - H  10            0.58    0.69    0.018
  24. LP (   2) O   6                /183. BD*(   1) C   4 - C   5            4.93    0.67    0.052
  24. LP (   2) O   6                /185. BD*(   1) C   4 - H  12            0.58    0.69    0.018
  24. LP (   2) O   6                /188. BD*(   1) C   5 - H  14            6.43    0.67    0.059


 Natural Bond Orbitals (Summary):

                                                            Principal Delocalizations
           NBO                        Occupancy    Energy   (geminal,vicinal,remote)
 ====================================================================================
 Molecular unit  1  (C4H8O2)
     1. BD (   1) C   1 - C   2          1.99284    -0.63638  59(v),110(v)
     2. BD (   1) C   1 - O   6          1.99048    -0.80229  187(v),181(v),94(v),95(v)
     3. BD (   1) C   1 - H   7          1.98544    -0.51515  180(v)
     4. BD (   1) C   1 - H   8          1.97988    -0.51885  179(v),186(v),111(v)
     5. BD (   1) C   2 - O   3          1.99048    -0.80229  185(v),178(v),77(v),78(v)
     6. BD (   1) C   2 - H   9          1.98544    -0.51515  177(v)
     7. BD (   1) C   2 - H  10          1.97988    -0.51885  176(v),182(v),60(v)
     8. BD (   1) O   3 - C   4          1.99048    -0.80229  181(v),187(v),43(v),44(v)
     9. BD (   1) C   4 - C   5          1.99284    -0.63638  59(v),110(v)
    10. BD (   1) C   4 - H  11          1.98544    -0.51515  188(v)
    11. BD (   1) C   4 - H  12          1.97988    -0.51885  186(v),179(v),60(v)
    12. BD (   1) C   5 - O   6          1.99048    -0.80229  178(v),185(v),26(v),27(v)
    13. BD (   1) C   5 - H  13          1.97988    -0.51885  182(v),176(v),111(v)
    14. BD (   1) C   5 - H  14          1.98544    -0.51515  184(v)
    15. CR (   1) C   1                  1.99919   -10.09837  176(g),186(v)
    16. CR (   1) C   2                  1.99919   -10.09837  179(g),182(v)
    17. CR (   1) O   3                  1.99979   -18.93526  42(v),76(v)
    18. CR (   1) C   4                  1.99919   -10.09837  182(g),179(v)
    19. CR (   1) C   5                  1.99919   -10.09837  186(g),176(v)
    20. CR (   1) O   6                  1.99979   -18.93526  25(v),93(v)
    21. LP (   1) O   3                  1.96595    -0.57142  42(v),76(v),181(v),185(v)
                                                    175(v),183(v),180(v),184(v)
    22. LP (   2) O   3                  1.92226    -0.29767  180(v),184(v),175(v),183(v)
                                                    44(v),78(v),178(r),187(r)
    23. LP (   1) O   6                  1.96595    -0.57142  25(v),93(v),178(v),187(v)
                                                    175(v),183(v),177(v),188(v)
    24. LP (   2) O   6                  1.92226    -0.29767  177(v),188(v),175(v),183(v)
                                                    27(v),95(v),181(r),185(r)
    25. RY*(   1) C   1                  0.00365     0.95810   
    26. RY*(   2) C   1                  0.00296     1.32847   
    27. RY*(   3) C   1                  0.00253     1.32989   
    28. RY*(   4) C   1                  0.00098     1.73012   
    29. RY*(   5) C   1                  0.00067     1.02966   
    30. RY*(   6) C   1                  0.00043     1.03108   
    31. RY*(   7) C   1                  0.00025     1.19232   
    32. RY*(   8) C   1                  0.00022     1.66818   
    33. RY*(   9) C   1                  0.00014     2.42454   
    34. RY*(  10) C   1                  0.00003     0.93344   
    35. RY*(  11) C   1                  0.00000     2.75633   
    36. RY*(  12) C   1                  0.00001     2.43983   
    37. RY*(  13) C   1                  0.00000    22.76914   
    38. RY*(  14) C   1                  0.00001     1.16238   
    39. RY*(  15) C   1                  0.00001     1.56377   
    40. RY*(  16) C   1                  0.00001     1.24731   
    41. RY*(  17) C   1                  0.00000     1.87002   
    42. RY*(   1) C   2                  0.00365     0.95810   
    43. RY*(   2) C   2                  0.00296     1.32847   
    44. RY*(   3) C   2                  0.00253     1.32989   
    45. RY*(   4) C   2                  0.00098     1.73012   
    46. RY*(   5) C   2                  0.00067     1.02966   
    47. RY*(   6) C   2                  0.00043     1.03108   
    48. RY*(   7) C   2                  0.00025     1.19232   
    49. RY*(   8) C   2                  0.00022     1.66818   
    50. RY*(   9) C   2                  0.00014     2.42454   
    51. RY*(  10) C   2                  0.00003     0.93344   
    52. RY*(  11) C   2                  0.00000     2.75633   
    53. RY*(  12) C   2                  0.00001     2.43983   
    54. RY*(  13) C   2                  0.00000    22.76914   
    55. RY*(  14) C   2                  0.00001     1.16238   
    56. RY*(  15) C   2                  0.00001     1.56377   
    57. RY*(  16) C   2                  0.00001     1.24731   
    58. RY*(  17) C   2                  0.00000     1.87002   
    59. RY*(   1) O   3                  0.00678     0.65152   
    60. RY*(   2) O   3                  0.00218     0.94782   
    61. RY*(   3) O   3                  0.00143     0.78910   
    62. RY*(   4) O   3                  0.00064     0.79101   
    63. RY*(   5) O   3                  0.00039     1.20260   
    64. RY*(   6) O   3                  0.00029     1.35141   
    65. RY*(   7) O   3                  0.00022     1.11738   
    66. RY*(   8) O   3                  0.00009     2.95021   
    67. RY*(   9) O   3                  0.00003     1.30320   
    68. RY*(  10) O   3                  0.00000    49.27549   
    69. RY*(  11) O   3                  0.00001     5.23391   
    70. RY*(  12) O   3                  0.00000     4.91694   
    71. RY*(  13) O   3                  0.00001     3.30944   
    72. RY*(  14) O   3                  0.00000     4.76854   
    73. RY*(  15) O   3                  0.00000     3.01747   
    74. RY*(  16) O   3                  0.00001     2.88912   
    75. RY*(  17) O   3                  0.00000     3.01184   
    76. RY*(   1) C   4                  0.00365     0.95810   
    77. RY*(   2) C   4                  0.00296     1.32847   
    78. RY*(   3) C   4                  0.00253     1.32989   
    79. RY*(   4) C   4                  0.00098     1.73012   
    80. RY*(   5) C   4                  0.00067     1.02966   
    81. RY*(   6) C   4                  0.00043     1.03108   
    82. RY*(   7) C   4                  0.00025     1.19232   
    83. RY*(   8) C   4                  0.00022     1.66818   
    84. RY*(   9) C   4                  0.00014     2.42454   
    85. RY*(  10) C   4                  0.00003     0.93344   
    86. RY*(  11) C   4                  0.00000     2.75633   
    87. RY*(  12) C   4                  0.00001     2.43983   
    88. RY*(  13) C   4                  0.00000    22.76914   
    89. RY*(  14) C   4                  0.00001     1.16238   
    90. RY*(  15) C   4                  0.00001     1.56377   
    91. RY*(  16) C   4                  0.00001     1.24731   
    92. RY*(  17) C   4                  0.00000     1.87002   
    93. RY*(   1) C   5                  0.00365     0.95810   
    94. RY*(   2) C   5                  0.00296     1.32847   
    95. RY*(   3) C   5                  0.00253     1.32989   
    96. RY*(   4) C   5                  0.00098     1.73012   
    97. RY*(   5) C   5                  0.00067     1.02966   
    98. RY*(   6) C   5                  0.00043     1.03108   
    99. RY*(   7) C   5                  0.00025     1.19232   
   100. RY*(   8) C   5                  0.00022     1.66818   
   101. RY*(   9) C   5                  0.00014     2.42454   
   102. RY*(  10) C   5                  0.00003     0.93344   
   103. RY*(  11) C   5                  0.00000     2.75633   
   104. RY*(  12) C   5                  0.00001     2.43983   
   105. RY*(  13) C   5                  0.00000    22.76914   
   106. RY*(  14) C   5                  0.00001     1.16238   
   107. RY*(  15) C   5                  0.00001     1.56377   
   108. RY*(  16) C   5                  0.00001     1.24731   
   109. RY*(  17) C   5                  0.00000     1.87002   
   110. RY*(   1) O   6                  0.00678     0.65152   
   111. RY*(   2) O   6                  0.00218     0.94782   
   112. RY*(   3) O   6                  0.00143     0.78910   
   113. RY*(   4) O   6                  0.00064     0.79101   
   114. RY*(   5) O   6                  0.00039     1.20260   
   115. RY*(   6) O   6                  0.00029     1.35141   
   116. RY*(   7) O   6                  0.00022     1.11738   
   117. RY*(   8) O   6                  0.00009     2.95021   
   118. RY*(   9) O   6                  0.00003     1.30320   
   119. RY*(  10) O   6                  0.00000    49.27549   
   120. RY*(  11) O   6                  0.00001     5.23391   
   121. RY*(  12) O   6                  0.00000     4.91694   
   122. RY*(  13) O   6                  0.00001     3.30944   
   123. RY*(  14) O   6                  0.00000     4.76854   
   124. RY*(  15) O   6                  0.00000     3.01747   
   125. RY*(  16) O   6                  0.00001     2.88912   
   126. RY*(  17) O   6                  0.00000     3.01184   
   127. RY*(   1) H   7                  0.00190     0.79790   
   128. RY*(   2) H   7                  0.00030     1.76389   
   129. RY*(   3) H   7                  0.00024     0.91466   
   130. RY*(   4) H   7                  0.00016     1.98844   
   131. RY*(   5) H   7                  0.00006     2.50846   
   132. RY*(   6) H   7                  0.00002     1.43536   
   133. RY*(   1) H   8                  0.00107     0.55160   
   134. RY*(   2) H   8                  0.00028     1.37204   
   135. RY*(   3) H   8                  0.00012     1.96537   
   136. RY*(   4) H   8                  0.00009     1.89135   
   137. RY*(   5) H   8                  0.00006     1.17463   
   138. RY*(   6) H   8                  0.00006     2.29025   
   139. RY*(   1) H   9                  0.00190     0.79790   
   140. RY*(   2) H   9                  0.00030     1.76389   
   141. RY*(   3) H   9                  0.00024     0.91466   
   142. RY*(   4) H   9                  0.00016     1.98844   
   143. RY*(   5) H   9                  0.00006     2.50846   
   144. RY*(   6) H   9                  0.00002     1.43536   
   145. RY*(   1) H  10                  0.00107     0.55160   
   146. RY*(   2) H  10                  0.00028     1.37204   
   147. RY*(   3) H  10                  0.00012     1.96537   
   148. RY*(   4) H  10                  0.00009     1.89135   
   149. RY*(   5) H  10                  0.00006     1.17462   
   150. RY*(   6) H  10                  0.00006     2.29025   
   151. RY*(   1) H  11                  0.00190     0.79790   
   152. RY*(   2) H  11                  0.00030     1.76389   
   153. RY*(   3) H  11                  0.00024     0.91466   
   154. RY*(   4) H  11                  0.00016     1.98844   
   155. RY*(   5) H  11                  0.00006     2.50846   
   156. RY*(   6) H  11                  0.00002     1.43536   
   157. RY*(   1) H  12                  0.00107     0.55160   
   158. RY*(   2) H  12                  0.00028     1.37204   
   159. RY*(   3) H  12                  0.00012     1.96537   
   160. RY*(   4) H  12                  0.00009     1.89134   
   161. RY*(   5) H  12                  0.00006     1.17463   
   162. RY*(   6) H  12                  0.00006     2.29025   
   163. RY*(   1) H  13                  0.00107     0.55160   
   164. RY*(   2) H  13                  0.00028     1.37204   
   165. RY*(   3) H  13                  0.00012     1.96537   
   166. RY*(   4) H  13                  0.00009     1.89134   
   167. RY*(   5) H  13                  0.00006     1.17463   
   168. RY*(   6) H  13                  0.00006     2.29025   
   169. RY*(   1) H  14                  0.00190     0.79790   
   170. RY*(   2) H  14                  0.00030     1.76389   
   171. RY*(   3) H  14                  0.00024     0.91466   
   172. RY*(   4) H  14                  0.00016     1.98844   
   173. RY*(   5) H  14                  0.00006     2.50846   
   174. RY*(   6) H  14                  0.00002     1.43536   
   175. BD*(   1) C   1 - C   2          0.03091     0.37336   
   176. BD*(   1) C   1 - O   6          0.02094     0.29435   
   177. BD*(   1) C   1 - H   7          0.03041     0.37541   
   178. BD*(   1) C   1 - H   8          0.01552     0.39628   
   179. BD*(   1) C   2 - O   3          0.02094     0.29435   
   180. BD*(   1) C   2 - H   9          0.03041     0.37541   
   181. BD*(   1) C   2 - H  10          0.01552     0.39628   
   182. BD*(   1) O   3 - C   4          0.02094     0.29435   
   183. BD*(   1) C   4 - C   5          0.03091     0.37336   
   184. BD*(   1) C   4 - H  11          0.03041     0.37541   
   185. BD*(   1) C   4 - H  12          0.01552     0.39628   
   186. BD*(   1) C   5 - O   6          0.02094     0.29435   
   187. BD*(   1) C   5 - H  13          0.01552     0.39628   
   188. BD*(   1) C   5 - H  14          0.03041     0.37541   
       -------------------------------
              Total Lewis   47.58160  ( 99.1283%)
        Valence non-Lewis    0.32926  (  0.6860%)
        Rydberg non-Lewis    0.08914  (  0.1857%)
       -------------------------------
            Total unit  1   48.00000  (100.0000%)
           Charge unit  1    0.00000
 Calling FoFJK, ICntrl=    100127 FMM=F ISym2X=0 I1Cent= 0 IOpClX= 0 NMat=1 NMatS=1 NMatT=0.
 Full mass-weighted force constant matrix:
 Low frequencies ---  -10.4984   -0.0008   -0.0005   -0.0004   10.5301   10.9021
 Low frequencies ---  253.7238  267.1719  416.2598
 Diagonal vibrational polarizability:
        6.4905733       5.6140914       7.5977032
 Harmonic frequencies (cm**-1), IR intensities (KM/Mole), Raman scattering
 activities (A**4/AMU), depolarization ratios for plane and unpolarized
 incident light, reduced masses (AMU), force constants (mDyne/A),
 and normal coordinates:
                      1                      2                      3
                      A                      A                      A
 Frequencies --    253.7238               267.1719               416.2597
 Red. masses --      1.7379                 2.8865                 1.8972
 Frc consts  --      0.0659                 0.1214                 0.1937
 IR Inten    --      1.0193                22.0208                 0.0000
  Atom  AN      X      Y      Z        X      Y      Z        X      Y      Z
     1   6    -0.02  -0.04   0.11     0.06  -0.04  -0.09    -0.05  -0.03   0.07
     2   6    -0.02   0.04  -0.11    -0.06  -0.04  -0.09    -0.05   0.03  -0.07
     3   8     0.05  -0.00   0.00     0.00   0.07   0.19    -0.00   0.07   0.11
     4   6    -0.02  -0.04   0.11     0.06  -0.04  -0.09     0.05   0.03  -0.07
     5   6    -0.02   0.04  -0.11    -0.06  -0.04  -0.09     0.05  -0.03   0.07
     6   8     0.05   0.00  -0.00    -0.00   0.07   0.19     0.00  -0.07  -0.11
     7   1    -0.21  -0.23   0.14     0.34  -0.08  -0.11    -0.30  -0.16   0.10
     8   1     0.05   0.04   0.34    -0.02  -0.06  -0.28     0.03   0.05   0.32
     9   1    -0.21   0.23  -0.14    -0.34  -0.08  -0.11    -0.30   0.16  -0.10
    10   1     0.05  -0.04  -0.34     0.02  -0.06  -0.28     0.03  -0.05  -0.32
    11   1    -0.21  -0.23   0.14     0.34  -0.08  -0.11     0.30   0.16  -0.10
    12   1     0.05   0.04   0.34    -0.02  -0.06  -0.28    -0.03  -0.05  -0.32
    13   1     0.05  -0.04  -0.34     0.02  -0.06  -0.28    -0.03   0.05   0.32
    14   1    -0.21   0.23  -0.14    -0.34  -0.08  -0.11     0.30  -0.16   0.10
                      4                      5                      6
                      A                      A                      A
 Frequencies --    440.0651               490.6210               616.6524
 Red. masses --      7.3421                 2.6277                 1.6581
 Frc consts  --      0.8377                 0.3727                 0.3715
 IR Inten    --      0.0000                 0.0000                14.8966
  Atom  AN      X      Y      Z        X      Y      Z        X      Y      Z
     1   6     0.20  -0.05   0.03     0.11   0.13   0.05    -0.05  -0.05  -0.04
     2   6     0.20   0.05  -0.03    -0.11   0.13   0.05     0.05  -0.05  -0.04
     3   8    -0.00   0.38  -0.05    -0.08   0.00   0.00    -0.00   0.11   0.03
     4   6    -0.20   0.05  -0.03    -0.11  -0.13  -0.05    -0.05  -0.05  -0.04
     5   6    -0.20  -0.05   0.03     0.11  -0.13  -0.05     0.05  -0.05  -0.04
     6   8     0.00  -0.38   0.05     0.08   0.00   0.00    -0.00   0.11   0.03
     7   1     0.29  -0.03   0.02     0.25   0.33   0.02    -0.25  -0.33  -0.00
     8   1    -0.01   0.20  -0.08     0.10  -0.02  -0.17     0.03   0.07   0.25
     9   1     0.29   0.03  -0.02    -0.25   0.33   0.02     0.25  -0.33  -0.00
    10   1    -0.01  -0.20   0.08    -0.10  -0.02  -0.17    -0.03   0.07   0.25
    11   1    -0.29   0.03  -0.02    -0.25  -0.33  -0.02    -0.25  -0.33  -0.00
    12   1     0.01  -0.20   0.08    -0.10   0.02   0.17     0.03   0.07   0.25
    13   1     0.01   0.20  -0.08     0.10   0.02   0.17    -0.03   0.07   0.25
    14   1    -0.29  -0.03   0.02     0.25  -0.33  -0.02     0.25  -0.33  -0.00
                      7                      8                      9
                      A                      A                      A
 Frequencies --    840.0932               860.8959               881.8757
 Red. masses --      3.9027                 1.6404                 3.3168
 Frc consts  --      1.6228                 0.7163                 1.5198
 IR Inten    --      0.0000                 0.0000                75.4338
  Atom  AN      X      Y      Z        X      Y      Z        X      Y      Z
     1   6     0.19   0.10   0.05    -0.03  -0.07   0.06     0.11  -0.09   0.07
     2   6     0.19  -0.10  -0.05     0.03  -0.07   0.06    -0.11  -0.09   0.07
     3   8     0.00  -0.14   0.08     0.07  -0.00   0.00     0.00   0.17  -0.11
     4   6    -0.19  -0.10  -0.05     0.03   0.07  -0.06     0.11  -0.09   0.07
     5   6    -0.19   0.10   0.05    -0.03   0.07  -0.06    -0.11  -0.09   0.07
     6   8     0.00   0.14  -0.08    -0.07  -0.00   0.00    -0.00   0.17  -0.11
     7   1    -0.03   0.01   0.06     0.16   0.26   0.02     0.06   0.10   0.04
     8   1     0.17   0.31   0.24    -0.14  -0.20  -0.28     0.23  -0.37  -0.02
     9   1    -0.03  -0.01  -0.06    -0.16   0.26   0.02    -0.06   0.10   0.04
    10   1     0.17  -0.31  -0.24     0.14  -0.20  -0.28    -0.23  -0.37  -0.02
    11   1     0.03  -0.01  -0.06    -0.16  -0.26  -0.02     0.06   0.10   0.04
    12   1    -0.17  -0.31  -0.24     0.14   0.20   0.28     0.23  -0.37  -0.02
    13   1    -0.17   0.31   0.24    -0.14   0.20   0.28    -0.23  -0.37  -0.02
    14   1     0.03   0.01   0.06     0.16  -0.26  -0.02    -0.06   0.10   0.04
                     10                     11                     12
                      A                      A                      A
 Frequencies --    892.0335              1016.5718              1061.1301
 Red. masses --      2.3904                 2.4143                 2.2697
 Frc consts  --      1.1207                 1.4700                 1.5058
 IR Inten    --     21.7819                 0.0000                 9.6543
  Atom  AN      X      Y      Z        X      Y      Z        X      Y      Z
     1   6     0.08   0.13   0.04     0.07  -0.15  -0.01     0.15   0.05  -0.01
     2   6     0.08  -0.13  -0.04     0.07   0.15   0.01    -0.15   0.05  -0.01
     3   8    -0.10   0.00  -0.00     0.00  -0.06   0.05    -0.00  -0.06  -0.01
     4   6     0.08   0.13   0.04    -0.07   0.15   0.01     0.15   0.05  -0.01
     5   6     0.08  -0.13  -0.04    -0.07  -0.15  -0.01    -0.15   0.05  -0.01
     6   8    -0.10   0.00  -0.00     0.00   0.06  -0.05     0.00  -0.06  -0.01
     7   1    -0.07   0.08   0.04     0.07  -0.20  -0.02     0.02  -0.29   0.03
     8   1    -0.05   0.43   0.15     0.22  -0.36   0.01     0.21   0.19   0.25
     9   1    -0.07  -0.08  -0.04     0.07   0.20   0.02    -0.02  -0.29   0.03
    10   1    -0.05  -0.43  -0.15     0.22   0.36  -0.01    -0.21   0.19   0.25
    11   1    -0.07   0.08   0.04    -0.07   0.20   0.02     0.02  -0.29   0.03
    12   1    -0.05   0.43   0.15    -0.22   0.36  -0.01     0.21   0.19   0.25
    13   1    -0.05  -0.43  -0.15    -0.22  -0.36   0.01    -0.21   0.19   0.25
    14   1    -0.07  -0.08  -0.04    -0.07  -0.20  -0.02    -0.02  -0.29   0.03
                     13                     14                     15
                      A                      A                      A
 Frequencies --   1102.0763              1126.8810              1133.1867
 Red. masses --      1.7766                 6.7059                 6.1436
 Frc consts  --      1.2713                 5.0172                 4.6481
 IR Inten    --     14.4371                 0.0000               176.7980
  Atom  AN      X      Y      Z        X      Y      Z        X      Y      Z
     1   6     0.00  -0.01   0.13    -0.26   0.05  -0.05    -0.17   0.20   0.04
     2   6     0.00   0.01  -0.13     0.26   0.05  -0.05    -0.17  -0.20  -0.04
     3   8    -0.03  -0.00  -0.00    -0.29  -0.00   0.00     0.26   0.00   0.00
     4   6     0.00  -0.01   0.13     0.26  -0.05   0.05    -0.17   0.20   0.04
     5   6     0.00   0.01  -0.13    -0.26  -0.05   0.05    -0.17  -0.20  -0.04
     6   8    -0.03   0.00   0.00     0.29  -0.00   0.00     0.26  -0.00  -0.00
     7   1     0.35   0.09   0.10     0.06   0.22  -0.07    -0.02   0.37   0.04
     8   1    -0.18  -0.04  -0.24    -0.19  -0.12  -0.17    -0.05  -0.03  -0.04
     9   1     0.35  -0.09  -0.10    -0.06   0.22  -0.07    -0.02  -0.37  -0.04
    10   1    -0.18   0.04   0.24     0.19  -0.12  -0.17    -0.05   0.03   0.04
    11   1     0.35   0.09   0.10    -0.06  -0.22   0.07    -0.02   0.37   0.04
    12   1    -0.18  -0.04  -0.24     0.19   0.12   0.17    -0.05  -0.03  -0.04
    13   1    -0.18   0.04   0.24    -0.19   0.12   0.17    -0.05   0.03   0.04
    14   1     0.35  -0.09  -0.10     0.06  -0.22   0.07    -0.02  -0.37  -0.04
                     16                     17                     18
                      A                      A                      A
 Frequencies --   1143.4760              1238.0135              1279.3426
 Red. masses --      2.1532                 1.0619                 1.1987
 Frc consts  --      1.6588                 0.9589                 1.1559
 IR Inten    --      0.0000                 0.0000                39.9099
  Atom  AN      X      Y      Z        X      Y      Z        X      Y      Z
     1   6    -0.02   0.02   0.15    -0.00  -0.00   0.03    -0.02  -0.02  -0.04
     2   6    -0.02  -0.02  -0.15     0.00  -0.00   0.03    -0.02   0.02   0.04
     3   8    -0.00  -0.01   0.07    -0.02  -0.00   0.00     0.05   0.00   0.00
     4   6     0.02  -0.02  -0.15     0.00   0.00  -0.03    -0.02  -0.02  -0.04
     5   6     0.02   0.02   0.15    -0.00   0.00  -0.03    -0.02   0.02   0.04
     6   8    -0.00   0.01  -0.07     0.02  -0.00   0.00     0.05  -0.00   0.00
     7   1     0.30   0.20   0.11     0.29  -0.26   0.05     0.11  -0.24  -0.02
     8   1    -0.06  -0.20  -0.20    -0.20   0.23  -0.07    -0.26   0.33  -0.06
     9   1     0.30  -0.20  -0.11    -0.29  -0.26   0.05     0.11   0.24   0.02
    10   1    -0.06   0.20   0.20     0.20   0.23  -0.07    -0.26  -0.33   0.06
    11   1    -0.30  -0.20  -0.11    -0.29   0.26  -0.05     0.11  -0.24  -0.02
    12   1     0.06   0.20   0.20     0.20  -0.23   0.07    -0.26   0.33  -0.06
    13   1     0.06  -0.20  -0.20    -0.20  -0.23   0.07    -0.26  -0.33   0.06
    14   1    -0.30   0.20   0.11     0.29   0.26  -0.05     0.11   0.24   0.02
                     19                     20                     21
                      A                      A                      A
 Frequencies --   1315.8805              1326.0412              1358.1946
 Red. masses --      1.2460                 1.1721                 1.2093
 Frc consts  --      1.2712                 1.2143                 1.3144
 IR Inten    --      9.1857                 0.0000                 0.0000
  Atom  AN      X      Y      Z        X      Y      Z        X      Y      Z
     1   6    -0.02  -0.01   0.04    -0.01  -0.04   0.00     0.03  -0.05  -0.01
     2   6     0.02  -0.01   0.04    -0.01   0.04  -0.00    -0.03  -0.05  -0.01
     3   8     0.00   0.03  -0.06    -0.00  -0.03   0.04    -0.04  -0.00  -0.00
     4   6    -0.02  -0.01   0.04     0.01   0.04  -0.00    -0.03   0.05   0.01
     5   6     0.02  -0.01   0.04     0.01  -0.04   0.00     0.03   0.05   0.01
     6   8    -0.00   0.03  -0.06    -0.00   0.03  -0.04     0.04  -0.00  -0.00
     7   1     0.29  -0.27   0.06     0.15  -0.25   0.01    -0.16   0.26  -0.03
     8   1    -0.21   0.18  -0.10    -0.27   0.28  -0.11    -0.19   0.34   0.02
     9   1    -0.29  -0.27   0.06     0.15   0.25  -0.01     0.16   0.26  -0.03
    10   1     0.21   0.18  -0.10    -0.27  -0.28   0.11     0.19   0.34   0.02
    11   1     0.29  -0.27   0.06    -0.15   0.25  -0.01     0.16  -0.26   0.03
    12   1    -0.21   0.18  -0.10     0.27  -0.28   0.11     0.19  -0.34  -0.02
    13   1     0.21   0.18  -0.10     0.27   0.28  -0.11    -0.19  -0.34  -0.02
    14   1    -0.29  -0.27   0.06    -0.15  -0.25   0.01    -0.16  -0.26   0.03
                     22                     23                     24
                      A                      A                      A
 Frequencies --   1387.6707              1405.1297              1416.9856
 Red. masses --      1.2806                 1.3092                 1.3988
 Frc consts  --      1.4528                 1.5229                 1.6547
 IR Inten    --     15.0170                 3.7536                 0.0000
  Atom  AN      X      Y      Z        X      Y      Z        X      Y      Z
     1   6    -0.01   0.07  -0.01     0.05  -0.07  -0.00    -0.02   0.09  -0.01
     2   6    -0.01  -0.07   0.01    -0.05  -0.07  -0.00    -0.02  -0.09   0.01
     3   8    -0.02   0.00  -0.00     0.00   0.02   0.00     0.00   0.02   0.01
     4   6    -0.01   0.07  -0.01     0.05  -0.07  -0.00     0.02  -0.09   0.01
     5   6    -0.01  -0.07   0.01    -0.05  -0.07  -0.00     0.02   0.09  -0.01
     6   8    -0.02   0.00  -0.00    -0.00   0.02   0.00     0.00  -0.02  -0.01
     7   1     0.20  -0.39   0.03    -0.09   0.26  -0.02     0.15  -0.41   0.03
     8   1     0.14  -0.16   0.01    -0.18   0.36   0.05     0.13  -0.17  -0.03
     9   1     0.20   0.39  -0.03     0.09   0.26  -0.02     0.15   0.41  -0.03
    10   1     0.14   0.16  -0.01     0.18   0.36   0.05     0.13   0.17   0.03
    11   1     0.20  -0.39   0.03    -0.09   0.26  -0.02    -0.15   0.41  -0.03
    12   1     0.14  -0.16   0.01    -0.18   0.36   0.05    -0.13   0.17   0.03
    13   1     0.14   0.16  -0.01     0.18   0.36   0.05    -0.13  -0.17  -0.03
    14   1     0.20   0.39  -0.03     0.09   0.26  -0.02    -0.15  -0.41   0.03
                     25                     26                     27
                      A                      A                      A
 Frequencies --   1480.8318              1481.7965              1488.9600
 Red. masses --      1.0807                 1.0848                 1.1040
 Frc consts  --      1.3963                 1.4034                 1.4421
 IR Inten    --      0.0000                 1.5763                15.1003
  Atom  AN      X      Y      Z        X      Y      Z        X      Y      Z
     1   6     0.02   0.02   0.02     0.03   0.02   0.02    -0.04  -0.01  -0.02
     2   6    -0.02   0.02   0.02     0.03  -0.02  -0.02     0.04  -0.01  -0.02
     3   8    -0.02   0.00   0.00     0.01  -0.00  -0.00    -0.00  -0.00  -0.00
     4   6    -0.02  -0.02  -0.02     0.03   0.02   0.02    -0.04  -0.01  -0.02
     5   6     0.02  -0.02  -0.02     0.03  -0.02  -0.02     0.04  -0.01  -0.02
     6   8     0.02   0.00  -0.00     0.01   0.00  -0.00    -0.00  -0.00  -0.00
     7   1    -0.31  -0.17   0.04    -0.32  -0.15   0.04     0.32   0.14  -0.05
     8   1    -0.12  -0.05  -0.33    -0.10  -0.07  -0.32     0.13   0.02   0.32
     9   1     0.31  -0.17   0.04    -0.32   0.15  -0.04    -0.32   0.14  -0.05
    10   1     0.12  -0.05  -0.33    -0.10   0.07   0.32    -0.13   0.02   0.32
    11   1     0.31   0.17  -0.04    -0.32  -0.15   0.04     0.32   0.14  -0.05
    12   1     0.12   0.05   0.33    -0.10  -0.07  -0.32     0.13   0.02   0.32
    13   1    -0.12   0.05   0.33    -0.10   0.07   0.32    -0.13   0.02   0.32
    14   1    -0.31   0.17  -0.04    -0.32   0.15  -0.04    -0.32   0.14  -0.05
                     28                     29                     30
                      A                      A                      A
 Frequencies --   1494.1080              2970.9265              2977.5268
 Red. masses --      1.1031                 1.0712                 1.0718
 Frc consts  --      1.4509                 5.5706                 5.5983
 IR Inten    --      0.0000                51.5746                 0.0000
  Atom  AN      X      Y      Z        X      Y      Z        X      Y      Z
     1   6    -0.04  -0.01  -0.02    -0.00  -0.01  -0.04     0.00   0.01   0.04
     2   6    -0.04   0.01   0.02    -0.00   0.01   0.04     0.00  -0.01  -0.04
     3   8     0.00   0.00   0.01    -0.00  -0.00   0.00    -0.00   0.00  -0.00
     4   6     0.04   0.01   0.02    -0.00  -0.01  -0.04    -0.00  -0.01  -0.04
     5   6     0.04  -0.01  -0.02    -0.00   0.01   0.04    -0.00   0.01   0.04
     6   8    -0.00  -0.00  -0.01    -0.00   0.00  -0.00     0.00  -0.00   0.00
     7   1     0.34   0.09  -0.04     0.01   0.05   0.49    -0.02  -0.04  -0.49
     8   1     0.09   0.08   0.32     0.06   0.04  -0.04    -0.06  -0.04   0.04
     9   1     0.34  -0.09   0.04     0.01  -0.05  -0.49    -0.02   0.04   0.49
    10   1     0.09  -0.08  -0.32     0.06  -0.04   0.04    -0.06   0.04  -0.04
    11   1    -0.34  -0.09   0.04     0.01   0.05   0.49     0.02   0.04   0.49
    12   1    -0.09  -0.08  -0.32     0.06   0.04  -0.04     0.06   0.04  -0.04
    13   1    -0.09   0.08   0.32     0.06  -0.04   0.04     0.06  -0.04   0.04
    14   1    -0.34   0.09  -0.04     0.01  -0.05  -0.49     0.02  -0.04  -0.49
                     31                     32                     33
                      A                      A                      A
 Frequencies --   2982.7562              2987.3023              3087.0604
 Red. masses --      1.0675                 1.0677                 1.0905
 Frc consts  --      5.5958                 5.6136                 6.1228
 IR Inten    --      0.0000               170.3231                92.1121
  Atom  AN      X      Y      Z        X      Y      Z        X      Y      Z
     1   6    -0.01  -0.01  -0.03    -0.01  -0.01  -0.03    -0.03  -0.02   0.02
     2   6     0.01  -0.01  -0.03     0.01  -0.01  -0.03    -0.03   0.02  -0.02
     3   8     0.00   0.00  -0.00    -0.00   0.00  -0.00    -0.00   0.00  -0.00
     4   6     0.01   0.01   0.03    -0.01  -0.01  -0.03    -0.03  -0.02   0.02
     5   6    -0.01   0.01   0.03     0.01  -0.01  -0.03    -0.03   0.02  -0.02
     6   8    -0.00  -0.00   0.00     0.00   0.00  -0.00    -0.00   0.00  -0.00
     7   1     0.01   0.05   0.47     0.02   0.04   0.47    -0.01  -0.01  -0.07
     8   1     0.11   0.06  -0.07     0.11   0.06  -0.07     0.38   0.24  -0.20
     9   1    -0.01   0.05   0.47    -0.02   0.04   0.47    -0.01   0.01   0.07
    10   1    -0.11   0.06  -0.07    -0.11   0.06  -0.07     0.38  -0.24   0.20
    11   1    -0.01  -0.05  -0.47     0.02   0.04   0.47    -0.01  -0.01  -0.07
    12   1    -0.11  -0.06   0.07     0.11   0.06  -0.07     0.38   0.24  -0.20
    13   1     0.11  -0.06   0.07    -0.11   0.06  -0.07     0.38  -0.24   0.20
    14   1     0.01  -0.05  -0.47    -0.02   0.04   0.47    -0.01   0.01   0.07
                     34                     35                     36
                      A                      A                      A
 Frequencies --   3087.2799              3088.2421              3088.8528
 Red. masses --      1.0968                 1.0988                 1.0920
 Frc consts  --      6.1595                 6.1745                 6.1387
 IR Inten    --      0.0000                43.8258                 0.0000
  Atom  AN      X      Y      Z        X      Y      Z        X      Y      Z
     1   6    -0.03  -0.02   0.03    -0.03  -0.02   0.03     0.03   0.02  -0.02
     2   6     0.03  -0.02   0.03     0.03  -0.02   0.03     0.03  -0.02   0.02
     3   8     0.00   0.00  -0.00    -0.00   0.00  -0.00     0.00   0.00   0.00
     4   6     0.03   0.02  -0.03    -0.03  -0.02   0.03    -0.03  -0.02   0.02
     5   6    -0.03   0.02  -0.03     0.03  -0.02   0.03    -0.03   0.02  -0.02
     6   8    -0.00   0.00  -0.00     0.00   0.00  -0.00    -0.00  -0.00  -0.00
     7   1    -0.01  -0.02  -0.13    -0.01  -0.02  -0.13     0.01   0.01   0.06
     8   1     0.37   0.23  -0.20     0.37   0.23  -0.20    -0.38  -0.24   0.20
     9   1     0.01  -0.02  -0.13     0.01  -0.02  -0.13     0.01  -0.01  -0.06
    10   1    -0.37   0.23  -0.20    -0.37   0.23  -0.20    -0.38   0.24  -0.20
    11   1     0.01   0.02   0.13    -0.01  -0.02  -0.13    -0.01  -0.01  -0.06
    12   1    -0.37  -0.23   0.20     0.37   0.23  -0.20     0.38   0.24  -0.20
    13   1     0.37  -0.23   0.20    -0.37   0.23  -0.20     0.38  -0.24   0.20
    14   1    -0.01   0.02   0.13     0.01  -0.02  -0.13    -0.01   0.01   0.06

 -------------------
 - Thermochemistry -
 -------------------
 Temperature   298.150 Kelvin.  Pressure   1.00000 Atm.
 Atom     1 has atomic number  6 and mass  12.00000
 Atom     2 has atomic number  6 and mass  12.00000
 Atom     3 has atomic number  8 and mass  15.99491
 Atom     4 has atomic number  6 and mass  12.00000
 Atom     5 has atomic number  6 and mass  12.00000
 Atom     6 has atomic number  8 and mass  15.99491
 Atom     7 has atomic number  1 and mass   1.00783
 Atom     8 has atomic number  1 and mass   1.00783
 Atom     9 has atomic number  1 and mass   1.00783
 Atom    10 has atomic number  1 and mass   1.00783
 Atom    11 has atomic number  1 and mass   1.00783
 Atom    12 has atomic number  1 and mass   1.00783
 Atom    13 has atomic number  1 and mass   1.00783
 Atom    14 has atomic number  1 and mass   1.00783
 Molecular mass:    88.05243 amu.
 Principal axes and moments of inertia in atomic units:
                           1         2         3
     Eigenvalues --   358.01100 385.24535 662.39250
           X           -0.00000   1.00000   0.00000
           Y            0.99938   0.00000   0.03526
           Z           -0.03526  -0.00000   0.99938
 This molecule is an asymmetric top.
 Rotational symmetry number  1.
 Rotational temperatures (Kelvin)      0.24193     0.22483     0.13076
 Rotational constants (GHZ):           5.04102     4.68465     2.72458
 Zero-point vibrational energy     319915.0 (Joules/Mol)
                                   76.46153 (Kcal/Mol)
 Warning -- explicit consideration of   6 degrees of freedom as
           vibrations may cause significant error
 Vibrational temperatures:    365.05   384.40   598.90   633.16   705.89
          (Kelvin)            887.23  1208.71  1238.64  1268.82  1283.44
                             1462.62  1526.73  1585.64  1621.33  1630.40
                             1645.21  1781.23  1840.69  1893.26  1907.88
                             1954.14  1996.55  2021.67  2038.73  2130.59
                             2131.97  2142.28  2149.69  4274.50  4284.00
                             4291.52  4298.06  4441.59  4441.91  4443.29
                             4444.17
 
 Zero-point correction=                           0.121849 (Hartree/Particle)
 Thermal correction to Energy=                    0.127070
 Thermal correction to Enthalpy=                  0.128014
 Thermal correction to Gibbs Free Energy=         0.093440
 Sum of electronic and zero-point Energies=           -307.630058
 Sum of electronic and thermal Energies=              -307.624837
 Sum of electronic and thermal Enthalpies=            -307.623893
 Sum of electronic and thermal Free Energies=         -307.658467
 
                     E (Thermal)             CV                S
                      KCal/Mol        Cal/Mol-Kelvin    Cal/Mol-Kelvin
 Total                   79.738             19.791             72.768
 Electronic               0.000              0.000              0.000
 Translational            0.889              2.981             39.339
 Rotational               0.889              2.981             26.016
 Vibrational             77.960             13.830              7.413
 Vibration     1          0.665              1.757              1.705
 Vibration     2          0.672              1.733              1.614
 Vibration     3          0.779              1.435              0.905
 Vibration     4          0.800              1.383              0.826
 Vibration     5          0.846              1.271              0.682
 Vibration     6          0.976              0.997              0.422
                       Q            Log10(Q)             Ln(Q)
 Total Bot       0.104835D-42        -42.979493        -98.963941
 Total V=0       0.116734D+14         13.067198         30.088335
 Vib (Bot)       0.298346D-55        -55.525279       -127.851681
 Vib (Bot)    1  0.767863D+00         -0.114717         -0.264145
 Vib (Bot)    2  0.724397D+00         -0.140023         -0.322415
 Vib (Bot)    3  0.423029D+00         -0.373630         -0.860316
 Vib (Bot)    4  0.392810D+00         -0.405818         -0.934430
 Vib (Bot)    5  0.337767D+00         -0.471382         -1.085398
 Vib (Bot)    6  0.237989D+00         -0.623442         -1.435529
 Vib (V=0)       0.332209D+01          0.521412          1.200595
 Vib (V=0)    1  0.141630D+01          0.151156          0.348051
 Vib (V=0)    2  0.138020D+01          0.139942          0.322228
 Vib (V=0)    3  0.115495D+01          0.062561          0.144053
 Vib (V=0)    4  0.113585D+01          0.055319          0.127377
 Vib (V=0)    5  0.110340D+01          0.042731          0.098393
 Vib (V=0)    6  0.105375D+01          0.022738          0.052355
 Electronic      0.100000D+01          0.000000          0.000000
 Translational   0.324763D+08          7.511566         17.296020
 Rotational      0.108198D+06          5.034220         11.591720
 ***** Axes restored to original set *****
 -------------------------------------------------------------------
 Center     Atomic                   Forces (Hartrees/Bohr)
 Number     Number              X              Y              Z
 -------------------------------------------------------------------
      1        6           0.000096295    0.000163486   -0.000042532
      2        6           0.000098266   -0.000148035    0.000078883
      3        8           0.000002279    0.000048475   -0.000032499
      4        6          -0.000096316   -0.000163528    0.000042495
      5        6          -0.000098381    0.000148128   -0.000078924
      6        8          -0.000002180   -0.000048512    0.000032556
      7        1          -0.000022263   -0.000047246   -0.000041488
      8        1          -0.000076445   -0.000027149    0.000010406
      9        1          -0.000042586    0.000042098    0.000029360
     10        1          -0.000070784    0.000015481   -0.000037921
     11        1           0.000022261    0.000047240    0.000041488
     12        1           0.000076447    0.000027164   -0.000010388
     13        1           0.000070810   -0.000015493    0.000037924
     14        1           0.000042597   -0.000042108   -0.000029361
 -------------------------------------------------------------------
 Cartesian Forces:  Max     0.000163528 RMS     0.000069464
 FormGI is forming the generalized inverse of G from B-inverse, IUseBI=4.

 GradGradGradGradGradGradGradGradGradGradGradGradGradGradGradGradGradGrad
 Berny optimization.
 Internal  Forces:  Max     0.000064235 RMS     0.000030433
 Search for a local minimum.
 Step number   1 out of a maximum of    2
 All quantities printed in internal units (Hartrees-Bohrs-Radians)
 Second derivative matrix not updated -- analytic derivatives used.
 ITU=  0
     Eigenvalues ---    0.00593   0.00840   0.01305   0.03429   0.03734
     Eigenvalues ---    0.04666   0.04761   0.04776   0.05583   0.05996
     Eigenvalues ---    0.07472   0.08492   0.09150   0.09667   0.10128
     Eigenvalues ---    0.10190   0.10417   0.10905   0.12301   0.19220
     Eigenvalues ---    0.20822   0.24207   0.25416   0.27467   0.27632
     Eigenvalues ---    0.28355   0.30447   0.30888   0.32173   0.32424
     Eigenvalues ---    0.33154   0.33341   0.34121   0.34488   0.35041
     Eigenvalues ---    0.36468
 Angle between quadratic step and forces=  36.38 degrees.
 Linear search not attempted -- first point.
 Iteration  1 RMS(Cart)=  0.00031608 RMS(Int)=  0.00000020
 Iteration  2 RMS(Cart)=  0.00000016 RMS(Int)=  0.00000011
 Variable       Old X    -DE/DX   Delta X   Delta X   Delta X     New X
                                 (Linear)    (Quad)   (Total)
    R1        2.87728   0.00005   0.00000   0.00034   0.00034   2.87761
    R2        2.69496  -0.00001   0.00000  -0.00023  -0.00023   2.69473
    R3        2.07894  -0.00004   0.00000  -0.00008  -0.00008   2.07886
    R4        2.06365   0.00004   0.00000   0.00011   0.00011   2.06375
    R5        2.69496  -0.00001   0.00000  -0.00023  -0.00023   2.69473
    R6        2.07894  -0.00004   0.00000  -0.00008  -0.00008   2.07886
    R7        2.06365   0.00004   0.00000   0.00011   0.00011   2.06375
    R8        2.69496  -0.00001   0.00000  -0.00023  -0.00023   2.69473
    R9        2.87728   0.00005   0.00000   0.00034   0.00034   2.87761
   R10        2.07894  -0.00004   0.00000  -0.00008  -0.00008   2.07886
   R11        2.06365   0.00004   0.00000   0.00011   0.00011   2.06375
   R12        2.69496  -0.00001   0.00000  -0.00023  -0.00023   2.69473
   R13        2.06365   0.00004   0.00000   0.00011   0.00011   2.06375
   R14        2.07894  -0.00004   0.00000  -0.00008  -0.00008   2.07886
    A1        1.93144   0.00000   0.00000   0.00017   0.00017   1.93161
    A2        1.91666  -0.00005   0.00000  -0.00051  -0.00051   1.91615
    A3        1.93829  -0.00002   0.00000  -0.00031  -0.00031   1.93798
    A4        1.91535   0.00003   0.00000   0.00029   0.00029   1.91564
    A5        1.86080   0.00004   0.00000   0.00070   0.00070   1.86149
    A6        1.90033  -0.00000   0.00000  -0.00030  -0.00030   1.90003
    A7        1.93144   0.00000   0.00000   0.00017   0.00017   1.93161
    A8        1.91666  -0.00005   0.00000  -0.00051  -0.00051   1.91615
    A9        1.93829  -0.00002   0.00000  -0.00031  -0.00031   1.93798
   A10        1.91535   0.00003   0.00000   0.00029   0.00029   1.91564
   A11        1.86080   0.00004   0.00000   0.00070   0.00070   1.86149
   A12        1.90033  -0.00000   0.00000  -0.00030  -0.00030   1.90003
   A13        1.93729   0.00001   0.00000  -0.00011  -0.00011   1.93718
   A14        1.93144   0.00000   0.00000   0.00017   0.00017   1.93161
   A15        1.91535   0.00003   0.00000   0.00029   0.00029   1.91564
   A16        1.86080   0.00004   0.00000   0.00070   0.00070   1.86149
   A17        1.91666  -0.00005   0.00000  -0.00051  -0.00051   1.91615
   A18        1.93829  -0.00002   0.00000  -0.00031  -0.00031   1.93798
   A19        1.90033  -0.00000   0.00000  -0.00030  -0.00030   1.90003
   A20        1.93144   0.00000   0.00000   0.00017   0.00017   1.93161
   A21        1.93829  -0.00002   0.00000  -0.00031  -0.00031   1.93798
   A22        1.91666  -0.00005   0.00000  -0.00051  -0.00051   1.91615
   A23        1.86080   0.00004   0.00000   0.00070   0.00070   1.86149
   A24        1.91535   0.00003   0.00000   0.00029   0.00029   1.91564
   A25        1.90033  -0.00000   0.00000  -0.00030  -0.00030   1.90003
   A26        1.93729   0.00001   0.00000  -0.00011  -0.00011   1.93718
    D1        0.98658  -0.00002   0.00000  -0.00009  -0.00009   0.98649
    D2       -1.13063  -0.00003   0.00000  -0.00023  -0.00023  -1.13086
    D3        3.04970   0.00002   0.00000   0.00068   0.00068   3.05038
    D4       -1.13063  -0.00003   0.00000  -0.00023  -0.00023  -1.13086
    D5        3.03535  -0.00004   0.00000  -0.00036  -0.00036   3.03499
    D6        0.93249   0.00001   0.00000   0.00055   0.00055   0.93304
    D7        3.04970   0.00002   0.00000   0.00068   0.00068   3.05038
    D8        0.93249   0.00001   0.00000   0.00055   0.00055   0.93304
    D9       -1.17037   0.00006   0.00000   0.00146   0.00146  -1.16891
   D10       -0.98996   0.00002   0.00000   0.00025   0.00025  -0.98970
   D11        1.12803  -0.00002   0.00000  -0.00009  -0.00009   1.12794
   D12       -3.09973   0.00002   0.00000   0.00011   0.00011  -3.09963
   D13       -0.98996   0.00002   0.00000   0.00025   0.00025  -0.98970
   D14        1.12803  -0.00002   0.00000  -0.00009  -0.00009   1.12794
   D15       -3.09973   0.00002   0.00000   0.00011   0.00011  -3.09963
   D16        0.98996  -0.00002   0.00000  -0.00025  -0.00025   0.98970
   D17       -1.12803   0.00002   0.00000   0.00009   0.00009  -1.12794
   D18        3.09973  -0.00002   0.00000  -0.00011  -0.00011   3.09963
   D19       -0.98658   0.00002   0.00000   0.00009   0.00009  -0.98649
   D20       -3.04970  -0.00002   0.00000  -0.00068  -0.00068  -3.05038
   D21        1.13063   0.00003   0.00000   0.00023   0.00023   1.13086
   D22        1.13063   0.00003   0.00000   0.00023   0.00023   1.13086
   D23       -0.93249  -0.00001   0.00000  -0.00055  -0.00055  -0.93304
   D24       -3.03535   0.00004   0.00000   0.00036   0.00036  -3.03499
   D25       -3.04970  -0.00002   0.00000  -0.00068  -0.00068  -3.05038
   D26        1.17037  -0.00006   0.00000  -0.00146  -0.00146   1.16891
   D27       -0.93249  -0.00001   0.00000  -0.00055  -0.00055  -0.93304
   D28        0.98996  -0.00002   0.00000  -0.00025  -0.00025   0.98970
   D29        3.09973  -0.00002   0.00000  -0.00011  -0.00011   3.09963
   D30       -1.12803   0.00002   0.00000   0.00009   0.00009  -1.12794
         Item               Value     Threshold  Converged?
 Maximum Force            0.000064     0.000450     YES
 RMS     Force            0.000030     0.000300     YES
 Maximum Displacement     0.000792     0.001800     YES
 RMS     Displacement     0.000316     0.001200     YES
 Predicted change in Energy=-3.670103D-07
 Optimization completed.
    -- Stationary point found.
                           ----------------------------
                           !   Optimized Parameters   !
                           ! (Angstroms and Degrees)  !
 --------------------------                            --------------------------
 ! Name  Definition              Value          Derivative Info.                !
 --------------------------------------------------------------------------------
 ! R1    R(1,2)                  1.5226         -DE/DX =    0.0001              !
 ! R2    R(1,6)                  1.4261         -DE/DX =    0.0                 !
 ! R3    R(1,7)                  1.1001         -DE/DX =    0.0                 !
 ! R4    R(1,8)                  1.092          -DE/DX =    0.0                 !
 ! R5    R(2,3)                  1.4261         -DE/DX =    0.0                 !
 ! R6    R(2,9)                  1.1001         -DE/DX =    0.0                 !
 ! R7    R(2,10)                 1.092          -DE/DX =    0.0                 !
 ! R8    R(3,4)                  1.4261         -DE/DX =    0.0                 !
 ! R9    R(4,5)                  1.5226         -DE/DX =    0.0001              !
 ! R10   R(4,11)                 1.1001         -DE/DX =    0.0                 !
 ! R11   R(4,12)                 1.092          -DE/DX =    0.0                 !
 ! R12   R(5,6)                  1.4261         -DE/DX =    0.0                 !
 ! R13   R(5,13)                 1.092          -DE/DX =    0.0                 !
 ! R14   R(5,14)                 1.1001         -DE/DX =    0.0                 !
 ! A1    A(2,1,6)              110.6635         -DE/DX =    0.0                 !
 ! A2    A(2,1,7)              109.8165         -DE/DX =   -0.0001              !
 ! A3    A(2,1,8)              111.056          -DE/DX =    0.0                 !
 ! A4    A(6,1,7)              109.7416         -DE/DX =    0.0                 !
 ! A5    A(6,1,8)              106.6158         -DE/DX =    0.0                 !
 ! A6    A(7,1,8)              108.8809         -DE/DX =    0.0                 !
 ! A7    A(1,2,3)              110.6635         -DE/DX =    0.0                 !
 ! A8    A(1,2,9)              109.8165         -DE/DX =   -0.0001              !
 ! A9    A(1,2,10)             111.056          -DE/DX =    0.0                 !
 ! A10   A(3,2,9)              109.7416         -DE/DX =    0.0                 !
 ! A11   A(3,2,10)             106.6158         -DE/DX =    0.0                 !
 ! A12   A(9,2,10)             108.8809         -DE/DX =    0.0                 !
 ! A13   A(2,3,4)              110.9983         -DE/DX =    0.0                 !
 ! A14   A(3,4,5)              110.6635         -DE/DX =    0.0                 !
 ! A15   A(3,4,11)             109.7416         -DE/DX =    0.0                 !
 ! A16   A(3,4,12)             106.6158         -DE/DX =    0.0                 !
 ! A17   A(5,4,11)             109.8165         -DE/DX =   -0.0001              !
 ! A18   A(5,4,12)             111.056          -DE/DX =    0.0                 !
 ! A19   A(11,4,12)            108.8809         -DE/DX =    0.0                 !
 ! A20   A(4,5,6)              110.6635         -DE/DX =    0.0                 !
 ! A21   A(4,5,13)             111.056          -DE/DX =    0.0                 !
 ! A22   A(4,5,14)             109.8165         -DE/DX =   -0.0001              !
 ! A23   A(6,5,13)             106.6158         -DE/DX =    0.0                 !
 ! A24   A(6,5,14)             109.7416         -DE/DX =    0.0                 !
 ! A25   A(13,5,14)            108.8809         -DE/DX =    0.0                 !
 ! A26   A(1,6,5)              110.9983         -DE/DX =    0.0                 !
 ! D1    D(6,1,2,3)             56.527          -DE/DX =    0.0                 !
 ! D2    D(6,1,2,9)            -64.7803         -DE/DX =    0.0                 !
 ! D3    D(6,1,2,10)           174.7349         -DE/DX =    0.0                 !
 ! D4    D(7,1,2,3)            -64.7803         -DE/DX =    0.0                 !
 ! D5    D(7,1,2,9)            173.9125         -DE/DX =    0.0                 !
 ! D6    D(7,1,2,10)            53.4276         -DE/DX =    0.0                 !
 ! D7    D(8,1,2,3)            174.7349         -DE/DX =    0.0                 !
 ! D8    D(8,1,2,9)             53.4276         -DE/DX =    0.0                 !
 ! D9    D(8,1,2,10)           -67.0572         -DE/DX =    0.0001              !
 ! D10   D(2,1,6,5)            -56.7204         -DE/DX =    0.0                 !
 ! D11   D(7,1,6,5)             64.6311         -DE/DX =    0.0                 !
 ! D12   D(8,1,6,5)           -177.6015         -DE/DX =    0.0                 !
 ! D13   D(1,2,3,4)            -56.7204         -DE/DX =    0.0                 !
 ! D14   D(9,2,3,4)             64.6311         -DE/DX =    0.0                 !
 ! D15   D(10,2,3,4)          -177.6015         -DE/DX =    0.0                 !
 ! D16   D(2,3,4,5)             56.7204         -DE/DX =    0.0                 !
 ! D17   D(2,3,4,11)           -64.6311         -DE/DX =    0.0                 !
 ! D18   D(2,3,4,12)           177.6015         -DE/DX =    0.0                 !
 ! D19   D(3,4,5,6)            -56.527          -DE/DX =    0.0                 !
 ! D20   D(3,4,5,13)          -174.7349         -DE/DX =    0.0                 !
 ! D21   D(3,4,5,14)            64.7802         -DE/DX =    0.0                 !
 ! D22   D(11,4,5,6)            64.7802         -DE/DX =    0.0                 !
 ! D23   D(11,4,5,13)          -53.4276         -DE/DX =    0.0                 !
 ! D24   D(11,4,5,14)         -173.9125         -DE/DX =    0.0                 !
 ! D25   D(12,4,5,6)          -174.7349         -DE/DX =    0.0                 !
 ! D26   D(12,4,5,13)           67.0572         -DE/DX =   -0.0001              !
 ! D27   D(12,4,5,14)          -53.4277         -DE/DX =    0.0                 !
 ! D28   D(4,5,6,1)             56.7204         -DE/DX =    0.0                 !
 ! D29   D(13,5,6,1)           177.6015         -DE/DX =    0.0                 !
 ! D30   D(14,5,6,1)           -64.6311         -DE/DX =    0.0                 !
 --------------------------------------------------------------------------------
 GradGradGradGradGradGradGradGradGradGradGradGradGradGradGradGradGradGrad


 ----------------------------------------------------------------------

 Electric dipole moment (input orientation):
 (Debye = 10**-18 statcoulomb cm , SI units = C m)
                  (au)            (Debye)         (10**-30 SI)
   Tot        0.000000D+00      0.000000D+00      0.000000D+00
   x          0.000000D+00      0.000000D+00      0.000000D+00
   y          0.000000D+00      0.000000D+00      0.000000D+00
   z          0.000000D+00      0.000000D+00      0.000000D+00

 Dipole polarizability, Alpha (input orientation).
 (esu units = cm**3 , SI units = C**2 m**2 J**-1)
 Alpha(0;0):
               (au)            (10**-24 esu)      (10**-40 SI)
   iso        0.553689D+02      0.820483D+01      0.912910D+01
   aniso      0.107651D+02      0.159522D+01      0.177492D+01
   xx         0.620100D+02      0.918893D+01      0.102241D+02
   yx         0.566455D+00      0.839399D-01      0.933957D-01
   yy         0.524012D+02      0.776506D+01      0.863979D+01
   zx         0.190693D+01      0.282578D+00      0.314411D+00
   zy         0.121218D+01      0.179627D+00      0.199862D+00
   zz         0.516955D+02      0.766049D+01      0.852344D+01

 ----------------------------------------------------------------------

 Dipole orientation:
     6         -1.09693306          1.06262834         -2.16099704
     6         -0.54719331         -1.75026641         -1.90774647
     8         -0.62895276         -2.50622819          0.67771670
     6          1.09693316         -1.06262828          2.16099716
     6          0.54719315          1.75026626          1.90774684
     8          0.62895295          2.50622812         -0.67771676
     1         -3.04559601          1.45738055         -1.55365966
     1         -0.86574187          1.69044900         -4.11318151
     1          1.32459059         -2.17717210         -2.70533770
     1         -1.96683431         -2.87514337         -2.89663654
     1          3.04559611         -1.45737997          1.55365942
     1          0.86574250         -1.69044968          4.11318142
     1          1.96683387          2.87514370          2.89663667
     1         -1.32459098          2.17717205          2.70533746

 Electric dipole moment (dipole orientation):
 (Debye = 10**-18 statcoulomb cm , SI units = C m)
                  (au)            (Debye)         (10**-30 SI)
   Tot        0.000000D+00      0.000000D+00      0.000000D+00
   x          0.000000D+00      0.000000D+00      0.000000D+00
   y          0.000000D+00      0.000000D+00      0.000000D+00
   z          0.000000D+00      0.000000D+00      0.000000D+00

 Dipole polarizability, Alpha (dipole orientation).
 (esu units = cm**3 , SI units = C**2 m**2 J**-1)
 Alpha(0;0):
               (au)            (10**-24 esu)      (10**-40 SI)
   iso        0.553689D+02      0.820483D+01      0.912910D+01
   aniso      0.107651D+02      0.159522D+01      0.177492D+01
   xx         0.528084D+02      0.782540D+01      0.870693D+01
   yx        -0.329529D+00     -0.488312D-01     -0.543321D-01
   yy         0.527753D+02      0.782049D+01      0.870147D+01
   zx         0.393609D+01      0.583269D+00      0.648974D+00
   zy         0.176169D+01      0.261056D+00      0.290464D+00
   zz         0.605230D+02      0.896859D+01      0.997890D+01

 ----------------------------------------------------------------------
 Unable to Open any file for archive entry.
 1\1\GINC-CCC067\Freq\RB3LYP\6-311++G(d,p)\C4H8O2\ROOT\12-Jun-2024\0\\#
 N Geom=AllCheck Guess=TCheck SCRF=Check GenChk RB3LYP/6-311++G(d,p) Fr
 eq\\C1COCCO1\\0,1\C,-1.2414951634,0.6459577771,-0.0478105\C,-1.0620777
 583,-0.8284549281,-0.3827673799\O,0.0477195183,-1.3743893434,0.3272269
 114\C,1.2414952467,-0.6459577478,0.0478104906\C,1.0620778765,0.8284548
 243,0.3827675494\O,-0.0477194926,1.3743893166,-0.3272270163\H,-1.50497
 79587,0.757714126,1.0144341431\H,-2.0300545428,1.0934421385,-0.6564732
 683\H,-0.9063096671,-0.9487446209,-1.4651457891\H,-1.9386465516,-1.407
 8565773,-0.0853461468\H,1.5049778952,-0.7577138043,-1.0144342213\H,2.0
 30054658,-1.0934424719,0.6564729245\H,1.9386464929,1.4078567265,0.0853
 464016\H,0.9063094468,0.9487445948,1.4651458912\\Version=ES64L-G16RevC
 .02\State=1-A\HF=-307.7519072\RMSD=5.836e-10\RMSF=6.946e-05\ZeroPoint=
 0.1218492\Thermal=0.1270703\ETot=-307.6248369\HTot=-307.6238927\GTot=-
 307.6584669\Dipole=0.0000003,0.,0.0000002\DipoleDeriv=0.6366032,0.1317
 317,-0.0505999,0.2585754,0.3288726,0.008727,-0.1293239,-0.021159,0.352
 3551,0.5873637,-0.0713393,0.1367941,-0.1981614,0.2769095,-0.06107,0.21
 55089,-0.0310685,0.4535579,-1.0153835,-0.0379202,-0.106136,-0.0420688,
 -0.6292004,0.0517042,-0.1043776,0.0295092,-0.4923182,0.6366031,0.13173
 17,-0.0505999,0.2585752,0.3288728,0.0087269,-0.1293238,-0.021159,0.352
 355,0.5873634,-0.0713392,0.136794,-0.1981612,0.2769095,-0.0610699,0.21
 55087,-0.0310685,0.4535577,-1.0153834,-0.0379203,-0.1061358,-0.042069,
 -0.6292004,0.0517041,-0.1043774,0.0295091,-0.4923182,-0.0109454,-0.023
 2728,0.0075483,-0.035705,0.0003467,-0.0332883,0.1245472,-0.0374442,-0.
 1784348,-0.0862877,0.0358539,-0.0645635,0.0633228,0.0161197,0.035073,-
 0.1103596,0.053554,0.0098215,-0.0007311,0.0370773,0.0675019,0.0438551,
 0.0113667,-0.0138186,-0.0471005,-0.0399135,-0.1996692,-0.1106192,-0.07
 21305,0.0094551,-0.089818,-0.0044149,0.0126726,0.0511054,0.046522,0.05
 46876,-0.0109454,-0.0232728,0.0075482,-0.0357051,0.0003467,-0.0332882,
 0.1245472,-0.0374441,-0.1784348,-0.0862876,0.0358539,-0.0645635,0.0633
 229,0.0161196,0.035073,-0.1103595,0.053554,0.0098216,-0.1106191,-0.072
 1304,0.0094551,-0.0898181,-0.0044149,0.0126726,0.0511054,0.0465219,0.0
 546877,-0.0007311,0.0370773,0.067502,0.0438551,0.0113668,-0.0138186,-0
 .0471004,-0.0399134,-0.1996691\Polar=62.0099884,0.5664546,52.4012229,1
 .9069323,1.212185,51.6955226\Quadrupole=4.5967972,-4.4518756,-0.144921
 6,0.346602,0.7552324,2.0523753\PG=C01 [X(C4H8O2)]\NImag=0\\0.52513963,
 -0.07155992,0.46330029,0.05307397,-0.02189586,0.59452203,-0.07809175,0
 .02499372,0.00700096,0.54529784,0.00316277,-0.17076503,-0.03705209,0.0
 8541055,0.48804528,0.00577560,-0.03306858,-0.09509930,-0.06515686,-0.0
 0222056,0.54961894,-0.02325206,0.01252428,-0.01217376,-0.14633313,0.04
 615596,-0.05811128,0.42709193,0.03965566,-0.01924601,0.02539367,0.0182
 8330,-0.10093484,0.03383944,0.03391312,0.24088181,-0.00391076,0.003541
 55,0.00305855,-0.03602523,0.04457921,-0.10923849,0.05363446,-0.0971225
 5,0.19402682,0.00853623,0.00507991,0.00161202,-0.04915726,-0.01223236,
 -0.00080117,-0.15830845,-0.03793913,0.00824560,0.52513958,0.00507991,-
 0.00033176,0.00038811,0.00536451,0.01258011,-0.00632976,-0.06716900,-0
 .11429178,0.02708139,-0.07156004,0.46330044,0.00161202,0.00038811,0.00
 108593,-0.01765185,-0.01095388,0.00187029,0.03090689,0.03056012,-0.083
 90604,0.05307398,-0.02189589,0.59452197,-0.04915725,0.00536451,-0.0176
 5185,0.00990246,-0.00325227,0.00163952,-0.01619262,-0.04587917,-0.0055
 2549,-0.07809175,0.02499373,0.00700097,0.54529759,-0.01223235,0.012580
 11,-0.01095389,-0.00325227,-0.00166055,-0.00118737,-0.01248783,-0.0280
 4823,-0.00136611,0.00316279,-0.17076515,-0.03705213,0.08541072,0.48804
 542,-0.00080117,-0.00632976,0.00187030,0.00163952,-0.00118737,0.001048
 47,0.00008429,0.01027231,0.00480133,0.00577560,-0.03306862,-0.09509931
 ,-0.06515708,-0.00222043,0.54961888,-0.15830852,-0.06716904,0.03090692
 ,-0.01619261,-0.01248783,0.00008429,0.00806392,-0.00008958,0.00162536,
 -0.02325206,0.01252428,-0.01217377,-0.14633288,0.04615583,-0.05811114,
 0.42709175,-0.03793917,-0.11429179,0.03056014,-0.04587918,-0.02804823,
 0.01027231,-0.00008958,0.01184298,-0.00099672,0.03965565,-0.01924601,0
 .02539367,0.01828319,-0.10093478,0.03383937,0.03391329,0.24088177,0.00
 824562,0.02708141,-0.08390605,-0.00552548,-0.00136610,0.00480133,0.001
 62536,-0.00099672,0.00008746,-0.00391076,0.00354155,0.00305854,-0.0360
 2509,0.04457914,-0.10923843,0.05363428,-0.09712250,0.19402678,-0.05974
 866,0.01062643,0.04140758,0.00085409,0.00202870,0.00315215,0.00091049,
 -0.00094935,0.00062677,-0.00098511,-0.00009799,-0.00036238,0.00394008,
 -0.00130555,0.00579869,-0.02366341,-0.00716840,0.03130262,0.07013867,0
 .00930591,-0.05286578,-0.02815992,0.00609376,-0.00585039,-0.03513625,-
 0.00123155,0.00307269,0.00211192,-0.00020303,-0.00023033,-0.00039153,0
 .00259371,-0.00073111,0.00125234,-0.01469299,-0.00015820,0.02046253,-0
 .00046550,0.05865674,0.04440668,-0.02996843,-0.27513279,-0.00068241,-0
 .00058274,-0.00995170,0.00059156,0.00071766,0.00247314,0.00046025,0.00
 034385,0.00003807,-0.00211324,0.00020493,0.00100353,0.01206574,0.00686
 959,-0.00406288,-0.05886849,0.02846452,0.29893141,-0.17146391,0.076101
 07,-0.10080056,-0.00167077,0.00316011,-0.00239651,0.00182563,0.0003826
 2,0.00039061,-0.00039345,-0.00089361,-0.00037918,-0.00213027,-0.004185
 86,0.00325942,-0.03318918,0.00688870,-0.01616834,0.00682771,-0.0025927
 7,0.00283629,0.20117720,0.08448332,-0.09921329,0.06428255,0.02165956,-
 0.00613344,0.01990973,0.00418190,-0.00821818,-0.00123691,-0.00243095,-
 0.00116212,0.00028173,-0.00300202,-0.00190093,0.00095615,-0.01946620,0
 .00853963,-0.01170732,-0.00333316,0.00273516,-0.00303723,-0.08062149,0
 .10291774,-0.10882172,0.06341747,-0.13815275,0.00650583,-0.00373661,0.
 00382803,0.00065653,-0.00177077,0.00151949,0.00019721,-0.00017201,-0.0
 0002522,0.00146340,0.00030818,0.00043469,0.00672919,-0.00385799,0.0058
 9920,-0.02071007,0.01310040,-0.01545254,0.11372711,-0.06841136,0.14053
 272,-0.00069097,-0.00070696,0.00616267,-0.05936545,0.00133286,0.046803
 15,-0.00782432,0.00197845,-0.03562332,0.00493195,0.00188920,-0.0043585
 2,-0.00084817,-0.00012659,0.00007662,0.00141379,0.00032934,-0.00136084
 ,0.00095341,0.00151104,-0.00005514,0.00004860,-0.00012504,0.00018109,0
 .06342043,0.00801585,-0.00590515,-0.03451560,0.00183013,-0.05419669,-0
 .02913546,0.00466487,0.00200062,0.01854420,-0.00189939,-0.00084019,-0.
 00040688,0.00021203,-0.00020057,-0.00028120,0.00009302,0.00327577,0.00
 219458,0.00016238,-0.00623024,-0.00153393,-0.00001587,0.00123251,0.000
 60252,-0.01025623,0.05714759,0.00457720,-0.00065452,-0.00835190,0.0441
 5298,-0.03173129,-0.27418510,-0.01433582,0.00625313,-0.02206080,0.0035
 0650,0.00123261,0.00012075,-0.00084500,0.00023307,-0.00012864,-0.00110
 586,0.00081475,0.00176676,0.00031258,-0.00125271,0.00094566,0.00026160
 ,-0.00082910,0.00048904,-0.03748830,0.02842772,0.30715882,0.00465490,0
 .00005807,-0.00056218,-0.20532125,-0.10859956,0.05984986,-0.03291766,-
 0.01133004,0.00258438,-0.00117103,0.00379036,-0.00387569,-0.00088382,0
 .00093905,0.00002651,0.00237507,0.00192448,0.00020417,0.00024702,-0.00
 036251,-0.00022717,-0.00002446,-0.00096935,-0.00031196,-0.00232904,-0.
 00304794,0.00265365,0.23621354,-0.02594301,-0.01019014,0.01106363,-0.1
 1650171,-0.12955616,0.03994360,0.01542308,0.00985862,-0.00370427,0.002
 50441,-0.00083881,0.00140592,0.00219392,-0.00064745,0.00118560,-0.0018
 1907,-0.00857489,-0.00238150,0.00025562,0.00123396,-0.00079961,0.00077
 011,0.00030148,0.00052931,0.00410653,0.00334597,-0.00152550,0.11879250
 ,0.13429439,-0.00628501,-0.00542344,0.00155906,0.06766754,0.04337717,-
 0.07395255,-0.02048193,-0.00942317,0.00430869,-0.00203638,0.00150760,-
 0.00158667,-0.00043016,0.00012810,-0.00004952,-0.00008538,-0.00154948,
 0.00132677,-0.00036238,0.00049174,0.00028916,0.00017749,0.00024296,0.0
 0015112,0.02348145,0.01665193,-0.00690659,-0.06065167,-0.04547113,0.07
 411974,-0.00098511,-0.00009799,-0.00036238,0.00394008,-0.00130555,0.00
 579869,-0.02366341,-0.00716840,0.03130262,-0.05974865,0.01062641,0.041
 40755,0.00085409,0.00202870,0.00315215,0.00091049,-0.00094935,0.000626
 77,-0.00000319,-0.00018103,-0.00023195,0.00003604,0.00027818,-0.000049
 38,0.00038692,0.00021553,-0.00159695,0.00010595,-0.00006585,-0.0004188
 0,0.07013865,-0.00020303,-0.00023033,-0.00039153,0.00259371,-0.0007311
 1,0.00125234,-0.01469299,-0.00015821,0.02046253,0.00930589,-0.05286576
 ,-0.02815986,0.00609376,-0.00585039,-0.03513626,-0.00123156,0.00307269
 ,0.00211191,-0.00018103,-0.00008008,0.00001457,0.00009500,0.00018272,0
 .00002037,0.00006639,0.00026220,-0.00083700,0.00006358,0.00000265,-0.0
 0014097,-0.00046549,0.05865674,0.00046025,0.00034385,0.00003807,-0.002
 11324,0.00020493,0.00100354,0.01206573,0.00686959,-0.00406288,0.044406
 65,-0.02996837,-0.27513282,-0.00068241,-0.00058275,-0.00995171,0.00059
 156,0.00071767,0.00247314,-0.00023195,0.00001457,-0.00021424,0.0000676
 8,-0.00010306,0.00000556,0.00157531,-0.00055780,0.00074954,0.00017490,
 -0.00003231,0.00037807,-0.05886846,0.02846445,0.29893145,-0.00039345,-
 0.00089361,-0.00037918,-0.00213027,-0.00418586,0.00325942,-0.03318918,
 0.00688870,-0.01616834,-0.17146394,0.07610115,-0.10080053,-0.00167077,
 0.00316011,-0.00239650,0.00182563,0.00038262,0.00039061,0.00003604,0.0
 0009500,0.00006768,0.00010796,0.00020762,0.00002477,0.00004822,-0.0000
 0949,-0.00029461,-0.00119932,0.00071385,-0.00070578,0.00682771,-0.0025
 9277,0.00283629,0.20117723,-0.00243096,-0.00116212,0.00028173,-0.00300
 202,-0.00190093,0.00095615,-0.01946620,0.00853963,-0.01170731,0.084483
 40,-0.09921337,0.06428258,0.02165955,-0.00613344,0.01990973,0.00418190
 ,-0.00821817,-0.00123691,0.00027818,0.00018272,-0.00010306,0.00020762,
 0.00021862,-0.00001238,0.00008913,0.00000950,-0.00003969,-0.00095151,0
 .00049060,-0.00029607,-0.00333315,0.00273516,-0.00303723,-0.08062156,0
 .10291781,0.00019721,-0.00017201,-0.00002522,0.00146340,0.00030818,0.0
 0043469,0.00672919,-0.00385799,0.00589919,-0.10882169,0.06341749,-0.13
 815267,0.00650584,-0.00373661,0.00382804,0.00065654,-0.00177077,0.0015
 1949,-0.00004938,0.00002037,0.00000556,0.00002477,-0.00001238,-0.00007
 020,0.00031215,-0.00009586,0.00042896,0.00009584,0.00007872,0.00041189
 ,-0.02071007,0.01310041,-0.01545253,0.11372708,-0.06841138,0.14053264,
 -0.00117103,0.00379036,-0.00387569,-0.00088382,0.00093905,0.00002651,0
 .00237507,0.00192448,0.00020417,0.00465490,0.00005807,-0.00056218,-0.2
 0532124,-0.10859962,0.05984986,-0.03291766,-0.01133004,0.00258438,0.00
 010595,0.00006358,0.00017490,-0.00119932,-0.00095151,0.00009584,0.0000
 8934,-0.00011094,-0.00002114,0.00016077,-0.00019619,0.00006048,0.00024
 702,-0.00036251,-0.00022717,-0.00002446,-0.00096934,-0.00031196,0.2362
 1352,0.00250441,-0.00083880,0.00140592,0.00219392,-0.00064745,0.001185
 60,-0.00181907,-0.00857489,-0.00238151,-0.02594300,-0.01019013,0.01106
 363,-0.11650178,-0.12955625,0.03994361,0.01542307,0.00985862,-0.003704
 26,-0.00006585,0.00000265,-0.00003231,0.00071385,0.00049060,0.00007872
 ,-0.00023418,0.00012548,-0.00020666,-0.00019619,0.00015430,-0.00008581
 ,0.00025562,0.00123396,-0.00079961,0.00077011,0.00030148,0.00052931,0.
 11879256,0.13429446,-0.00203638,0.00150760,-0.00158667,-0.00043016,0.0
 0012810,-0.00004952,-0.00008538,-0.00154948,0.00132677,-0.00628502,-0.
 00542344,0.00155906,0.06766754,0.04337717,-0.07395253,-0.02048193,-0.0
 0942317,0.00430869,-0.00041880,-0.00014097,0.00037807,-0.00070578,-0.0
 0029607,0.00041189,0.00007052,-0.00000942,0.00000951,0.00006048,-0.000
 08581,-0.00005869,-0.00036238,0.00049174,0.00028916,0.00017749,0.00024
 296,0.00015112,-0.06065166,-0.04547114,0.07411973,0.00493195,0.0018892
 0,-0.00435852,-0.00084817,-0.00012659,0.00007662,0.00141379,0.00032934
 ,-0.00136084,-0.00069097,-0.00070696,0.00616268,-0.05936547,0.00133287
 ,0.04680322,-0.00782432,0.00197845,-0.03562331,0.00038692,0.00006639,0
 .00157531,0.00004822,0.00008913,0.00031215,-0.00023470,0.00014605,0.00
 022316,0.00008934,-0.00023418,0.00007052,0.00095341,0.00151104,-0.0000
 5514,0.00004860,-0.00012504,0.00018109,-0.00232905,0.00410653,0.023481
 45,0.06342045,-0.00189939,-0.00084019,-0.00040688,0.00021203,-0.000200
 57,-0.00028119,0.00009302,0.00327577,0.00219458,0.00801585,-0.00590514
 ,-0.03451560,0.00183013,-0.05419670,-0.02913547,0.00466487,0.00200062,
 0.01854419,0.00021553,0.00026220,-0.00055780,-0.00000949,0.00000950,-0
 .00009586,0.00014605,-0.00002680,0.00011519,-0.00011094,0.00012548,-0.
 00000942,0.00016238,-0.00623024,-0.00153393,-0.00001587,0.00123251,0.0
 0060252,-0.00304794,0.00334597,0.01665193,-0.01025623,0.05714759,0.003
 50650,0.00123261,0.00012075,-0.00084500,0.00023307,-0.00012864,-0.0011
 0586,0.00081475,0.00176676,0.00457720,-0.00065452,-0.00835189,0.044153
 04,-0.03173131,-0.27418510,-0.01433580,0.00625313,-0.02206080,-0.00159
 695,-0.00083700,0.00074954,-0.00029461,-0.00003969,0.00042896,0.000223
 16,0.00011519,-0.00003602,-0.00002114,-0.00020666,0.00000951,0.0003125
 8,-0.00125271,0.00094566,0.00026160,-0.00082910,0.00048904,0.00265365,
 -0.00152550,-0.00690658,-0.03748838,0.02842774,0.30715882\\-0.00009630
 ,-0.00016349,0.00004253,-0.00009827,0.00014804,-0.00007888,-0.00000228
 ,-0.00004848,0.00003250,0.00009632,0.00016353,-0.00004249,0.00009838,-
 0.00014813,0.00007892,0.00000218,0.00004851,-0.00003256,0.00002226,0.0
 0004725,0.00004149,0.00007645,0.00002715,-0.00001041,0.00004259,-0.000
 04210,-0.00002936,0.00007078,-0.00001548,0.00003792,-0.00002226,-0.000
 04724,-0.00004149,-0.00007645,-0.00002716,0.00001039,-0.00007081,0.000
 01549,-0.00003792,-0.00004260,0.00004211,0.00002936\\\@
 The archive entry for this job was punched.


 BRING ME INTO THE COMPANY OF THOSE WHO SEEK TRUTH,
 AND DELIVER ME FROM THOSE WHO HAVE FOUND IT.
 Job cpu time:       0 days  0 hours  7 minutes 42.6 seconds.
 Elapsed time:       0 days  0 hours  0 minutes 59.8 seconds.
 File lengths (MBytes):  RWF=     54 Int=      0 D2E=      0 Chk=      4 Scr=      1
 Normal termination of Gaussian 16 at Wed Jun 12 22:05:03 2024.
