 Entering Gaussian System, Link 0=/apl/gaussian/16c02/g16/._.g16
 Initial command:
 /apl/gaussian/16c02/g16/l1.exe "/lwork/users/eso/6527386.ccpbs1/gaussian/Gau-3129016.inp" -scrdir="/lwork/users/eso/6527386.ccpbs1/gaussian/"
 Default CPUs for threads: 88,89,90,91,92,93,94,95
 Default is to use a total of   8 processors:
                                8 via shared-memory
                                1 via Linda
 Entering Link 1 = /apl/gaussian/16c02/g16/l1.exe PID=   3129017.
  
 Copyright (c) 1988-2021, Gaussian, Inc.  All Rights Reserved.
  
 This is part of the Gaussian(R) 16 program.  It is based on
 the Gaussian(R) 09 system (copyright 2009, Gaussian, Inc.),
 the Gaussian(R) 03 system (copyright 2003, Gaussian, Inc.),
 the Gaussian(R) 98 system (copyright 1998, Gaussian, Inc.),
 the Gaussian(R) 94 system (copyright 1995, Gaussian, Inc.),
 the Gaussian 92(TM) system (copyright 1992, Gaussian, Inc.),
 the Gaussian 90(TM) system (copyright 1990, Gaussian, Inc.),
 the Gaussian 88(TM) system (copyright 1988, Gaussian, Inc.),
 the Gaussian 86(TM) system (copyright 1986, Carnegie Mellon
 University), and the Gaussian 82(TM) system (copyright 1983,
 Carnegie Mellon University). Gaussian is a federally registered
 trademark of Gaussian, Inc.
  
 This software contains proprietary and confidential information,
 including trade secrets, belonging to Gaussian, Inc.
  
 This software is provided under written license and may be
 used, copied, transmitted, or stored only in accord with that
 written license.
  
 The following legend is applicable only to US Government
 contracts under FAR:
  
                    RESTRICTED RIGHTS LEGEND
  
 Use, reproduction and disclosure by the US Government is
 subject to restrictions as set forth in subparagraphs (a)
 and (c) of the Commercial Computer Software - Restricted
 Rights clause in FAR 52.227-19.
  
 Gaussian, Inc.
 340 Quinnipiac St., Bldg. 40, Wallingford CT 06492
  
  
 ---------------------------------------------------------------
 Warning -- This program may not be used in any manner that
 competes with the business of Gaussian, Inc. or will provide
 assistance to any competitor of Gaussian, Inc.  The licensee
 of this program is prohibited from giving any competitor of
 Gaussian, Inc. access to this program.  By using this program,
 the user acknowledges that Gaussian, Inc. is engaged in the
 business of creating and licensing software in the field of
 computational chemistry and represents and warrants to the
 licensee that it is not a competitor of Gaussian, Inc. and that
 it will not use this program in any manner prohibited above.
 ---------------------------------------------------------------
  

 Cite this work as:
 Gaussian 16, Revision C.02,
 M. J. Frisch, G. W. Trucks, H. B. Schlegel, G. E. Scuseria, 
 M. A. Robb, J. R. Cheeseman, G. Scalmani, V. Barone, 
 G. A. Petersson, H. Nakatsuji, X. Li, M. Caricato, A. V. Marenich, 
 J. Bloino, B. G. Janesko, R. Gomperts, B. Mennucci, H. P. Hratchian, 
 J. V. Ortiz, A. F. Izmaylov, J. L. Sonnenberg, D. Williams-Young, 
 F. Ding, F. Lipparini, F. Egidi, J. Goings, B. Peng, A. Petrone, 
 T. Henderson, D. Ranasinghe, V. G. Zakrzewski, J. Gao, N. Rega, 
 G. Zheng, W. Liang, M. Hada, M. Ehara, K. Toyota, R. Fukuda, 
 J. Hasegawa, M. Ishida, T. Nakajima, Y. Honda, O. Kitao, H. Nakai, 
 T. Vreven, K. Throssell, J. A. Montgomery, Jr., J. E. Peralta, 
 F. Ogliaro, M. J. Bearpark, J. J. Heyd, E. N. Brothers, K. N. Kudin, 
 V. N. Staroverov, T. A. Keith, R. Kobayashi, J. Normand, 
 K. Raghavachari, A. P. Rendell, J. C. Burant, S. S. Iyengar, 
 J. Tomasi, M. Cossi, J. M. Millam, M. Klene, C. Adamo, R. Cammi, 
 J. W. Ochterski, R. L. Martin, K. Morokuma, O. Farkas, 
 J. B. Foresman, and D. J. Fox, Gaussian, Inc., Wallingford CT, 2019.
 
 ******************************************
 Gaussian 16:  ES64L-G16RevC.02  7-Dec-2021
                12-Jun-2024 
 ******************************************
 %chk=CC#N.chk
 %mem=9600MB
 SetSPE:  set environment variable "OMP_PROC_BIND" = "true"
 SetSPE:  set environment variable "OMP_PLACES" = "{88},{89},{90},{91},{92},{93},{94},{95}"
 --------------------------------------------------------
 # opt freq b3lyp/6-311++g(d,p) pop=nbo geom=connectivity
 --------------------------------------------------------
 1/18=20,19=15,26=3,38=1,57=2/1,3;
 2/9=110,12=2,17=6,18=5,40=1/2;
 3/5=4,6=6,7=1111,11=2,25=1,30=1,71=1,74=-5/1,2,3;
 4//1;
 5/5=2,38=5/2;
 6/7=2,8=2,9=2,10=2,28=1,40=1/1,7;
 7//1,2,3,16;
 1/18=20,19=15,26=3/3(2);
 2/9=110/2;
 99//99;
 2/9=110/2;
 3/5=4,6=6,7=1111,11=2,25=1,30=1,71=1,74=-5/1,2,3;
 4/5=5,16=3,69=1/1;
 5/5=2,38=5/2;
 7//1,2,3,16;
 1/18=20,19=15,26=3/3(-5);
 2/9=110/2;
 6/7=2,8=2,9=2,10=2,19=2,28=1,40=1/1,7;
 99/9=1/99;
 ----
 CC#N
 ----
 Symbolic Z-matrix:
 Charge =  0 Multiplicity = 1
 C                    -0.48585   0.00589   0.0206 
 C                     0.97465  -0.01181  -0.04132 
 N                     2.13377  -0.02585  -0.09046 
 H                    -0.91364  -0.71001  -0.68751 
 H                    -0.83563  -0.25744   1.02321 
 H                    -0.8733    0.99922  -0.22452 
 

 GradGradGradGradGradGradGradGradGradGradGradGradGradGradGradGradGradGrad
 Berny optimization.
 Initialization pass.
                           ----------------------------
                           !    Initial Parameters    !
                           ! (Angstroms and Degrees)  !
 --------------------------                            --------------------------
 ! Name  Definition              Value          Derivative Info.                !
 --------------------------------------------------------------------------------
 ! R1    R(1,2)                  1.4619         estimate D2E/DX2                !
 ! R2    R(1,4)                  1.094          estimate D2E/DX2                !
 ! R3    R(1,5)                  1.094          estimate D2E/DX2                !
 ! R4    R(1,6)                  1.094          estimate D2E/DX2                !
 ! R5    R(2,3)                  1.1602         estimate D2E/DX2                !
 ! A1    A(2,1,4)              110.8121         estimate D2E/DX2                !
 ! A2    A(2,1,5)              110.8121         estimate D2E/DX2                !
 ! A3    A(2,1,6)              110.8121         estimate D2E/DX2                !
 ! A4    A(4,1,5)              108.0977         estimate D2E/DX2                !
 ! A5    A(4,1,6)              108.0977         estimate D2E/DX2                !
 ! A6    A(5,1,6)              108.0976         estimate D2E/DX2                !
 ! A7    L(1,2,3,4,-1)         180.0            estimate D2E/DX2                !
 ! A8    L(1,2,3,4,-2)         180.0            estimate D2E/DX2                !
 ! D1    D(2,1,5,4)           -121.6084         estimate D2E/DX2                !
 ! D2    D(2,1,6,4)            121.6084         estimate D2E/DX2                !
 ! D3    D(2,1,6,5)           -121.6084         estimate D2E/DX2                !
 ! D4    D(4,1,6,5)            116.7832         estimate D2E/DX2                !
 --------------------------------------------------------------------------------
 Trust Radius=3.00D-01 FncErr=1.00D-07 GrdErr=1.00D-06 EigMax=2.50D+02 EigMin=1.00D-04
 Number of steps in this run=     27 maximum allowed number of steps=    100.
 GradGradGradGradGradGradGradGradGradGradGradGradGradGradGradGradGradGrad

                          Input orientation:                          
 ---------------------------------------------------------------------
 Center     Atomic      Atomic             Coordinates (Angstroms)
 Number     Number       Type             X           Y           Z
 ---------------------------------------------------------------------
      1          6           0       -0.485849    0.005886    0.020597
      2          6           0        0.974648   -0.011807   -0.041320
      3          7           0        2.133770   -0.025849   -0.090460
      4          1           0       -0.913637   -0.710012   -0.687506
      5          1           0       -0.835629   -0.257440    1.023212
      6          1           0       -0.873303    0.999223   -0.224523
 ---------------------------------------------------------------------
                    Distance matrix (angstroms):
                    1          2          3          4          5
     1  C    0.000000
     2  C    1.461916   0.000000
     3  N    2.622164   1.160248   0.000000
     4  H    1.094040   2.114395   3.179816   0.000000
     5  H    1.094040   2.114395   3.179816   1.771289   0.000000
     6  H    1.094040   2.114395   3.179816   1.771289   1.771289
                    6
     6  H    0.000000
 Stoichiometry    C2H3N
 Framework group  C3V[C3(CCN),3SGV(H)]
 Deg. of freedom     4
 Full point group                 C3V     NOp   6
 Largest Abelian subgroup         CS      NOp   2
 Largest concise Abelian subgroup CS      NOp   2
                         Standard orientation:                         
 ---------------------------------------------------------------------
 Center     Atomic      Atomic             Coordinates (Angstroms)
 Number     Number       Type             X           Y           Z
 ---------------------------------------------------------------------
      1          6           0       -0.000000    0.000000   -1.180022
      2          6           0        0.000000   -0.000000    0.281894
      3          7           0        0.000000   -0.000000    1.442142
      4          1           0        0.000000    1.022654   -1.568740
      5          1           0        0.885644   -0.511327   -1.568740
      6          1           0       -0.885644   -0.511327   -1.568740
 ---------------------------------------------------------------------
 Rotational constants (GHZ):         159.8281461           9.1429341           9.1429341
 Standard basis: 6-311++G(d,p) (5D, 7F)
 There are    64 symmetry adapted cartesian basis functions of A'  symmetry.
 There are    26 symmetry adapted cartesian basis functions of A"  symmetry.
 There are    61 symmetry adapted basis functions of A'  symmetry.
 There are    26 symmetry adapted basis functions of A"  symmetry.
    87 basis functions,   135 primitive gaussians,    90 cartesian basis functions
    11 alpha electrons       11 beta electrons
       nuclear repulsion energy        58.2652607206 Hartrees.
 NAtoms=    6 NActive=    6 NUniq=    4 SFac= 2.25D+00 NAtFMM=   60 NAOKFM=F Big=F
 Integral buffers will be    131072 words long.
 Raffenetti 2 integral format.
 Two-electron integral symmetry is turned on.
 One-electron integrals computed using PRISM.
 NBasis=    87 RedAO= T EigKep=  4.87D-05  NBF=    61    26
 NBsUse=    87 1.00D-06 EigRej= -1.00D+00 NBFU=    61    26
 ExpMin= 3.60D-02 ExpMax= 6.29D+03 ExpMxC= 9.49D+02 IAcc=3 IRadAn=         5 AccDes= 0.00D+00
 Harris functional with IExCor=  402 and IRadAn=       5 diagonalized for initial guess.
 HarFok:  IExCor=  402 AccDes= 0.00D+00 IRadAn=         5 IDoV= 1 UseB2=F ITyADJ=14
 ICtDFT=  3500011 ScaDFX=  1.000000  1.000000  1.000000  1.000000
 FoFCou: FMM=F IPFlag=           0 FMFlag=      100000 FMFlg1=           0
         NFxFlg=           0 DoJE=T BraDBF=F KetDBF=T FulRan=T
         wScrn=  0.000000 ICntrl=       500 IOpCl=  0 I1Cent=   200000004 NGrid=           0
         NMat0=    1 NMatS0=      1 NMatT0=    0 NMatD0=    1 NMtDS0=    0 NMtDT0=    0
 Petite list used in FoFCou.
 Initial guess orbital symmetries:
       Occupied  (A1) (A1) (A1) (A1) (A1) (A1) (E) (E) (A1) (E)
                 (E)
       Virtual   (E) (E) (A1) (E) (E) (A1) (A1) (E) (E) (A1) (E)
                 (E) (A1) (E) (E) (A1) (E) (E) (A1) (A1) (A1) (E)
                 (E) (A1) (E) (E) (E) (E) (A1) (A1) (A1) (A1) (E)
                 (E) (A1) (E) (E) (A1) (E) (E) (A1) (A2) (E) (E)
                 (E) (E) (A1) (E) (E) (A1) (E) (E) (E) (E) (A1)
                 (E) (E) (A1) (E) (E) (E) (E) (E) (E) (A1) (A1)
                 (A1) (E) (E) (A1) (E) (E) (A1) (A1) (A1) (A1)
 The electronic state of the initial guess is 1-A1.
 Keep R1 ints in memory in symmetry-blocked form, NReq=14652093.
 Requested convergence on RMS density matrix=1.00D-08 within 128 cycles.
 Requested convergence on MAX density matrix=1.00D-06.
 Requested convergence on             energy=1.00D-06.
 No special actions if energy rises.
 SCF Done:  E(RB3LYP) =  -132.795983475     A.U. after   11 cycles
            NFock= 11  Conv=0.82D-09     -V/T= 2.0048

 **********************************************************************

            Population analysis using the SCF Density.

 **********************************************************************

 Orbital symmetries:
       Occupied  (A1) (A1) (A1) (A1) (A1) (A1) (E) (E) (A1) (E)
                 (E)
       Virtual   (A1) (E) (E) (E) (E) (A1) (A1) (E) (E) (E) (E)
                 (A1) (A1) (E) (E) (A1) (E) (E) (A1) (A1) (A1)
                 (E) (E) (A1) (E) (E) (E) (E) (A1) (A1) (A1) (A1)
                 (E) (E) (A1) (E) (E) (A1) (E) (E) (A2) (A1) (E)
                 (E) (E) (E) (A1) (E) (E) (A1) (E) (E) (E) (E)
                 (A1) (E) (E) (E) (E) (A1) (E) (E) (A1) (E) (E)
                 (A1) (A1) (E) (E) (A1) (E) (E) (A1) (A1) (A1)
                 (A1)
 The electronic state is 1-A1.
 Alpha  occ. eigenvalues --  -14.32002 -10.22998 -10.22157  -0.91587  -0.78490
 Alpha  occ. eigenvalues --   -0.52736  -0.47144  -0.47144  -0.37256  -0.33954
 Alpha  occ. eigenvalues --   -0.33954
 Alpha virt. eigenvalues --   -0.02119   0.01083   0.01083   0.03305   0.03305
 Alpha virt. eigenvalues --    0.03380   0.07646   0.09070   0.09070   0.09304
 Alpha virt. eigenvalues --    0.09304   0.10484   0.13386   0.16601   0.16601
 Alpha virt. eigenvalues --    0.19798   0.22525   0.22525   0.24055   0.26612
 Alpha virt. eigenvalues --    0.29106   0.43230   0.43230   0.44230   0.54949
 Alpha virt. eigenvalues --    0.54949   0.60612   0.60612   0.66272   0.70744
 Alpha virt. eigenvalues --    0.73723   0.81603   0.88198   0.88198   0.89932
 Alpha virt. eigenvalues --    1.01706   1.01706   1.06070   1.24282   1.24282
 Alpha virt. eigenvalues --    1.40902   1.41567   1.44206   1.44206   1.54171
 Alpha virt. eigenvalues --    1.54171   1.70773   1.82182   1.82182   1.99656
 Alpha virt. eigenvalues --    2.06691   2.06691   2.16804   2.16804   2.37643
 Alpha virt. eigenvalues --    2.45511   2.45511   2.50474   2.50474   2.56094
 Alpha virt. eigenvalues --    2.78210   2.78210   2.88736   2.89163   2.89163
 Alpha virt. eigenvalues --    3.04189   3.14448   3.75661   3.75661   3.86759
 Alpha virt. eigenvalues --    3.98815   3.98815   4.55347  23.85956  24.29139
 Alpha virt. eigenvalues --   35.83360
          Condensed to atoms (all electrons):
               1          2          3          4          5          6
     1  C    5.338203  -0.189809   0.113689   0.407080   0.407080   0.407080
     2  C   -0.189809   5.592923   0.423872  -0.034164  -0.034164  -0.034164
     3  N    0.113689   0.423872   6.791299  -0.002433  -0.002433  -0.002433
     4  H    0.407080  -0.034164  -0.002433   0.525195  -0.036069  -0.036069
     5  H    0.407080  -0.034164  -0.002433  -0.036069   0.525195  -0.036069
     6  H    0.407080  -0.034164  -0.002433  -0.036069  -0.036069   0.525195
 Mulliken charges:
               1
     1  C   -0.483323
     2  C    0.275506
     3  N   -0.321561
     4  H    0.176459
     5  H    0.176459
     6  H    0.176459
 Sum of Mulliken charges =  -0.00000
 Mulliken charges with hydrogens summed into heavy atoms:
               1
     1  C    0.046055
     2  C    0.275506
     3  N   -0.321561
 Electronic spatial extent (au):  <R**2>=            163.2494
 Charge=              0.0000 electrons
 Dipole moment (field-independent basis, Debye):
    X=             -0.0000    Y=              0.0000    Z=             -4.0723  Tot=              4.0723
 Quadrupole moment (field-independent basis, Debye-Ang):
   XX=            -17.8393   YY=            -17.8393   ZZ=            -21.0199
   XY=             -0.0000   XZ=              0.0000   YZ=             -0.0000
 Traceless Quadrupole moment (field-independent basis, Debye-Ang):
   XX=              1.0602   YY=              1.0602   ZZ=             -2.1204
   XY=             -0.0000   XZ=              0.0000   YZ=             -0.0000
 Octapole moment (field-independent basis, Debye-Ang**2):
  XXX=             -0.0000  YYY=              0.8044  ZZZ=            -13.2752  XYY=              0.0000
  XXY=             -0.8044  XXZ=             -2.1384  XZZ=             -0.0000  YZZ=              0.0000
  YYZ=             -2.1384  XYZ=             -0.0000
 Hexadecapole moment (field-independent basis, Debye-Ang**3):
 XXXX=            -25.2387 YYYY=            -25.2387 ZZZZ=           -185.7272 XXXY=              0.0000
 XXXZ=              0.0000 YYYX=             -0.0000 YYYZ=             -1.3546 ZZZX=              0.0000
 ZZZY=              0.0000 XXYY=             -8.4129 XXZZ=            -31.6549 YYZZ=            -31.6549
 XXYZ=              1.3546 YYXZ=             -0.0000 ZZXY=              0.0000
 N-N= 5.826526072055D+01 E-N=-4.253463883548D+02  KE= 1.321607496895D+02
 Symmetry A'   KE= 1.272569930701D+02
 Symmetry A"   KE= 4.903756619388D+00
 ******************************Gaussian NBO Version 3.1******************************
             N A T U R A L   A T O M I C   O R B I T A L   A N D
          N A T U R A L   B O N D   O R B I T A L   A N A L Y S I S
 ******************************Gaussian NBO Version 3.1******************************
       /RESON  / : Allow strongly delocalized NBO set

 Analyzing the SCF density

 Job title: CC#N                                                            

 Storage needed:     23175 in NPA,     30595 in NBO (1258290960 available)
 GSVD:  LWork=        2375 too small for GESVD, short by        7572 words or        7572 for optimal perf.


 NATURAL POPULATIONS:  Natural atomic orbital occupancies 
                                                          
   NAO  Atom  No  lang   Type(AO)    Occupancy      Energy
 ----------------------------------------------------------
     1    C    1  S      Cor( 1S)     1.99917     -10.08915
     2    C    1  S      Val( 2S)     1.11095      -0.29184
     3    C    1  S      Ryd( 4S)     0.00049       0.93919
     4    C    1  S      Ryd( 5S)     0.00001      23.42886
     5    C    1  S      Ryd( 3S)     0.00000       0.44780
     6    C    1  px     Val( 2p)     1.24123      -0.14997
     7    C    1  px     Ryd( 4p)     0.00063       0.44640
     8    C    1  px     Ryd( 5p)     0.00001       2.90603
     9    C    1  px     Ryd( 3p)     0.00000       0.40308
    10    C    1  py     Val( 2p)     1.24123      -0.14997
    11    C    1  py     Ryd( 4p)     0.00063       0.44640
    12    C    1  py     Ryd( 5p)     0.00001       2.90603
    13    C    1  py     Ryd( 3p)     0.00000       0.40308
    14    C    1  pz     Val( 2p)     1.08673      -0.14179
    15    C    1  pz     Ryd( 3p)     0.00074       0.36822
    16    C    1  pz     Ryd( 5p)     0.00012       2.92847
    17    C    1  pz     Ryd( 4p)     0.00001       0.41407
    18    C    1  dxy    Ryd( 3d)     0.00067       2.00748
    19    C    1  dxz    Ryd( 3d)     0.00041       1.91386
    20    C    1  dyz    Ryd( 3d)     0.00041       1.91386
    21    C    1  dx2y2  Ryd( 3d)     0.00067       2.00748
    22    C    1  dz2    Ryd( 3d)     0.00120       2.37299
 
    23    C    2  S      Cor( 1S)     1.99937     -10.09440
    24    C    2  S      Val( 2S)     0.85593      -0.14196
    25    C    2  S      Ryd( 3S)     0.00732       0.61013
    26    C    2  S      Ryd( 5S)     0.00005      13.42582
    27    C    2  S      Ryd( 4S)     0.00001      10.17108
    28    C    2  px     Val( 2p)     0.91377      -0.10753
    29    C    2  px     Ryd( 4p)     0.00111       0.55898
    30    C    2  px     Ryd( 3p)     0.00010       0.45827
    31    C    2  px     Ryd( 5p)     0.00004       2.42362
    32    C    2  py     Val( 2p)     0.91377      -0.10753
    33    C    2  py     Ryd( 4p)     0.00111       0.55898
    34    C    2  py     Ryd( 3p)     0.00010       0.45827
    35    C    2  py     Ryd( 5p)     0.00004       2.42362
    36    C    2  pz     Val( 2p)     0.99382       0.03412
    37    C    2  pz     Ryd( 4p)     0.01796       1.06289
    38    C    2  pz     Ryd( 3p)     0.00052       0.56704
    39    C    2  pz     Ryd( 5p)     0.00008       2.28576
    40    C    2  dxy    Ryd( 3d)     0.00002       1.37884
    41    C    2  dxz    Ryd( 3d)     0.00098       2.21721
    42    C    2  dyz    Ryd( 3d)     0.00098       2.21721
    43    C    2  dx2y2  Ryd( 3d)     0.00002       1.37884
    44    C    2  dz2    Ryd( 3d)     0.00046       3.36205
 
    45    N    3  S      Cor( 1S)     1.99959     -14.06317
    46    N    3  S      Val( 2S)     1.59089      -0.57832
    47    N    3  S      Ryd( 4S)     0.00470       1.53720
    48    N    3  S      Ryd( 3S)     0.00001       0.93017
    49    N    3  S      Ryd( 5S)     0.00000      35.04613
    50    N    3  px     Val( 2p)     1.10355      -0.15422
    51    N    3  px     Ryd( 3p)     0.00025       0.59409
    52    N    3  px     Ryd( 5p)     0.00000       2.35242
    53    N    3  px     Ryd( 4p)     0.00002       2.03638
    54    N    3  py     Val( 2p)     1.10355      -0.15422
    55    N    3  py     Ryd( 3p)     0.00025       0.59409
    56    N    3  py     Ryd( 5p)     0.00000       2.35242
    57    N    3  py     Ryd( 4p)     0.00002       2.03638
    58    N    3  pz     Val( 2p)     1.51917      -0.18298
    59    N    3  pz     Ryd( 3p)     0.00203       0.63028
    60    N    3  pz     Ryd( 5p)     0.00016       3.15759
    61    N    3  pz     Ryd( 4p)     0.00004       2.03594
    62    N    3  dxy    Ryd( 3d)     0.00000       1.97277
    63    N    3  dxz    Ryd( 3d)     0.00364       2.07536
    64    N    3  dyz    Ryd( 3d)     0.00364       2.07536
    65    N    3  dx2y2  Ryd( 3d)     0.00000       1.97277
    66    N    3  dz2    Ryd( 3d)     0.00627       2.63047
 
    67    H    4  S      Val( 1S)     0.75476       0.00371
    68    H    4  S      Ryd( 2S)     0.00089       0.49013
    69    H    4  S      Ryd( 4S)     0.00017       1.73184
    70    H    4  S      Ryd( 3S)     0.00005       0.69346
    71    H    4  px     Ryd( 2p)     0.00011       1.69955
    72    H    4  py     Ryd( 2p)     0.00030       2.50313
    73    H    4  pz     Ryd( 2p)     0.00016       1.76716
 
    74    H    5  S      Val( 1S)     0.75476       0.00371
    75    H    5  S      Ryd( 2S)     0.00089       0.49013
    76    H    5  S      Ryd( 4S)     0.00017       1.73184
    77    H    5  S      Ryd( 3S)     0.00005       0.69346
    78    H    5  px     Ryd( 2p)     0.00025       2.30224
    79    H    5  py     Ryd( 2p)     0.00016       1.90045
    80    H    5  pz     Ryd( 2p)     0.00016       1.76716
 
    81    H    6  S      Val( 1S)     0.75476       0.00371
    82    H    6  S      Ryd( 2S)     0.00089       0.49013
    83    H    6  S      Ryd( 4S)     0.00017       1.73184
    84    H    6  S      Ryd( 3S)     0.00005       0.69346
    85    H    6  px     Ryd( 2p)     0.00025       2.30224
    86    H    6  py     Ryd( 2p)     0.00016       1.90045
    87    H    6  pz     Ryd( 2p)     0.00016       1.76716

 WARNING:  Population inversion found on atom  C    1
           Population inversion found on atom  C    2
           Population inversion found on atom  N    3
           Population inversion found on atom  H    4
           Population inversion found on atom  H    5
           Population inversion found on atom  H    6


 Summary of Natural Population Analysis:                  
                                                          
                                       Natural Population 
                Natural  -----------------------------------------------
    Atom  No    Charge         Core      Valence    Rydberg      Total
 -----------------------------------------------------------------------
      C    1   -0.68533      1.99917     4.68014    0.00602     6.68533
      C    2    0.29243      1.99937     3.67730    0.03091     5.70757
      N    3   -0.33778      1.99959     5.31717    0.02103     7.33778
      H    4    0.24356      0.00000     0.75476    0.00168     0.75644
      H    5    0.24356      0.00000     0.75476    0.00168     0.75644
      H    6    0.24356      0.00000     0.75476    0.00168     0.75644
 =======================================================================
   * Total *   -0.00000      5.99813    15.93888    0.06299    22.00000

                                 Natural Population      
 --------------------------------------------------------
   Core                       5.99813 ( 99.9688% of   6)
   Valence                   15.93888 ( 99.6180% of  16)
   Natural Minimal Basis     21.93701 ( 99.7137% of  22)
   Natural Rydberg Basis      0.06299 (  0.2863% of  22)
 --------------------------------------------------------

    Atom  No          Natural Electron Configuration
 ----------------------------------------------------------------------------
      C    1      [core]2S( 1.11)2p( 3.57)
      C    2      [core]2S( 0.86)2p( 2.82)3S( 0.01)4p( 0.02)
      N    3      [core]2S( 1.59)2p( 3.73)3d( 0.01)
      H    4            1S( 0.75)
      H    5            1S( 0.75)
      H    6            1S( 0.75)


 NATURAL BOND ORBITAL ANALYSIS:

                       Occupancies       Lewis Structure    Low   High
           Occ.    -------------------  -----------------   occ   occ
  Cycle   Thresh.   Lewis   Non-Lewis     CR  BD  3C  LP    (L)   (NL)   Dev
 =============================================================================
   1(1)    1.90    21.84715   0.15285      3   7   0   1     0      0    0.09
 -----------------------------------------------------------------------------

 Structure accepted: No low occupancy Lewis orbitals

 --------------------------------------------------------
   Core                      5.99812 ( 99.969% of   6)
   Valence Lewis            15.84903 ( 99.056% of  16)
  ==================       ============================
   Total Lewis              21.84715 ( 99.305% of  22)
  -----------------------------------------------------
   Valence non-Lewis         0.12251 (  0.557% of  22)
   Rydberg non-Lewis         0.03034 (  0.138% of  22)
  ==================       ============================
   Total non-Lewis           0.15285 (  0.695% of  22)
 --------------------------------------------------------


       (Occupancy)   Bond orbital/ Coefficients/ Hybrids
 ---------------------------------------------------------------------------------
     1. (1.99423) BD ( 1) C   1 - C   2  
                ( 50.21%)   0.7086* C   1 s( 27.68%)p 2.61( 72.24%)d 0.00(  0.08%)
                                            0.0001  0.5258  0.0171 -0.0005  0.0006
                                            0.0000 -0.0000  0.0000 -0.0000 -0.0000
                                           -0.0000  0.0000  0.0000  0.8498 -0.0189
                                           -0.0010 -0.0001 -0.0000 -0.0000  0.0000
                                            0.0000  0.0279
                ( 49.79%)   0.7056* C   2 s( 52.84%)p 0.89( 47.14%)d 0.00(  0.03%)
                                           -0.0000  0.7256  0.0427 -0.0006  0.0013
                                            0.0000  0.0000  0.0000  0.0000  0.0000
                                            0.0000  0.0000  0.0000 -0.6862 -0.0037
                                            0.0208  0.0006  0.0000  0.0000  0.0000
                                            0.0000  0.0160
     2. (1.97143) BD ( 1) C   1 - H   4  
                ( 61.97%)   0.7872* C   1 s( 24.12%)p 3.14( 75.83%)d 0.00(  0.05%)
                                           -0.0002  0.4911 -0.0047  0.0002 -0.0002
                                            0.0000  0.0000  0.0000 -0.0000  0.8162
                                            0.0085 -0.0000  0.0000 -0.3033  0.0062
                                           -0.0017  0.0001 -0.0000 -0.0000 -0.0088
                                           -0.0190 -0.0098
                ( 38.03%)   0.6167* H   4 s( 99.96%)p 0.00(  0.04%)
                                            0.9998  0.0012  0.0005 -0.0000  0.0000
                                           -0.0179  0.0083
     3. (1.97143) BD ( 1) C   1 - H   5  
                ( 61.97%)   0.7872* C   1 s( 24.12%)p 3.14( 75.83%)d 0.00(  0.05%)
                                           -0.0002  0.4911 -0.0047  0.0002 -0.0002
                                            0.7068  0.0073 -0.0000  0.0000 -0.4081
                                           -0.0042  0.0000 -0.0000 -0.3033  0.0062
                                           -0.0017  0.0001 -0.0165 -0.0076  0.0044
                                            0.0095 -0.0098
                ( 38.03%)   0.6167* H   5 s( 99.96%)p 0.00(  0.04%)
                                            0.9998  0.0012  0.0005 -0.0000 -0.0155
                                            0.0090  0.0083
     4. (1.97143) BD ( 1) C   1 - H   6  
                ( 61.97%)   0.7872* C   1 s( 24.12%)p 3.14( 75.83%)d 0.00(  0.05%)
                                           -0.0002  0.4911 -0.0047  0.0002 -0.0002
                                           -0.7068 -0.0073  0.0000 -0.0000 -0.4081
                                           -0.0042  0.0000 -0.0000 -0.3033  0.0062
                                           -0.0017  0.0001  0.0165  0.0076  0.0044
                                            0.0095 -0.0098
                ( 38.03%)   0.6167* H   6 s( 99.96%)p 0.00(  0.04%)
                                            0.9998  0.0012  0.0005 -0.0000  0.0155
                                            0.0090  0.0083
     5. (1.99714) BD ( 1) C   2 - N   3  
                ( 42.56%)   0.6524* C   2 s( 47.38%)p 1.11( 52.60%)d 0.00(  0.02%)
                                           -0.0001  0.6866 -0.0493  0.0014 -0.0018
                                            0.0000  0.0000  0.0000  0.0000  0.0000
                                            0.0000  0.0000  0.0000  0.7227  0.0603
                                           -0.0052 -0.0014  0.0000  0.0000  0.0000
                                            0.0000  0.0137
                ( 57.44%)   0.7579* N   3 s( 46.14%)p 1.16( 53.46%)d 0.01(  0.40%)
                                            0.0000  0.6778 -0.0448  0.0006 -0.0007
                                            0.0000  0.0000  0.0000  0.0000  0.0000
                                            0.0000  0.0000  0.0000 -0.7310  0.0125
                                           -0.0003  0.0053  0.0000  0.0000  0.0000
                                            0.0000  0.0634
     6. (1.98685) BD ( 2) C   2 - N   3  
                ( 45.06%)   0.6713* C   2 s(  0.00%)p 1.00( 99.92%)d 0.00(  0.08%)
                                            0.0000  0.0000  0.0000  0.0000  0.0000
                                            0.9993 -0.0229  0.0099  0.0022  0.0000
                                            0.0000  0.0000  0.0000  0.0000  0.0000
                                            0.0000  0.0000  0.0007  0.0274  0.0000
                                            0.0000  0.0000
                ( 54.94%)   0.7412* N   3 s(  0.00%)p 1.00( 99.68%)d 0.00(  0.32%)
                                            0.0000  0.0000  0.0000  0.0000  0.0000
                                            0.9983 -0.0136  0.0004  0.0023  0.0000
                                            0.0000  0.0000  0.0000  0.0000  0.0000
                                            0.0000  0.0000  0.0002 -0.0568  0.0000
                                            0.0000  0.0000
     7. (1.98685) BD ( 3) C   2 - N   3  
                ( 45.06%)   0.6713* C   2 s(  0.00%)p 1.00( 99.92%)d 0.00(  0.08%)
                                            0.0000  0.0000  0.0000  0.0000  0.0000
                                            0.0000  0.0000  0.0000  0.0000  0.9993
                                           -0.0229  0.0099  0.0022  0.0000  0.0000
                                            0.0000  0.0000  0.0000  0.0000  0.0274
                                            0.0007  0.0000
                ( 54.94%)   0.7412* N   3 s(  0.00%)p 1.00( 99.68%)d 0.00(  0.32%)
                                            0.0000  0.0000  0.0000  0.0000  0.0000
                                            0.0000  0.0000  0.0000  0.0000  0.9983
                                           -0.0136  0.0004  0.0023  0.0000  0.0000
                                            0.0000  0.0000  0.0000  0.0000 -0.0568
                                            0.0002  0.0000
     8. (1.99917) CR ( 1) C   1           s(100.00%)p 0.00(  0.00%)
                                            1.0000  0.0002 -0.0000  0.0000 -0.0000
                                            0.0000  0.0000  0.0000 -0.0000 -0.0000
                                           -0.0000  0.0000  0.0000 -0.0003  0.0000
                                           -0.0000  0.0000 -0.0000 -0.0000  0.0000
                                            0.0000 -0.0000
     9. (1.99937) CR ( 1) C   2           s(100.00%)
                                            1.0000  0.0001 -0.0000  0.0000 -0.0000
                                            0.0000  0.0000  0.0000  0.0000  0.0000
                                            0.0000  0.0000  0.0000  0.0000  0.0000
                                            0.0000 -0.0000  0.0000  0.0000  0.0000
                                            0.0000  0.0000
    10. (1.99958) CR ( 1) N   3           s(100.00%)p 0.00(  0.00%)
                                            1.0000  0.0006  0.0000 -0.0000  0.0000
                                            0.0000  0.0000  0.0000  0.0000  0.0000
                                            0.0000  0.0000  0.0000  0.0005  0.0000
                                           -0.0000 -0.0000  0.0000  0.0000  0.0000
                                            0.0000 -0.0000
    11. (1.96968) LP ( 1) N   3           s( 53.96%)p 0.85( 45.96%)d 0.00(  0.08%)
                                           -0.0008  0.7342  0.0232 -0.0002  0.0004
                                            0.0000  0.0000  0.0000  0.0000  0.0000
                                            0.0000  0.0000  0.0000  0.6773  0.0287
                                           -0.0003 -0.0011  0.0000  0.0000  0.0000
                                            0.0000 -0.0287
    12. (0.00083) RY*( 1) C   1           s(  0.00%)p 1.00( 64.06%)d 0.56( 35.94%)
                                           -0.0000 -0.0000  0.0000 -0.0000  0.0000
                                           -0.0168  0.7955  0.0865  0.0061  0.0000
                                            0.0000 -0.0000 -0.0000  0.0000 -0.0000
                                           -0.0000 -0.0000 -0.0911 -0.5925 -0.0000
                                           -0.0000  0.0000
    13. (0.00083) RY*( 2) C   1           s(  0.00%)p 1.00( 64.06%)d 0.56( 35.94%)
                                           -0.0000  0.0000 -0.0000  0.0000 -0.0000
                                            0.0000  0.0000 -0.0000  0.0000 -0.0168
                                            0.7955  0.0865  0.0061 -0.0000  0.0000
                                           -0.0000  0.0000 -0.0000 -0.0000 -0.5925
                                           -0.0911 -0.0000
    14. (0.00046) RY*( 3) C   1           s( 29.24%)p 2.37( 69.42%)d 0.05(  1.33%)
                                            0.0000 -0.0005  0.5372  0.0285 -0.0549
                                            0.0000  0.0000  0.0000 -0.0000 -0.0000
                                           -0.0000  0.0000 -0.0000 -0.0299 -0.7224
                                            0.4140  0.0093  0.0000 -0.0000  0.0000
                                            0.0000  0.1155
    15. (0.00010) RY*( 4) C   1           s( 12.10%)p 5.11( 61.90%)d 2.15( 25.99%)
    16. (0.00003) RY*( 5) C   1           s( 15.33%)p 3.39( 51.94%)d 2.14( 32.73%)
    17. (0.00000) RY*( 6) C   1           s(  0.00%)p 1.00(100.00%)d 0.00(  0.00%)
    18. (0.00000) RY*( 7) C   1           s( 99.05%)p 0.01(  0.75%)d 0.00(  0.19%)
    19. (0.00000) RY*( 8) C   1           s(  0.00%)p 1.00(100.00%)
    20. (0.00000) RY*( 9) C   1           s(  0.00%)p 1.00(100.00%)d 0.00(  0.00%)
    21. (0.00000) RY*(10) C   1           s( 88.93%)p 0.03(  2.99%)d 0.09(  8.08%)
    22. (0.00000) RY*(11) C   1           s( 43.87%)p 1.10( 48.42%)d 0.18(  7.72%)
    23. (0.00000) RY*(12) C   1           s( 11.43%)p 5.66( 64.72%)d 2.09( 23.84%)
    24. (0.00000) RY*(13) C   1           s(  0.00%)p 1.00(  1.33%)d73.94( 98.67%)
    25. (0.00000) RY*(14) C   1           s(  0.00%)p 1.00( 34.67%)d 1.88( 65.33%)
    26. (0.00000) RY*(15) C   1           s(  0.00%)p 1.00( 35.42%)d 1.82( 64.58%)
    27. (0.00000) RY*(16) C   1           s(  0.00%)p 1.00(  0.59%)d99.99( 99.41%)
    28. (0.00000) RY*(17) C   1           s(  0.00%)p 1.00(100.00%)
    29. (0.01860) RY*( 1) C   2           s( 18.67%)p 4.35( 81.14%)d 0.01(  0.18%)
                                            0.0000  0.0354  0.4300  0.0185 -0.0165
                                           -0.0000 -0.0000 -0.0000 -0.0000 -0.0000
                                           -0.0000 -0.0000 -0.0000  0.0694 -0.8972
                                           -0.0227 -0.0336 -0.0000 -0.0000 -0.0000
                                           -0.0000  0.0427
    30. (0.00134) RY*( 2) C   2           s(  0.00%)p 1.00( 64.73%)d 0.54( 35.27%)
                                            0.0000  0.0000  0.0000  0.0000  0.0000
                                            0.0000  0.0000  0.0000  0.0000  0.0336
                                            0.7794  0.0724 -0.1830  0.0000  0.0000
                                            0.0000  0.0000  0.0000  0.0000 -0.5827
                                           -0.1149  0.0000
    31. (0.00134) RY*( 3) C   2           s(  0.00%)p 1.00( 64.73%)d 0.54( 35.27%)
                                            0.0000  0.0000  0.0000  0.0000  0.0000
                                            0.0336  0.7794  0.0724 -0.1830  0.0000
                                            0.0000  0.0000  0.0000  0.0000  0.0000
                                            0.0000  0.0000 -0.1149 -0.5827  0.0000
                                            0.0000  0.0000
    32. (0.00043) RY*( 4) C   2           s( 62.96%)p 0.41( 26.00%)d 0.18( 11.04%)
                                            0.0000 -0.0066  0.7538 -0.2426 -0.0494
                                            0.0000  0.0000  0.0000  0.0000  0.0000
                                            0.0000  0.0000  0.0000  0.0357  0.3511
                                            0.1845 -0.3184  0.0000  0.0000  0.0000
                                            0.0000 -0.3323
    33. (0.00003) RY*( 5) C   2           s( 66.97%)p 0.45( 29.97%)d 0.05(  3.06%)
    34. (0.00004) RY*( 6) C   2           s(  4.28%)p12.51( 53.55%)d 9.85( 42.17%)
    35. (0.00000) RY*( 7) C   2           s( 90.43%)p 0.04(  3.42%)d 0.07(  6.14%)
    36. (0.00000) RY*( 8) C   2           s(  0.00%)p 1.00( 99.80%)d 0.00(  0.20%)
    37. (0.00000) RY*( 9) C   2           s(  0.00%)p 1.00( 98.78%)d 0.01(  1.22%)
    38. (0.00000) RY*(10) C   2           s(  0.00%)p 1.00( 99.80%)d 0.00(  0.20%)
    39. (0.00000) RY*(11) C   2           s(  0.00%)p 1.00( 98.78%)d 0.01(  1.22%)
    40. (0.00000) RY*(12) C   2           s( 34.92%)p 1.86( 65.01%)d 0.00(  0.08%)
    41. (0.00000) RY*(13) C   2           s(  0.00%)p 1.00(  2.13%)d46.00( 97.87%)
    42. (0.00000) RY*(14) C   2           s(  0.00%)p 1.00( 34.64%)d 1.89( 65.36%)
    43. (0.00000) RY*(15) C   2           s(  0.00%)p 1.00( 35.89%)d 1.79( 64.11%)
    44. (0.00000) RY*(16) C   2           s(  0.00%)p 1.00(  0.88%)d99.99( 99.12%)
    45. (0.00000) RY*(17) C   2           s( 21.55%)p 1.91( 41.17%)d 1.73( 37.28%)
    46. (0.00167) RY*( 1) N   3           s( 89.57%)p 0.10(  9.11%)d 0.01(  1.32%)
                                            0.0000  0.0139  0.9454  0.0165 -0.0371
                                            0.0000  0.0000  0.0000  0.0000  0.0000
                                            0.0000  0.0000  0.0000 -0.0543  0.0479
                                            0.2929 -0.0092  0.0000  0.0000  0.0000
                                            0.0000 -0.1149
    47. (0.00027) RY*( 2) N   3           s(  0.62%)p99.99( 82.22%)d27.53( 17.16%)
                                           -0.0000 -0.0358  0.0144  0.0687 -0.0046
                                            0.0000  0.0000  0.0000  0.0000  0.0000
                                            0.0000  0.0000  0.0000  0.0177  0.9046
                                           -0.0298  0.0523  0.0000  0.0000  0.0000
                                            0.0000  0.4142
    48. (0.00010) RY*( 3) N   3           s(  0.00%)p 1.00( 86.06%)d 0.16( 13.94%)
    49. (0.00010) RY*( 4) N   3           s(  0.00%)p 1.00( 86.06%)d 0.16( 13.94%)
    50. (0.00003) RY*( 5) N   3           s( 35.71%)p 1.69( 60.34%)d 0.11(  3.95%)
    51. (0.00000) RY*( 6) N   3           s(  0.00%)p 1.00( 98.63%)d 0.01(  1.37%)
    52. (0.00000) RY*( 7) N   3           s( 99.95%)p 0.00(  0.05%)d 0.00(  0.00%)
    53. (0.00000) RY*( 8) N   3           s(  0.00%)p 1.00(100.00%)d 0.00(  0.00%)
    54. (0.00000) RY*( 9) N   3           s(  0.00%)p 1.00( 98.63%)d 0.01(  1.37%)
    55. (0.00000) RY*(10) N   3           s( 69.54%)p 0.24( 16.88%)d 0.20( 13.59%)
    56. (0.00000) RY*(11) N   3           s(  0.00%)p 1.00(100.00%)d 0.00(  0.00%)
    57. (0.00000) RY*(12) N   3           s(  0.23%)p99.99( 99.61%)d 0.67(  0.15%)
    58. (0.00000) RY*(13) N   3           s(  0.00%)p 1.00(  0.24%)d99.99( 99.76%)
    59. (0.00000) RY*(14) N   3           s(  0.00%)p 1.00( 15.39%)d 5.50( 84.61%)
    60. (0.00000) RY*(15) N   3           s(  0.00%)p 1.00( 15.39%)d 5.50( 84.61%)
    61. (0.00000) RY*(16) N   3           s(  0.00%)p 1.00(  0.24%)d99.99( 99.76%)
    62. (0.00000) RY*(17) N   3           s(  4.28%)p 7.56( 32.38%)d14.79( 63.34%)
    63. (0.00093) RY*( 1) H   4           s( 95.46%)p 0.05(  4.54%)
                                           -0.0032  0.9768  0.0194  0.0106  0.0000
                                           -0.0172  0.2124
    64. (0.00023) RY*( 2) H   4           s( 65.89%)p 0.52( 34.11%)
                                            0.0015 -0.1174  0.7875  0.1578  0.0000
                                            0.3235  0.4863
    65. (0.00011) RY*( 3) H   4           s(  0.00%)p 1.00(100.00%)
                                            0.0000  0.0000  0.0000  0.0000  1.0000
                                            0.0000  0.0000
    66. (0.00009) RY*( 4) H   4           s( 72.19%)p 0.39( 27.81%)
    67. (0.00002) RY*( 5) H   4           s( 23.49%)p 3.26( 76.51%)
    68. (0.00000) RY*( 6) H   4           s( 43.02%)p 1.32( 56.98%)
    69. (0.00093) RY*( 1) H   5           s( 95.46%)p 0.05(  4.54%)
                                           -0.0032  0.9768  0.0194  0.0106 -0.0149
                                            0.0086  0.2124
    70. (0.00023) RY*( 2) H   5           s( 65.89%)p 0.52( 34.11%)
                                            0.0015 -0.1174  0.7875  0.1578  0.2801
                                           -0.1617  0.4863
    71. (0.00011) RY*( 3) H   5           s(  0.00%)p 1.00(100.00%)
                                           -0.0000 -0.0000 -0.0000 -0.0000  0.5000
                                            0.8660  0.0000
    72. (0.00009) RY*( 4) H   5           s( 72.19%)p 0.39( 27.81%)
    73. (0.00002) RY*( 5) H   5           s( 23.49%)p 3.26( 76.51%)
    74. (0.00000) RY*( 6) H   5           s( 43.02%)p 1.32( 56.98%)
    75. (0.00093) RY*( 1) H   6           s( 95.46%)p 0.05(  4.54%)
                                           -0.0032  0.9768  0.0194  0.0106  0.0149
                                            0.0086  0.2124
    76. (0.00023) RY*( 2) H   6           s( 65.89%)p 0.52( 34.11%)
                                            0.0015 -0.1174  0.7875  0.1578 -0.2801
                                           -0.1617  0.4863
    77. (0.00011) RY*( 3) H   6           s(  0.00%)p 1.00(100.00%)
                                           -0.0000 -0.0000  0.0000 -0.0000 -0.5000
                                            0.8660  0.0000
    78. (0.00009) RY*( 4) H   6           s( 72.19%)p 0.39( 27.81%)
    79. (0.00002) RY*( 5) H   6           s( 23.49%)p 3.26( 76.51%)
    80. (0.00000) RY*( 6) H   6           s( 43.02%)p 1.32( 56.98%)
    81. (0.01621) BD*( 1) C   1 - C   2  
                ( 49.79%)   0.7056* C   1 s( 27.68%)p 2.61( 72.24%)d 0.00(  0.08%)
                                           -0.0001 -0.5258 -0.0171  0.0005 -0.0006
                                           -0.0000  0.0000 -0.0000  0.0000  0.0000
                                            0.0000 -0.0000 -0.0000 -0.8498  0.0189
                                            0.0010  0.0001  0.0000  0.0000 -0.0000
                                           -0.0000 -0.0279
                ( 50.21%)  -0.7086* C   2 s( 52.84%)p 0.89( 47.14%)d 0.00(  0.03%)
                                            0.0000 -0.7256 -0.0427  0.0006 -0.0013
                                           -0.0000 -0.0000 -0.0000 -0.0000 -0.0000
                                           -0.0000 -0.0000 -0.0000  0.6862  0.0037
                                           -0.0208 -0.0006 -0.0000 -0.0000 -0.0000
                                           -0.0000 -0.0160
    82. (0.00844) BD*( 1) C   1 - H   4  
                ( 38.03%)   0.6167* C   1 s( 24.12%)p 3.14( 75.83%)d 0.00(  0.05%)
                                            0.0002 -0.4911  0.0047 -0.0002  0.0002
                                           -0.0000 -0.0000 -0.0000  0.0000 -0.8162
                                           -0.0085  0.0000 -0.0000  0.3033 -0.0062
                                            0.0017 -0.0001  0.0000  0.0000  0.0088
                                            0.0190  0.0098
                ( 61.97%)  -0.7872* H   4 s( 99.96%)p 0.00(  0.04%)
                                           -0.9998 -0.0012 -0.0005  0.0000 -0.0000
                                            0.0179 -0.0083
    83. (0.00844) BD*( 1) C   1 - H   5  
                ( 38.03%)   0.6167* C   1 s( 24.12%)p 3.14( 75.83%)d 0.00(  0.05%)
                                            0.0002 -0.4911  0.0047 -0.0002  0.0002
                                           -0.7068 -0.0073  0.0000 -0.0000  0.4081
                                            0.0042 -0.0000  0.0000  0.3033 -0.0062
                                            0.0017 -0.0001  0.0165  0.0076 -0.0044
                                           -0.0095  0.0098
                ( 61.97%)  -0.7872* H   5 s( 99.96%)p 0.00(  0.04%)
                                           -0.9998 -0.0012 -0.0005  0.0000  0.0155
                                           -0.0090 -0.0083
    84. (0.00844) BD*( 1) C   1 - H   6  
                ( 38.03%)   0.6167* C   1 s( 24.12%)p 3.14( 75.83%)d 0.00(  0.05%)
                                            0.0002 -0.4911  0.0047 -0.0002  0.0002
                                            0.7068  0.0073 -0.0000  0.0000  0.4081
                                            0.0042 -0.0000  0.0000  0.3033 -0.0062
                                            0.0017 -0.0001 -0.0165 -0.0076 -0.0044
                                           -0.0095  0.0098
                ( 61.97%)  -0.7872* H   6 s( 99.96%)p 0.00(  0.04%)
                                           -0.9998 -0.0012 -0.0005  0.0000 -0.0155
                                           -0.0090 -0.0083
    85. (0.01055) BD*( 1) C   2 - N   3  
                ( 57.44%)   0.7579* C   2 s( 47.38%)p 1.11( 52.60%)d 0.00(  0.02%)
                                           -0.0001  0.6866 -0.0493  0.0014 -0.0018
                                            0.0000  0.0000  0.0000  0.0000  0.0000
                                            0.0000  0.0000  0.0000  0.7227  0.0603
                                           -0.0052 -0.0014  0.0000  0.0000  0.0000
                                            0.0000  0.0137
                ( 42.56%)  -0.6524* N   3 s( 46.14%)p 1.16( 53.46%)d 0.01(  0.40%)
                                            0.0000  0.6778 -0.0448  0.0006 -0.0007
                                            0.0000  0.0000  0.0000  0.0000  0.0000
                                            0.0000  0.0000  0.0000 -0.7310  0.0125
                                           -0.0003  0.0053  0.0000  0.0000  0.0000
                                            0.0000  0.0634
    86. (0.03521) BD*( 2) C   2 - N   3  
                ( 54.94%)   0.7412* C   2 s(  0.00%)p 1.00( 99.92%)d 0.00(  0.08%)
                                            0.0000  0.0000  0.0000  0.0000  0.0000
                                            0.9993 -0.0229  0.0099  0.0022  0.0000
                                            0.0000  0.0000  0.0000  0.0000  0.0000
                                            0.0000  0.0000  0.0007  0.0274  0.0000
                                            0.0000  0.0000
                ( 45.06%)  -0.6713* N   3 s(  0.00%)p 1.00( 99.68%)d 0.00(  0.32%)
                                            0.0000  0.0000  0.0000  0.0000  0.0000
                                            0.9983 -0.0136  0.0004  0.0023  0.0000
                                            0.0000  0.0000  0.0000  0.0000  0.0000
                                            0.0000  0.0000  0.0002 -0.0568  0.0000
                                            0.0000  0.0000
    87. (0.03521) BD*( 3) C   2 - N   3  
                ( 54.94%)   0.7412* C   2 s(  0.00%)p 1.00( 99.92%)d 0.00(  0.08%)
                                            0.0000  0.0000  0.0000  0.0000  0.0000
                                            0.0000  0.0000  0.0000  0.0000  0.9993
                                           -0.0229  0.0099  0.0022  0.0000  0.0000
                                            0.0000  0.0000  0.0000  0.0000  0.0274
                                            0.0007  0.0000
                ( 45.06%)  -0.6713* N   3 s(  0.00%)p 1.00( 99.68%)d 0.00(  0.32%)
                                            0.0000  0.0000  0.0000  0.0000  0.0000
                                            0.0000  0.0000  0.0000  0.0000  0.9983
                                           -0.0136  0.0004  0.0023  0.0000  0.0000
                                            0.0000  0.0000  0.0000  0.0000 -0.0568
                                            0.0002  0.0000


 NHO Directionality and "Bond Bending" (deviations from line of nuclear centers)

         [Thresholds for printing:  angular deviation  >  1.0 degree]
                                    hybrid p-character > 25.0%
                                    orbital occupancy  >  0.10e

                                Line of Centers        Hybrid 1              Hybrid 2
                                ---------------  -------------------   ------------------
                NBO               Theta   Phi    Theta   Phi    Dev    Theta   Phi    Dev
 ========================================================================================
     6. BD (   2) C   2 - N   3     0.0    0.0    90.0    0.0  90.0     90.0    0.0  90.0
     7. BD (   3) C   2 - N   3     0.0    0.0    90.0   90.0  90.0     90.0   90.0  90.0
    11. LP (   1) N   3             --     --      0.0    0.0   --       --     --    --


 Second Order Perturbation Theory Analysis of Fock Matrix in NBO Basis

     Threshold for printing:   0.50 kcal/mol
                                                                              E(2)  E(j)-E(i) F(i,j)
         Donor NBO (i)                     Acceptor NBO (j)                 kcal/mol   a.u.    a.u. 
 ===================================================================================================

 within unit  1
   1. BD (   1) C   1 - C   2        / 46. RY*(   1) N   3                    1.71    2.20    0.055
   1. BD (   1) C   1 - C   2        / 85. BD*(   1) C   2 - N   3            5.25    1.65    0.083
   2. BD (   1) C   1 - H   4        / 30. RY*(   2) C   2                    0.74    1.59    0.031
   2. BD (   1) C   1 - H   4        / 85. BD*(   1) C   2 - N   3            3.58    1.46    0.065
   2. BD (   1) C   1 - H   4        / 87. BD*(   3) C   2 - N   3            6.72    0.64    0.059
   3. BD (   1) C   1 - H   5        / 31. RY*(   3) C   2                    0.55    1.59    0.027
   3. BD (   1) C   1 - H   5        / 85. BD*(   1) C   2 - N   3            3.58    1.46    0.065
   3. BD (   1) C   1 - H   5        / 86. BD*(   2) C   2 - N   3            5.04    0.64    0.051
   3. BD (   1) C   1 - H   5        / 87. BD*(   3) C   2 - N   3            1.68    0.64    0.029
   4. BD (   1) C   1 - H   6        / 31. RY*(   3) C   2                    0.55    1.59    0.027
   4. BD (   1) C   1 - H   6        / 85. BD*(   1) C   2 - N   3            3.58    1.46    0.065
   4. BD (   1) C   1 - H   6        / 86. BD*(   2) C   2 - N   3            5.04    0.64    0.051
   4. BD (   1) C   1 - H   6        / 87. BD*(   3) C   2 - N   3            1.68    0.64    0.029
   5. BD (   1) C   2 - N   3        / 14. RY*(   3) C   1                    0.51    2.22    0.030
   5. BD (   1) C   2 - N   3        / 29. RY*(   1) C   2                    1.24    1.97    0.044
   5. BD (   1) C   2 - N   3        / 81. BD*(   1) C   1 - C   2            4.40    1.48    0.072
   6. BD (   2) C   2 - N   3        / 12. RY*(   1) C   1                    0.69    1.18    0.026
   6. BD (   2) C   2 - N   3        / 83. BD*(   1) C   1 - H   5            2.14    0.72    0.035
   6. BD (   2) C   2 - N   3        / 84. BD*(   1) C   1 - H   6            2.14    0.72    0.035
   7. BD (   3) C   2 - N   3        / 13. RY*(   2) C   1                    0.69    1.18    0.026
   7. BD (   3) C   2 - N   3        / 82. BD*(   1) C   1 - H   4            2.86    0.72    0.040
   7. BD (   3) C   2 - N   3        / 83. BD*(   1) C   1 - H   5            0.71    0.72    0.020
   7. BD (   3) C   2 - N   3        / 84. BD*(   1) C   1 - H   6            0.71    0.72    0.020
   8. CR (   1) C   1                / 29. RY*(   1) C   2                    1.23   11.01    0.104
   8. CR (   1) C   1                / 85. BD*(   1) C   2 - N   3            3.04   11.00    0.164
   9. CR (   1) C   2                / 14. RY*(   3) C   1                    1.46   11.26    0.114
   9. CR (   1) C   2                / 47. RY*(   2) N   3                    1.72   10.98    0.123
   9. CR (   1) C   2                / 85. BD*(   1) C   2 - N   3            0.82   11.01    0.085
  10. CR (   1) N   3                / 29. RY*(   1) C   2                    7.28   14.98    0.296
  10. CR (   1) N   3                / 81. BD*(   1) C   1 - C   2            4.18   14.48    0.220
  11. LP (   1) N   3                / 29. RY*(   1) C   2                   18.69    1.44    0.147
  11. LP (   1) N   3                / 40. RY*(  12) C   2                    1.63    7.16    0.097
  11. LP (   1) N   3                / 46. RY*(   1) N   3                    0.64    1.98    0.032
  11. LP (   1) N   3                / 81. BD*(   1) C   1 - C   2           10.72    0.94    0.090


 Natural Bond Orbitals (Summary):

                                                            Principal Delocalizations
           NBO                        Occupancy    Energy   (geminal,vicinal,remote)
 ====================================================================================
 Molecular unit  1  (C2H3N)
     1. BD (   1) C   1 - C   2          1.99423    -0.73578  85(g),46(v)
     2. BD (   1) C   1 - H   4          1.97143    -0.54930  87(v),85(v),30(v)
     3. BD (   1) C   1 - H   5          1.97143    -0.54930  86(v),85(v),87(v),31(v)
     4. BD (   1) C   1 - H   6          1.97143    -0.54930  86(v),85(v),87(v),31(v)
     5. BD (   1) C   2 - N   3          1.99714    -1.05618  81(g),29(g),14(v)
     6. BD (   2) C   2 - N   3          1.98685    -0.35051  83(v),84(v),12(v)
     7. BD (   3) C   2 - N   3          1.98685    -0.35051  82(v),83(v),84(v),13(v)
     8. CR (   1) C   1                  1.99917   -10.08951  85(v),29(v)
     9. CR (   1) C   2                  1.99937   -10.09448  47(v),14(v),85(g)
    10. CR (   1) N   3                  1.99958   -14.06508  29(v),81(v)
    11. LP (   1) N   3                  1.96968    -0.52043  29(v),81(v),40(v),46(g)
    12. RY*(   1) C   1                  0.00083     0.82581   
    13. RY*(   2) C   1                  0.00083     0.82581   
    14. RY*(   3) C   1                  0.00046     1.16647   
    15. RY*(   4) C   1                  0.00010     3.25218   
    16. RY*(   5) C   1                  0.00003     1.62405   
    17. RY*(   6) C   1                  0.00000     0.40511   
    18. RY*(   7) C   1                  0.00000     0.43939   
    19. RY*(   8) C   1                  0.00000     2.89261   
    20. RY*(   9) C   1                  0.00000     0.40511   
    21. RY*(  10) C   1                  0.00000    20.00811   
    22. RY*(  11) C   1                  0.00000     3.31437   
    23. RY*(  12) C   1                  0.00000     1.08441   
    24. RY*(  13) C   1                  0.00000     2.01978   
    25. RY*(  14) C   1                  0.00000     1.53223   
    26. RY*(  15) C   1                  0.00000     1.55809   
    27. RY*(  16) C   1                  0.00000     1.99392   
    28. RY*(  17) C   1                  0.00000     2.89261   
    29. RY*(   1) C   2                  0.01860     0.91811   
    30. RY*(   2) C   2                  0.00134     1.04462   
    31. RY*(   3) C   2                  0.00134     1.04462   
    32. RY*(   4) C   2                  0.00043     1.61686   
    33. RY*(   5) C   2                  0.00003     5.02012   
    34. RY*(   6) C   2                  0.00004     3.12479   
    35. RY*(   7) C   2                  0.00000    12.90781   
    36. RY*(   8) C   2                  0.00000     0.41939   
    37. RY*(   9) C   2                  0.00000     2.55593   
    38. RY*(  10) C   2                  0.00000     0.41939   
    39. RY*(  11) C   2                  0.00000     2.55593   
    40. RY*(  12) C   2                  0.00000     6.63855   
    41. RY*(  13) C   2                  0.00000     1.36059   
    42. RY*(  14) C   2                  0.00000     1.65625   
    43. RY*(  15) C   2                  0.00000     1.64101   
    44. RY*(  16) C   2                  0.00000     1.37582   
    45. RY*(  17) C   2                  0.00000     1.23697   
    46. RY*(   1) N   3                  0.00167     1.46171   
    47. RY*(   2) N   3                  0.00027     0.88213   
    48. RY*(   3) N   3                  0.00010     0.76946   
    49. RY*(   4) N   3                  0.00010     0.76946   
    50. RY*(   5) N   3                  0.00003     2.62985   
    51. RY*(   6) N   3                  0.00000     2.13804   
    52. RY*(   7) N   3                  0.00000    35.04544   
    53. RY*(   8) N   3                  0.00000     2.36028   
    54. RY*(   9) N   3                  0.00000     2.13804   
    55. RY*(  10) N   3                  0.00000     1.33469   
    56. RY*(  11) N   3                  0.00000     2.36028   
    57. RY*(  12) N   3                  0.00000     1.80482   
    58. RY*(  13) N   3                  0.00000     1.96940   
    59. RY*(  14) N   3                  0.00000     1.79257   
    60. RY*(  15) N   3                  0.00000     1.79257   
    61. RY*(  16) N   3                  0.00000     1.96940   
    62. RY*(  17) N   3                  0.00000     2.79304   
    63. RY*(   1) H   4                  0.00093     0.58496   
    64. RY*(   2) H   4                  0.00023     1.41596   
    65. RY*(   3) H   4                  0.00011     1.69955   
    66. RY*(   4) H   4                  0.00009     1.90459   
    67. RY*(   5) H   4                  0.00002     1.99783   
    68. RY*(   6) H   4                  0.00000     1.28056   
    69. RY*(   1) H   5                  0.00093     0.58496   
    70. RY*(   2) H   5                  0.00023     1.41596   
    71. RY*(   3) H   5                  0.00011     1.69955   
    72. RY*(   4) H   5                  0.00009     1.90459   
    73. RY*(   5) H   5                  0.00002     1.99783   
    74. RY*(   6) H   5                  0.00000     1.28056   
    75. RY*(   1) H   6                  0.00093     0.58496   
    76. RY*(   2) H   6                  0.00023     1.41596   
    77. RY*(   3) H   6                  0.00011     1.69955   
    78. RY*(   4) H   6                  0.00009     1.90459   
    79. RY*(   5) H   6                  0.00002     1.99783   
    80. RY*(   6) H   6                  0.00000     1.28056   
    81. BD*(   1) C   1 - C   2          0.01621     0.41920   
    82. BD*(   1) C   1 - H   4          0.00844     0.36477   
    83. BD*(   1) C   1 - H   5          0.00844     0.36477   
    84. BD*(   1) C   1 - H   6          0.00844     0.36477   
    85. BD*(   1) C   2 - N   3          0.01055     0.91389   
    86. BD*(   2) C   2 - N   3          0.03521     0.09017   
    87. BD*(   3) C   2 - N   3          0.03521     0.09017   
       -------------------------------
              Total Lewis   21.84715  ( 99.3052%)
        Valence non-Lewis    0.12251  (  0.5568%)
        Rydberg non-Lewis    0.03034  (  0.1379%)
       -------------------------------
            Total unit  1   22.00000  (100.0000%)
           Charge unit  1    0.00000
 Calling FoFJK, ICntrl=      2127 FMM=F ISym2X=1 I1Cent= 0 IOpClX= 0 NMat=1 NMatS=1 NMatT=0.
 ***** Axes restored to original set *****
 -------------------------------------------------------------------
 Center     Atomic                   Forces (Hartrees/Bohr)
 Number     Number              X              Y              Z
 -------------------------------------------------------------------
      1        6          -0.001220715    0.000014788    0.000051752
      2        6           0.012807687   -0.000155154   -0.000542976
      3        7          -0.017615814    0.000213400    0.000746814
      4        1           0.002034204    0.000424862    0.000366481
      5        1           0.001985576    0.000142739   -0.000699940
      6        1           0.002009061   -0.000640635    0.000077869
 -------------------------------------------------------------------
 Cartesian Forces:  Max     0.017615814 RMS     0.005218170

 GradGradGradGradGradGradGradGradGradGradGradGradGradGradGradGradGradGrad
 Berny optimization.
 FormGI is forming the generalized inverse of G from B-inverse, IUseBI=4.
 Internal  Forces:  Max     0.017632929 RMS     0.004516317
 Search for a local minimum.
 Step number   1 out of a maximum of   27
 All quantities printed in internal units (Hartrees-Bohrs-Radians)
 Mixed Optimization -- RFO/linear search
 Second derivative matrix not updated -- first step.
 The second derivative matrix:
                          R1        R2        R3        R4        R5
           R1           0.36725
           R2           0.00000   0.34350
           R3           0.00000   0.00000   0.34350
           R4           0.00000   0.00000   0.00000   0.34350
           R5           0.00000   0.00000   0.00000   0.00000   1.27632
           A1           0.00000   0.00000   0.00000   0.00000   0.00000
           A2           0.00000   0.00000   0.00000   0.00000   0.00000
           A3           0.00000   0.00000   0.00000   0.00000   0.00000
           A4           0.00000   0.00000   0.00000   0.00000   0.00000
           A5           0.00000   0.00000   0.00000   0.00000   0.00000
           A6           0.00000   0.00000   0.00000   0.00000   0.00000
           A7           0.00000   0.00000   0.00000   0.00000   0.00000
           A8           0.00000   0.00000   0.00000   0.00000   0.00000
           D1           0.00000   0.00000   0.00000   0.00000   0.00000
           D2           0.00000   0.00000   0.00000   0.00000   0.00000
           D3           0.00000   0.00000   0.00000   0.00000   0.00000
           D4           0.00000   0.00000   0.00000   0.00000   0.00000
                          A1        A2        A3        A4        A5
           A1           0.16000
           A2           0.00000   0.16000
           A3           0.00000   0.00000   0.16000
           A4           0.00000   0.00000   0.00000   0.16000
           A5           0.00000   0.00000   0.00000   0.00000   0.16000
           A6           0.00000   0.00000   0.00000   0.00000   0.00000
           A7           0.00000   0.00000   0.00000   0.00000   0.00000
           A8           0.00000   0.00000   0.00000   0.00000   0.00000
           D1           0.00000   0.00000   0.00000   0.00000   0.00000
           D2           0.00000   0.00000   0.00000   0.00000   0.00000
           D3           0.00000   0.00000   0.00000   0.00000   0.00000
           D4           0.00000   0.00000   0.00000   0.00000   0.00000
                          A6        A7        A8        D1        D2
           A6           0.16000
           A7           0.00000   0.04863
           A8           0.00000   0.00000   0.04863
           D1           0.00000   0.00000   0.00000   0.00230
           D2           0.00000   0.00000   0.00000   0.00000   0.00230
           D3           0.00000   0.00000   0.00000   0.00000   0.00000
           D4           0.00000   0.00000   0.00000   0.00000   0.00000
                          D3        D4
           D3           0.00230
           D4           0.00000   0.00230
 ITU=  0
     Eigenvalues ---    0.04863   0.04863   0.05068   0.05960   0.08408
     Eigenvalues ---    0.16000   0.16000   0.34350   0.34350   0.34350
     Eigenvalues ---    0.36725   1.27632
 RFO step:  Lambda=-4.23041745D-04 EMin= 4.86324319D-02
 Linear search not attempted -- first point.
 Iteration  1 RMS(Cart)=  0.01112128 RMS(Int)=  0.00008959
 Iteration  2 RMS(Cart)=  0.00006072 RMS(Int)=  0.00006891
 Iteration  3 RMS(Cart)=  0.00000000 RMS(Int)=  0.00006891
 ClnCor:  largest displacement from symmetrization is 5.18D-04 for atom     6.
 Variable       Old X    -DE/DX   Delta X   Delta X   Delta X     New X
                                 (Linear)    (Quad)   (Total)
    R1        2.76262  -0.00481   0.00000  -0.01309  -0.01309   2.74953
    R2        2.06744  -0.00131   0.00000  -0.00381  -0.00377   2.06366
    R3        2.06744  -0.00131   0.00000  -0.00381  -0.00377   2.06366
    R4        2.06744  -0.00131   0.00000  -0.00381  -0.00377   2.06366
    R5        2.19255  -0.01763   0.00000  -0.01381  -0.01381   2.17874
    A1        1.93404  -0.00040   0.00000  -0.00978  -0.00976   1.92428
    A2        1.93404  -0.00061   0.00000  -0.00990  -0.00976   1.92428
    A3        1.93404  -0.00119   0.00000  -0.01002  -0.00976   1.92428
    A4        1.88666   0.00021   0.00000   0.01021   0.01013   1.89679
    A5        1.88666   0.00099   0.00000   0.01046   0.01013   1.89679
    A6        1.88666   0.00111   0.00000   0.01046   0.01013   1.89679
    A7        3.14159   0.00000   0.00000   0.00000   0.00000   3.14159
    A8        3.14159  -0.00000   0.00000  -0.00000   0.00000   3.14159
    D1       -2.12247   0.00074   0.00000   0.01158   0.01156  -2.11091
    D2        2.12247  -0.00058   0.00000  -0.01150  -0.01156   2.11091
    D3       -2.12247   0.00077   0.00000   0.01164   0.01156  -2.11091
    D4        2.03825   0.00136   0.00000   0.02314   0.02312   2.06137
         Item               Value     Threshold  Converged?
 Maximum Force            0.017633     0.000450     NO 
 RMS     Force            0.004516     0.000300     NO 
 Maximum Displacement     0.030420     0.001800     NO 
 RMS     Displacement     0.011076     0.001200     NO 
 Predicted change in Energy=-2.126322D-04
 GradGradGradGradGradGradGradGradGradGradGradGradGradGradGradGradGradGrad

                          Input orientation:                          
 ---------------------------------------------------------------------
 Center     Atomic      Atomic             Coordinates (Angstroms)
 Number     Number       Type             X           Y           Z
 ---------------------------------------------------------------------
      1          6           0       -0.487725    0.005908    0.020677
      2          6           0        0.965852   -0.011700   -0.040947
      3          7           0        2.117672   -0.025654   -0.089778
      4          1           0       -0.904907   -0.711437   -0.689205
      5          1           0       -0.826757   -0.258037    1.024643
      6          1           0       -0.864500    1.000924   -0.225375
 ---------------------------------------------------------------------
                    Distance matrix (angstroms):
                    1          2          3          4          5
     1  C    0.000000
     2  C    1.454989   0.000000
     3  N    2.607929   1.152939   0.000000
     4  H    1.092042   2.099907   3.156833   0.000000
     5  H    1.092042   2.099907   3.156833   1.774528   0.000000
     6  H    1.092042   2.099907   3.156833   1.774528   1.774528
                    6
     6  H    0.000000
 Stoichiometry    C2H3N
 Framework group  C3V[C3(CCN),3SGV(H)]
 Deg. of freedom     4
 Full point group                 C3V     NOp   6
 Largest Abelian subgroup         CS      NOp   2
 Largest concise Abelian subgroup CS      NOp   2
                         Standard orientation:                         
 ---------------------------------------------------------------------
 Center     Atomic      Atomic             Coordinates (Angstroms)
 Number     Number       Type             X           Y           Z
 ---------------------------------------------------------------------
      1          6           0        0.000000   -0.000000   -1.175061
      2          6           0       -0.000000    0.000000    0.279928
      3          7           0       -0.000000    0.000000    1.432867
      4          1           0        0.000000    1.024524   -1.553091
      5          1           0        0.887264   -0.512262   -1.553091
      6          1           0       -0.887264   -0.512262   -1.553091
 ---------------------------------------------------------------------
 Rotational constants (GHZ):         159.2451375           9.2531136           9.2531136
 Standard basis: 6-311++G(d,p) (5D, 7F)
 There are    64 symmetry adapted cartesian basis functions of A'  symmetry.
 There are    26 symmetry adapted cartesian basis functions of A"  symmetry.
 There are    61 symmetry adapted basis functions of A'  symmetry.
 There are    26 symmetry adapted basis functions of A"  symmetry.
    87 basis functions,   135 primitive gaussians,    90 cartesian basis functions
    11 alpha electrons       11 beta electrons
       nuclear repulsion energy        58.5658034776 Hartrees.
 NAtoms=    6 NActive=    6 NUniq=    4 SFac= 2.25D+00 NAtFMM=   60 NAOKFM=F Big=F
 Integral buffers will be    131072 words long.
 Raffenetti 2 integral format.
 Two-electron integral symmetry is turned on.
 One-electron integrals computed using PRISM.
 NBasis=    87 RedAO= T EigKep=  4.73D-05  NBF=    61    26
 NBsUse=    87 1.00D-06 EigRej= -1.00D+00 NBFU=    61    26
 Initial guess from the checkpoint file:  "CC#N.chk"
 B after Tr=     0.000000   -0.000000   -0.000000
         Rot=    1.000000    0.000000    0.000000   -0.000000 Ang=   0.00 deg.
 Initial guess orbital symmetries:
       Occupied  (A1) (A1) (A1) (A1) (A1) (A1) (E) (E) (A1) (E)
                 (E)
       Virtual   (A1) (E) (E) (E) (E) (A1) (A1) (E) (E) (E) (E)
                 (A1) (A1) (E) (E) (A1) (E) (E) (A1) (A1) (A1)
                 (E) (E) (A1) (E) (E) (E) (E) (A1) (A1) (A1) (A1)
                 (E) (E) (A1) (E) (E) (A1) (E) (E) (A2) (A1) (E)
                 (E) (E) (E) (A1) (E) (E) (A1) (E) (E) (E) (E)
                 (A1) (E) (E) (E) (E) (A1) (E) (E) (A1) (E) (E)
                 (A1) (A1) (E) (E) (A1) (E) (E) (A1) (A1) (A1)
                 (A1)
 ExpMin= 3.60D-02 ExpMax= 6.29D+03 ExpMxC= 9.49D+02 IAcc=3 IRadAn=         5 AccDes= 0.00D+00
 Harris functional with IExCor=  402 and IRadAn=       5 diagonalized for initial guess.
 HarFok:  IExCor=  402 AccDes= 0.00D+00 IRadAn=         5 IDoV= 1 UseB2=F ITyADJ=14
 ICtDFT=  3500011 ScaDFX=  1.000000  1.000000  1.000000  1.000000
 FoFCou: FMM=F IPFlag=           0 FMFlag=      100000 FMFlg1=           0
         NFxFlg=           0 DoJE=T BraDBF=F KetDBF=T FulRan=T
         wScrn=  0.000000 ICntrl=       500 IOpCl=  0 I1Cent=   200000004 NGrid=           0
         NMat0=    1 NMatS0=      1 NMatT0=    0 NMatD0=    1 NMtDS0=    0 NMtDT0=    0
 Petite list used in FoFCou.
 Keep R1 ints in memory in symmetry-blocked form, NReq=14652093.
 Requested convergence on RMS density matrix=1.00D-08 within 128 cycles.
 Requested convergence on MAX density matrix=1.00D-06.
 Requested convergence on             energy=1.00D-06.
 No special actions if energy rises.
 SCF Done:  E(RB3LYP) =  -132.796198731     A.U. after    8 cycles
            NFock=  8  Conv=0.71D-08     -V/T= 2.0044
 Calling FoFJK, ICntrl=      2127 FMM=F ISym2X=1 I1Cent= 0 IOpClX= 0 NMat=1 NMatS=1 NMatT=0.
 ***** Axes restored to original set *****
 -------------------------------------------------------------------
 Center     Atomic                   Forces (Hartrees/Bohr)
 Number     Number              X              Y              Z
 -------------------------------------------------------------------
      1        6          -0.001250572    0.000015150    0.000053017
      2        6           0.001519218   -0.000018404   -0.000064406
      3        7          -0.000690979    0.000008371    0.000029294
      4        1           0.000142708    0.000033563    0.000029494
      5        1           0.000138890    0.000011413   -0.000054233
      6        1           0.000140734   -0.000050091    0.000006834
 -------------------------------------------------------------------
 Cartesian Forces:  Max     0.001519218 RMS     0.000495813

 GradGradGradGradGradGradGradGradGradGradGradGradGradGradGradGradGradGrad
 Berny optimization.
 Using GEDIIS/GDIIS optimizer.
 FormGI is forming the generalized inverse of G from B-inverse, IUseBI=4.
 Internal  Forces:  Max     0.000829044 RMS     0.000268854
 Search for a local minimum.
 Step number   2 out of a maximum of   27
 All quantities printed in internal units (Hartrees-Bohrs-Radians)
 Mixed Optimization -- En-DIIS/RFO-DIIS
 Update second derivatives using D2CorX and points    1    2
 DE= -2.15D-04 DEPred=-2.13D-04 R= 1.01D+00
 TightC=F SS=  1.41D+00  RLast= 4.40D-02 DXNew= 5.0454D-01 1.3193D-01
 Trust test= 1.01D+00 RLast= 4.40D-02 DXMaxT set to 3.00D-01
 The second derivative matrix:
                          R1        R2        R3        R4        R5
           R1           0.38869
           R2           0.00161   0.34304
           R3           0.00161  -0.00046   0.34304
           R4           0.00161  -0.00046  -0.00046   0.34304
           R5           0.02767  -0.00506  -0.00506  -0.00506   1.22485
           A1          -0.01293  -0.00376  -0.00376  -0.00376  -0.05074
           A2          -0.01016  -0.00316  -0.00316  -0.00316  -0.04242
           A3          -0.00292  -0.00160  -0.00160  -0.00160  -0.02068
           A4           0.01600   0.00446   0.00446   0.00446   0.06042
           A5           0.00613   0.00233   0.00233   0.00233   0.03077
           A6           0.00456   0.00200   0.00200   0.00200   0.02608
           A7           0.00000   0.00000   0.00000   0.00000   0.00000
           A8          -0.00000  -0.00000  -0.00000  -0.00000  -0.00000
           D1          -0.00900  -0.00192  -0.00192  -0.00192  -0.02682
           D2           0.00707   0.00151   0.00151   0.00151   0.02102
           D3          -0.00948  -0.00202  -0.00202  -0.00202  -0.02826
           D4          -0.01654  -0.00353  -0.00353  -0.00353  -0.04927
                          A1        A2        A3        A4        A5
           A1           0.15450
           A2          -0.00532   0.15496
           A3          -0.00485  -0.00430   0.15712
           A4           0.00588   0.00578   0.00554   0.15381
           A5           0.00523   0.00478   0.00360  -0.00585   0.15576
           A6           0.00513   0.00462   0.00329  -0.00580  -0.00399
           A7           0.00000   0.00000   0.00000  -0.00000  -0.00000
           A8          -0.00000  -0.00000  -0.00000   0.00000   0.00000
           D1          -0.00051  -0.00085  -0.00172   0.00022   0.00141
           D2           0.00038   0.00065   0.00135  -0.00015  -0.00110
           D3          -0.00054  -0.00089  -0.00182   0.00023   0.00149
           D4          -0.00092  -0.00154  -0.00316   0.00038   0.00259
                          A6        A7        A8        D1        D2
           A6           0.15630
           A7          -0.00000   0.04863
           A8           0.00000   0.00000   0.04863
           D1           0.00160  -0.00000   0.00000   0.00343
           D2          -0.00125   0.00000  -0.00000  -0.00089   0.00301
           D3           0.00169  -0.00000   0.00000   0.00119  -0.00094
           D4           0.00294  -0.00000   0.00000   0.00208  -0.00165
                          D3        D4
           D3           0.00355
           D4           0.00218   0.00613
 ITU=  1  0
 Use linear search instead of GDIIS.
     Eigenvalues ---    0.04863   0.04863   0.05073   0.05782   0.08501
     Eigenvalues ---    0.15999   0.16000   0.34183   0.34350   0.34350
     Eigenvalues ---    0.38806   1.22589
 RFO step:  Lambda=-2.79200073D-06 EMin= 4.86324319D-02
 Quartic linear search produced a step of  0.01591.
 Iteration  1 RMS(Cart)=  0.00041614 RMS(Int)=  0.00000152
 Iteration  2 RMS(Cart)=  0.00000035 RMS(Int)=  0.00000148
 ClnCor:  largest displacement from symmetrization is 2.83D-05 for atom     6.
 Variable       Old X    -DE/DX   Delta X   Delta X   Delta X     New X
                                 (Linear)    (Quad)   (Total)
    R1        2.74953   0.00083  -0.00021   0.00242   0.00222   2.75175
    R2        2.06366  -0.00010  -0.00006  -0.00024  -0.00030   2.06336
    R3        2.06366  -0.00010  -0.00006  -0.00024  -0.00030   2.06336
    R4        2.06366  -0.00010  -0.00006  -0.00024  -0.00030   2.06336
    R5        2.17874  -0.00069  -0.00022  -0.00041  -0.00063   2.17811
    A1        1.92428  -0.00003  -0.00016  -0.00060  -0.00075   1.92353
    A2        1.92428  -0.00004  -0.00016  -0.00060  -0.00075   1.92353
    A3        1.92428  -0.00008  -0.00016  -0.00061  -0.00075   1.92353
    A4        1.89679   0.00001   0.00016   0.00061   0.00077   1.89757
    A5        1.89679   0.00007   0.00016   0.00063   0.00077   1.89757
    A6        1.89679   0.00008   0.00016   0.00063   0.00077   1.89757
    A7        3.14159   0.00000   0.00000   0.00000   0.00000   3.14159
    A8        3.14159  -0.00000  -0.00000  -0.00000   0.00000   3.14159
    D1       -2.11091   0.00005   0.00018   0.00072   0.00090  -2.11001
    D2        2.11091  -0.00004  -0.00018  -0.00071  -0.00090   2.11001
    D3       -2.11091   0.00005   0.00018   0.00072   0.00090  -2.11001
    D4        2.06137   0.00010   0.00037   0.00144   0.00180   2.06317
         Item               Value     Threshold  Converged?
 Maximum Force            0.000829     0.000450     NO 
 RMS     Force            0.000269     0.000300     YES
 Maximum Displacement     0.001419     0.001800     YES
 RMS     Displacement     0.000415     0.001200     YES
 Predicted change in Energy=-1.454679D-06
 GradGradGradGradGradGradGradGradGradGradGradGradGradGradGradGradGradGrad

                          Input orientation:                          
 ---------------------------------------------------------------------
 Center     Atomic      Atomic             Coordinates (Angstroms)
 Number     Number       Type             X           Y           Z
 ---------------------------------------------------------------------
      1          6           0       -0.488476    0.005917    0.020709
      2          6           0        0.966272   -0.011706   -0.040965
      3          7           0        2.117757   -0.025655   -0.089781
      4          1           0       -0.904838   -0.711532   -0.689303
      5          1           0       -0.826677   -0.258073    1.024769
      6          1           0       -0.864425    1.001053   -0.225412
 ---------------------------------------------------------------------
                    Distance matrix (angstroms):
                    1          2          3          4          5
     1  C    0.000000
     2  C    1.456162   0.000000
     3  N    2.608765   1.152604   0.000000
     4  H    1.091882   2.100274   3.156887   0.000000
     5  H    1.091882   2.100274   3.156887   1.774761   0.000000
     6  H    1.091882   2.100274   3.156887   1.774761   1.774761
                    6
     6  H    0.000000
 Stoichiometry    C2H3N
 Framework group  C3V[C3(CCN),3SGV(H)]
 Deg. of freedom     4
 Full point group                 C3V     NOp   6
 Largest Abelian subgroup         CS      NOp   2
 Largest concise Abelian subgroup CS      NOp   2
                         Standard orientation:                         
 ---------------------------------------------------------------------
 Center     Atomic      Atomic             Coordinates (Angstroms)
 Number     Number       Type             X           Y           Z
 ---------------------------------------------------------------------
      1          6           0        0.000000   -0.000000   -1.175760
      2          6           0       -0.000000    0.000000    0.280402
      3          7           0       -0.000000    0.000000    1.433005
      4          1           0       -0.000000    1.024658   -1.552963
      5          1           0        0.887380   -0.512329   -1.552963
      6          1           0       -0.887380   -0.512329   -1.552963
 ---------------------------------------------------------------------
 Rotational constants (GHZ):         159.2034765           9.2484156           9.2484156
 Standard basis: 6-311++G(d,p) (5D, 7F)
 There are    64 symmetry adapted cartesian basis functions of A'  symmetry.
 There are    26 symmetry adapted cartesian basis functions of A"  symmetry.
 There are    61 symmetry adapted basis functions of A'  symmetry.
 There are    26 symmetry adapted basis functions of A"  symmetry.
    87 basis functions,   135 primitive gaussians,    90 cartesian basis functions
    11 alpha electrons       11 beta electrons
       nuclear repulsion energy        58.5584474338 Hartrees.
 NAtoms=    6 NActive=    6 NUniq=    4 SFac= 2.25D+00 NAtFMM=   60 NAOKFM=F Big=F
 Integral buffers will be    131072 words long.
 Raffenetti 2 integral format.
 Two-electron integral symmetry is turned on.
 One-electron integrals computed using PRISM.
 NBasis=    87 RedAO= T EigKep=  4.76D-05  NBF=    61    26
 NBsUse=    87 1.00D-06 EigRej= -1.00D+00 NBFU=    61    26
 Initial guess from the checkpoint file:  "CC#N.chk"
 B after Tr=     0.000000    0.000000    0.000000
         Rot=    1.000000    0.000000   -0.000000    0.000000 Ang=   0.00 deg.
 Initial guess orbital symmetries:
       Occupied  (A1) (A1) (A1) (A1) (A1) (A1) (E) (E) (A1) (E)
                 (E)
       Virtual   (A1) (E) (E) (A1) (E) (E) (A1) (E) (E) (E) (E)
                 (A1) (A1) (E) (E) (A1) (E) (E) (A1) (A1) (A1)
                 (E) (E) (A1) (E) (E) (E) (E) (A1) (A1) (A1) (A1)
                 (E) (E) (A1) (E) (E) (A1) (E) (E) (A2) (A1) (E)
                 (E) (E) (E) (A1) (E) (E) (A1) (E) (E) (E) (E)
                 (A1) (E) (E) (E) (E) (A1) (E) (E) (A1) (E) (E)
                 (A1) (A1) (E) (E) (A1) (E) (E) (A1) (A1) (A1)
                 (A1)
 Keep R1 ints in memory in symmetry-blocked form, NReq=14652093.
 Requested convergence on RMS density matrix=1.00D-08 within 128 cycles.
 Requested convergence on MAX density matrix=1.00D-06.
 Requested convergence on             energy=1.00D-06.
 No special actions if energy rises.
 SCF Done:  E(RB3LYP) =  -132.796200471     A.U. after    7 cycles
            NFock=  7  Conv=0.80D-08     -V/T= 2.0044
 Calling FoFJK, ICntrl=      2127 FMM=F ISym2X=1 I1Cent= 0 IOpClX= 0 NMat=1 NMatS=1 NMatT=0.
 ***** Axes restored to original set *****
 -------------------------------------------------------------------
 Center     Atomic                   Forces (Hartrees/Bohr)
 Number     Number              X              Y              Z
 -------------------------------------------------------------------
      1        6          -0.000342856    0.000004153    0.000014535
      2        6           0.000071973   -0.000000872   -0.000003051
      3        7           0.000093677   -0.000001135   -0.000003971
      4        1           0.000059110    0.000000035   -0.000001749
      5        1           0.000059028   -0.000000436   -0.000003531
      6        1           0.000059068   -0.000001745   -0.000002232
 -------------------------------------------------------------------
 Cartesian Forces:  Max     0.000342856 RMS     0.000088898

 GradGradGradGradGradGradGradGradGradGradGradGradGradGradGradGradGradGrad
 Berny optimization.
 Using GEDIIS/GDIIS optimizer.
 FormGI is forming the generalized inverse of G from B-inverse, IUseBI=4.
 Internal  Forces:  Max     0.000165811 RMS     0.000051933
 Search for a local minimum.
 Step number   3 out of a maximum of   27
 All quantities printed in internal units (Hartrees-Bohrs-Radians)
 Mixed Optimization -- En-DIIS/RFO-DIIS
 Swapping is turned off.
 Update second derivatives using D2CorX and points    1    2    3
 DE= -1.74D-06 DEPred=-1.45D-06 R= 1.20D+00
 TightC=F SS=  1.41D+00  RLast= 3.84D-03 DXNew= 5.0454D-01 1.1523D-02
 Trust test= 1.20D+00 RLast= 3.84D-03 DXMaxT set to 3.00D-01
 The second derivative matrix:
                          R1        R2        R3        R4        R5
           R1           0.34051
           R2           0.00753   0.34231
           R3           0.00753  -0.00119   0.34231
           R4           0.00753  -0.00119  -0.00119   0.34231
           R5           0.00576  -0.00202  -0.00202  -0.00202   1.34289
           A1           0.00847  -0.00647  -0.00647  -0.00647  -0.07013
           A2           0.01002  -0.00572  -0.00572  -0.00572  -0.05962
           A3           0.01405  -0.00374  -0.00374  -0.00374  -0.03214
           A4          -0.00717   0.00740   0.00740   0.00740   0.08246
           A5          -0.01264   0.00470   0.00470   0.00470   0.04495
           A6          -0.01353   0.00428   0.00428   0.00428   0.03904
           A7          -0.00000   0.00000   0.00000   0.00000   0.00000
           A8          -0.00000   0.00000   0.00000   0.00000   0.00000
           D1          -0.00526  -0.00240  -0.00240  -0.00240  -0.03383
           D2           0.00410   0.00189   0.00189   0.00189   0.02661
           D3          -0.00543  -0.00255  -0.00255  -0.00255  -0.03578
           D4          -0.00954  -0.00444  -0.00444  -0.00444  -0.06239
                          A1        A2        A3        A4        A5
           A1           0.15161
           A2          -0.00829   0.15194
           A3          -0.00803  -0.00747   0.15400
           A4           0.00877   0.00878   0.00882   0.15095
           A5           0.00841   0.00797   0.00682  -0.00911   0.15247
           A6           0.00835   0.00784   0.00650  -0.00911  -0.00728
           A7           0.00000   0.00000   0.00000  -0.00000  -0.00000
           A8           0.00000   0.00000   0.00000  -0.00000  -0.00000
           D1          -0.00019  -0.00062  -0.00174  -0.00020   0.00133
           D2           0.00012   0.00046   0.00135   0.00019  -0.00102
           D3          -0.00021  -0.00066  -0.00184  -0.00020   0.00141
           D4          -0.00033  -0.00112  -0.00319  -0.00039   0.00243
                          A6        A7        A8        D1        D2
           A6           0.15300
           A7          -0.00000   0.04863
           A8          -0.00000   0.00000   0.04863
           D1           0.00157  -0.00000  -0.00000   0.00373
           D2          -0.00121   0.00000   0.00000  -0.00114   0.00320
           D3           0.00166  -0.00000  -0.00000   0.00151  -0.00120
           D4           0.00288  -0.00000  -0.00000   0.00264  -0.00210
                          D3        D4
           D3           0.00389
           D4           0.00279   0.00719
 ITU=  1  1  0
     Eigenvalues ---    0.04700   0.04863   0.04863   0.05345   0.08487
     Eigenvalues ---    0.15671   0.16000   0.32952   0.34350   0.34350
     Eigenvalues ---    0.35432   1.34317
 En-DIIS/RFO-DIIS/Sim-DIIS IScMMF=       -3 using points:     3    2
 RFO step:  Lambda=-2.75126617D-07.
 DidBck=F Rises=F RFO-DIIS coefs:    1.48407   -0.48407
 Iteration  1 RMS(Cart)=  0.00022142 RMS(Int)=  0.00000037
 Iteration  2 RMS(Cart)=  0.00000011 RMS(Int)=  0.00000035
 ClnCor:  largest displacement from symmetrization is 1.06D-05 for atom     6.
 Variable       Old X    -DE/DX   Delta X   Delta X   Delta X     New X
                                 (Linear)    (Quad)   (Total)
    R1        2.75175   0.00017   0.00107  -0.00043   0.00064   2.75239
    R2        2.06336  -0.00002  -0.00015   0.00005  -0.00010   2.06326
    R3        2.06336  -0.00002  -0.00015   0.00005  -0.00010   2.06326
    R4        2.06336  -0.00002  -0.00015   0.00005  -0.00010   2.06326
    R5        2.17811   0.00009  -0.00031   0.00035   0.00004   2.17815
    A1        1.92353  -0.00001  -0.00036  -0.00010  -0.00046   1.92306
    A2        1.92353  -0.00002  -0.00036  -0.00010  -0.00046   1.92306
    A3        1.92353  -0.00004  -0.00036  -0.00010  -0.00046   1.92306
    A4        1.89757   0.00001   0.00037   0.00010   0.00048   1.89804
    A5        1.89757   0.00003   0.00037   0.00011   0.00048   1.89804
    A6        1.89757   0.00004   0.00037   0.00011   0.00048   1.89804
    A7        3.14159   0.00000   0.00000   0.00000  -0.00000   3.14159
    A8        3.14159  -0.00000   0.00000  -0.00000  -0.00000   3.14159
    D1       -2.11001   0.00002   0.00044   0.00012   0.00055  -2.10945
    D2        2.11001  -0.00002  -0.00044  -0.00012  -0.00055   2.10945
    D3       -2.11001   0.00003   0.00044   0.00012   0.00055  -2.10945
    D4        2.06317   0.00005   0.00087   0.00024   0.00111   2.06428
         Item               Value     Threshold  Converged?
 Maximum Force            0.000166     0.000450     YES
 RMS     Force            0.000052     0.000300     YES
 Maximum Displacement     0.000687     0.001800     YES
 RMS     Displacement     0.000220     0.001200     YES
 Predicted change in Energy=-1.376038D-07
 Optimization completed.
    -- Stationary point found.
                           ----------------------------
                           !   Optimized Parameters   !
                           ! (Angstroms and Degrees)  !
 --------------------------                            --------------------------
 ! Name  Definition              Value          Derivative Info.                !
 --------------------------------------------------------------------------------
 ! R1    R(1,2)                  1.4562         -DE/DX =    0.0002              !
 ! R2    R(1,4)                  1.0919         -DE/DX =    0.0                 !
 ! R3    R(1,5)                  1.0919         -DE/DX =    0.0                 !
 ! R4    R(1,6)                  1.0919         -DE/DX =    0.0                 !
 ! R5    R(2,3)                  1.1526         -DE/DX =    0.0001              !
 ! A1    A(2,1,4)              110.21           -DE/DX =    0.0                 !
 ! A2    A(2,1,5)              110.21           -DE/DX =    0.0                 !
 ! A3    A(2,1,6)              110.21           -DE/DX =    0.0                 !
 ! A4    A(4,1,5)              108.7225         -DE/DX =    0.0                 !
 ! A5    A(4,1,6)              108.7225         -DE/DX =    0.0                 !
 ! A6    A(5,1,6)              108.7225         -DE/DX =    0.0                 !
 ! A7    L(1,2,3,4,-1)         180.0            -DE/DX =    0.0                 !
 ! A8    L(1,2,3,4,-2)         180.0            -DE/DX =    0.0                 !
 ! D1    D(2,1,5,4)           -120.8945         -DE/DX =    0.0                 !
 ! D2    D(2,1,6,4)            120.8945         -DE/DX =    0.0                 !
 ! D3    D(2,1,6,5)           -120.8945         -DE/DX =    0.0                 !
 ! D4    D(4,1,6,5)            118.2111         -DE/DX =    0.0                 !
 --------------------------------------------------------------------------------
 GradGradGradGradGradGradGradGradGradGradGradGradGradGradGradGradGradGrad

                          Input orientation:                          
 ---------------------------------------------------------------------
 Center     Atomic      Atomic             Coordinates (Angstroms)
 Number     Number       Type             X           Y           Z
 ---------------------------------------------------------------------
      1          6           0       -0.488476    0.005917    0.020709
      2          6           0        0.966272   -0.011706   -0.040965
      3          7           0        2.117757   -0.025655   -0.089781
      4          1           0       -0.904838   -0.711532   -0.689303
      5          1           0       -0.826677   -0.258073    1.024769
      6          1           0       -0.864425    1.001053   -0.225412
 ---------------------------------------------------------------------
                    Distance matrix (angstroms):
                    1          2          3          4          5
     1  C    0.000000
     2  C    1.456162   0.000000
     3  N    2.608765   1.152604   0.000000
     4  H    1.091882   2.100274   3.156887   0.000000
     5  H    1.091882   2.100274   3.156887   1.774761   0.000000
     6  H    1.091882   2.100274   3.156887   1.774761   1.774761
                    6
     6  H    0.000000
 Stoichiometry    C2H3N
 Framework group  C3V[C3(CCN),3SGV(H)]
 Deg. of freedom     4
 Full point group                 C3V     NOp   6
 Largest Abelian subgroup         CS      NOp   2
 Largest concise Abelian subgroup CS      NOp   2
                         Standard orientation:                         
 ---------------------------------------------------------------------
 Center     Atomic      Atomic             Coordinates (Angstroms)
 Number     Number       Type             X           Y           Z
 ---------------------------------------------------------------------
      1          6           0        0.000000   -0.000000   -1.175760
      2          6           0       -0.000000    0.000000    0.280402
      3          7           0       -0.000000    0.000000    1.433005
      4          1           0       -0.000000    1.024658   -1.552963
      5          1           0        0.887380   -0.512329   -1.552963
      6          1           0       -0.887380   -0.512329   -1.552963
 ---------------------------------------------------------------------
 Rotational constants (GHZ):         159.2034765           9.2484156           9.2484156

 **********************************************************************

            Population analysis using the SCF Density.

 **********************************************************************

 Orbital symmetries:
       Occupied  (A1) (A1) (A1) (A1) (A1) (A1) (E) (E) (A1) (E)
                 (E)
       Virtual   (A1) (E) (E) (A1) (E) (E) (A1) (E) (E) (E) (E)
                 (A1) (A1) (E) (E) (A1) (E) (E) (A1) (A1) (A1)
                 (E) (E) (A1) (E) (E) (E) (E) (A1) (A1) (A1) (A1)
                 (E) (E) (A1) (E) (E) (A1) (E) (E) (A2) (A1) (E)
                 (E) (E) (E) (A1) (E) (E) (A1) (E) (E) (E) (E)
                 (A1) (E) (E) (E) (E) (A1) (E) (E) (A1) (E) (E)
                 (A1) (A1) (E) (E) (A1) (E) (E) (A1) (A1) (A1)
                 (A1)
 The electronic state is 1-A1.
 Alpha  occ. eigenvalues --  -14.31736 -10.22863 -10.21857  -0.91834  -0.78642
 Alpha  occ. eigenvalues --   -0.52545  -0.47338  -0.47338  -0.37159  -0.34053
 Alpha  occ. eigenvalues --   -0.34053
 Alpha virt. eigenvalues --   -0.02087   0.01263   0.01263   0.03400   0.03446
 Alpha virt. eigenvalues --    0.03446   0.07680   0.09028   0.09028   0.09307
 Alpha virt. eigenvalues --    0.09307   0.10525   0.13405   0.16640   0.16640
 Alpha virt. eigenvalues --    0.19998   0.22600   0.22600   0.24132   0.26547
 Alpha virt. eigenvalues --    0.29324   0.43250   0.43250   0.44360   0.54909
 Alpha virt. eigenvalues --    0.54909   0.60630   0.60630   0.66471   0.70551
 Alpha virt. eigenvalues --    0.73820   0.82162   0.88283   0.88283   0.89857
 Alpha virt. eigenvalues --    1.01965   1.01965   1.07084   1.24284   1.24284
 Alpha virt. eigenvalues --    1.40632   1.41685   1.45170   1.45170   1.53792
 Alpha virt. eigenvalues --    1.53792   1.71880   1.82870   1.82870   1.98742
 Alpha virt. eigenvalues --    2.07099   2.07099   2.17175   2.17175   2.38330
 Alpha virt. eigenvalues --    2.45774   2.45774   2.51069   2.51069   2.57512
 Alpha virt. eigenvalues --    2.78340   2.78340   2.89194   2.89825   2.89825
 Alpha virt. eigenvalues --    3.03594   3.15398   3.76770   3.76770   3.86731
 Alpha virt. eigenvalues --    3.99574   3.99574   4.56697  23.86403  24.32157
 Alpha virt. eigenvalues --   35.85333
          Condensed to atoms (all electrons):
               1          2          3          4          5          6
     1  C    5.338758  -0.202350   0.118371   0.407861   0.407861   0.407861
     2  C   -0.202350   5.606962   0.419547  -0.035197  -0.035197  -0.035197
     3  N    0.118371   0.419547   6.800088  -0.002571  -0.002571  -0.002571
     4  H    0.407861  -0.035197  -0.002571   0.525300  -0.035567  -0.035567
     5  H    0.407861  -0.035197  -0.002571  -0.035567   0.525300  -0.035567
     6  H    0.407861  -0.035197  -0.002571  -0.035567  -0.035567   0.525300
 Mulliken charges:
               1
     1  C   -0.478360
     2  C    0.281432
     3  N   -0.330292
     4  H    0.175740
     5  H    0.175740
     6  H    0.175740
 Sum of Mulliken charges =  -0.00000
 Mulliken charges with hydrogens summed into heavy atoms:
               1
     1  C    0.048860
     2  C    0.281432
     3  N   -0.330292
 Electronic spatial extent (au):  <R**2>=            161.8455
 Charge=             -0.0000 electrons
 Dipole moment (field-independent basis, Debye):
    X=              0.0000    Y=              0.0000    Z=             -4.0535  Tot=              4.0535
 Quadrupole moment (field-independent basis, Debye-Ang):
   XX=            -17.7781   YY=            -17.7781   ZZ=            -21.1012
   XY=             -0.0000   XZ=             -0.0000   YZ=             -0.0000
 Traceless Quadrupole moment (field-independent basis, Debye-Ang):
   XX=              1.1077   YY=              1.1077   ZZ=             -2.2154
   XY=             -0.0000   XZ=             -0.0000   YZ=             -0.0000
 Octapole moment (field-independent basis, Debye-Ang**2):
  XXX=              0.0000  YYY=              0.8149  ZZZ=            -12.9785  XYY=             -0.0000
  XXY=             -0.8149  XXZ=             -2.1317  XZZ=              0.0000  YZZ=             -0.0000
  YYZ=             -2.1317  XYZ=              0.0000
 Hexadecapole moment (field-independent basis, Debye-Ang**3):
 XXXX=            -25.1056 YYYY=            -25.1056 ZZZZ=           -184.2595 XXXY=              0.0000
 XXXZ=             -0.0000 YYYX=              0.0000 YYYZ=             -1.3513 ZZZX=             -0.0000
 ZZZY=             -0.0000 XXYY=             -8.3685 XXZZ=            -31.3473 YYZZ=            -31.3473
 XXYZ=              1.3513 YYXZ=              0.0000 ZZXY=             -0.0000
 N-N= 5.855844743376D+01 E-N=-4.259842799817D+02  KE= 1.322192683797D+02
 Symmetry A'   KE= 1.273059220060D+02
 Symmetry A"   KE= 4.913346373683D+00
 ******************************Gaussian NBO Version 3.1******************************
             N A T U R A L   A T O M I C   O R B I T A L   A N D
          N A T U R A L   B O N D   O R B I T A L   A N A L Y S I S
 ******************************Gaussian NBO Version 3.1******************************
       /RESON  / : Allow strongly delocalized NBO set

 Analyzing the SCF density

 Job title: CC#N                                                            

 Storage needed:     23175 in NPA,     30595 in NBO (1258290960 available)
 GSVD:  LWork=        2375 too small for GESVD, short by        7572 words or        7572 for optimal perf.


 NATURAL POPULATIONS:  Natural atomic orbital occupancies 
                                                          
   NAO  Atom  No  lang   Type(AO)    Occupancy      Energy
 ----------------------------------------------------------
     1    C    1  S      Cor( 1S)     1.99917     -10.08662
     2    C    1  S      Val( 2S)     1.10902      -0.28834
     3    C    1  S      Ryd( 4S)     0.00046       0.94866
     4    C    1  S      Ryd( 5S)     0.00001      23.42649
     5    C    1  S      Ryd( 3S)     0.00000       0.45003
     6    C    1  px     Val( 2p)     1.24072      -0.14926
     7    C    1  px     Ryd( 4p)     0.00063       0.44832
     8    C    1  px     Ryd( 5p)     0.00001       2.89301
     9    C    1  px     Ryd( 3p)     0.00000       0.41887
    10    C    1  py     Val( 2p)     1.24072      -0.14926
    11    C    1  py     Ryd( 4p)     0.00063       0.44832
    12    C    1  py     Ryd( 5p)     0.00001       2.89301
    13    C    1  py     Ryd( 3p)     0.00000       0.41887
    14    C    1  pz     Val( 2p)     1.08852      -0.14154
    15    C    1  pz     Ryd( 3p)     0.00075       0.37619
    16    C    1  pz     Ryd( 5p)     0.00012       2.90003
    17    C    1  pz     Ryd( 4p)     0.00001       0.42995
    18    C    1  dxy    Ryd( 3d)     0.00069       2.02310
    19    C    1  dxz    Ryd( 3d)     0.00039       1.90590
    20    C    1  dyz    Ryd( 3d)     0.00039       1.90590
    21    C    1  dx2y2  Ryd( 3d)     0.00069       2.02310
    22    C    1  dz2    Ryd( 3d)     0.00124       2.39314
 
    23    C    2  S      Cor( 1S)     1.99935     -10.08896
    24    C    2  S      Val( 2S)     0.85100      -0.13321
    25    C    2  S      Ryd( 3S)     0.00757       0.61035
    26    C    2  S      Ryd( 5S)     0.00005      14.90464
    27    C    2  S      Ryd( 4S)     0.00001       8.66851
    28    C    2  px     Val( 2p)     0.91481      -0.10590
    29    C    2  px     Ryd( 4p)     0.00107       0.56526
    30    C    2  px     Ryd( 3p)     0.00011       0.45280
    31    C    2  px     Ryd( 5p)     0.00005       2.42345
    32    C    2  py     Val( 2p)     0.91481      -0.10590
    33    C    2  py     Ryd( 4p)     0.00107       0.56526
    34    C    2  py     Ryd( 3p)     0.00011       0.45280
    35    C    2  py     Ryd( 5p)     0.00005       2.42345
    36    C    2  pz     Val( 2p)     0.99634       0.03728
    37    C    2  pz     Ryd( 4p)     0.01806       1.09770
    38    C    2  pz     Ryd( 3p)     0.00052       0.55824
    39    C    2  pz     Ryd( 5p)     0.00009       2.25788
    40    C    2  dxy    Ryd( 3d)     0.00002       1.38234
    41    C    2  dxz    Ryd( 3d)     0.00097       2.23554
    42    C    2  dyz    Ryd( 3d)     0.00097       2.23554
    43    C    2  dx2y2  Ryd( 3d)     0.00002       1.38234
    44    C    2  dz2    Ryd( 3d)     0.00045       3.39910
 
    45    N    3  S      Cor( 1S)     1.99958     -14.05612
    46    N    3  S      Val( 2S)     1.58555      -0.57333
    47    N    3  S      Ryd( 4S)     0.00493       1.55282
    48    N    3  S      Ryd( 3S)     0.00001       0.92878
    49    N    3  S      Ryd( 5S)     0.00000      35.04833
    50    N    3  px     Val( 2p)     1.10312      -0.15257
    51    N    3  px     Ryd( 3p)     0.00026       0.59467
    52    N    3  px     Ryd( 5p)     0.00000       2.41598
    53    N    3  px     Ryd( 4p)     0.00002       1.97742
    54    N    3  py     Val( 2p)     1.10312      -0.15257
    55    N    3  py     Ryd( 3p)     0.00026       0.59467
    56    N    3  py     Ryd( 5p)     0.00000       2.41598
    57    N    3  py     Ryd( 4p)     0.00002       1.97742
    58    N    3  pz     Val( 2p)     1.52498      -0.18260
    59    N    3  pz     Ryd( 3p)     0.00209       0.63619
    60    N    3  pz     Ryd( 5p)     0.00017       3.24014
    61    N    3  pz     Ryd( 4p)     0.00003       1.96960
    62    N    3  dxy    Ryd( 3d)     0.00000       1.97281
    63    N    3  dxz    Ryd( 3d)     0.00371       2.07830
    64    N    3  dyz    Ryd( 3d)     0.00371       2.07830
    65    N    3  dx2y2  Ryd( 3d)     0.00000       1.97281
    66    N    3  dz2    Ryd( 3d)     0.00646       2.64025
 
    67    H    4  S      Val( 1S)     0.75509       0.00427
    68    H    4  S      Ryd( 2S)     0.00091       0.50017
    69    H    4  S      Ryd( 4S)     0.00017       1.73056
    70    H    4  S      Ryd( 3S)     0.00004       0.68537
    71    H    4  px     Ryd( 2p)     0.00010       1.70561
    72    H    4  py     Ryd( 2p)     0.00031       2.51192
    73    H    4  pz     Ryd( 2p)     0.00016       1.76160
 
    74    H    5  S      Val( 1S)     0.75509       0.00427
    75    H    5  S      Ryd( 2S)     0.00091       0.50017
    76    H    5  S      Ryd( 4S)     0.00017       1.73056
    77    H    5  S      Ryd( 3S)     0.00004       0.68537
    78    H    5  px     Ryd( 2p)     0.00025       2.31034
    79    H    5  py     Ryd( 2p)     0.00015       1.90719
    80    H    5  pz     Ryd( 2p)     0.00016       1.76160
 
    81    H    6  S      Val( 1S)     0.75509       0.00427
    82    H    6  S      Ryd( 2S)     0.00091       0.50017
    83    H    6  S      Ryd( 4S)     0.00017       1.73056
    84    H    6  S      Ryd( 3S)     0.00004       0.68537
    85    H    6  px     Ryd( 2p)     0.00025       2.31034
    86    H    6  py     Ryd( 2p)     0.00015       1.90719
    87    H    6  pz     Ryd( 2p)     0.00016       1.76160

 WARNING:  Population inversion found on atom  C    1
           Population inversion found on atom  C    2
           Population inversion found on atom  N    3
           Population inversion found on atom  H    4
           Population inversion found on atom  H    5
           Population inversion found on atom  H    6


 Summary of Natural Population Analysis:                  
                                                          
                                       Natural Population 
                Natural  -----------------------------------------------
    Atom  No    Charge         Core      Valence    Rydberg      Total
 -----------------------------------------------------------------------
      C    1   -0.68417      1.99917     4.67897    0.00603     6.68417
      C    2    0.29253      1.99935     3.67695    0.03117     5.70747
      N    3   -0.33802      1.99958     5.31676    0.02167     7.33802
      H    4    0.24322      0.00000     0.75509    0.00169     0.75678
      H    5    0.24322      0.00000     0.75509    0.00169     0.75678
      H    6    0.24322      0.00000     0.75509    0.00169     0.75678
 =======================================================================
   * Total *   -0.00000      5.99811    15.93794    0.06395    22.00000

                                 Natural Population      
 --------------------------------------------------------
   Core                       5.99811 ( 99.9685% of   6)
   Valence                   15.93794 ( 99.6121% of  16)
   Natural Minimal Basis     21.93605 ( 99.7093% of  22)
   Natural Rydberg Basis      0.06395 (  0.2907% of  22)
 --------------------------------------------------------

    Atom  No          Natural Electron Configuration
 ----------------------------------------------------------------------------
      C    1      [core]2S( 1.11)2p( 3.57)
      C    2      [core]2S( 0.85)2p( 2.83)3S( 0.01)4p( 0.02)
      N    3      [core]2S( 1.59)2p( 3.73)3d( 0.01)
      H    4            1S( 0.76)
      H    5            1S( 0.76)
      H    6            1S( 0.76)


 NATURAL BOND ORBITAL ANALYSIS:

                       Occupancies       Lewis Structure    Low   High
           Occ.    -------------------  -----------------   occ   occ
  Cycle   Thresh.   Lewis   Non-Lewis     CR  BD  3C  LP    (L)   (NL)   Dev
 =============================================================================
   1(1)    1.90    21.84552   0.15448      3   7   0   1     0      0    0.09
 -----------------------------------------------------------------------------

 Structure accepted: No low occupancy Lewis orbitals

 --------------------------------------------------------
   Core                      5.99810 ( 99.968% of   6)
   Valence Lewis            15.84742 ( 99.046% of  16)
  ==================       ============================
   Total Lewis              21.84552 ( 99.298% of  22)
  -----------------------------------------------------
   Valence non-Lewis         0.12368 (  0.562% of  22)
   Rydberg non-Lewis         0.03080 (  0.140% of  22)
  ==================       ============================
   Total non-Lewis           0.15448 (  0.702% of  22)
 --------------------------------------------------------


       (Occupancy)   Bond orbital/ Coefficients/ Hybrids
 ---------------------------------------------------------------------------------
     1. (1.99373) BD ( 1) C   1 - C   2  
                ( 50.29%)   0.7091* C   1 s( 27.48%)p 2.64( 72.44%)d 0.00(  0.08%)
                                            0.0001  0.5239  0.0165 -0.0005  0.0006
                                            0.0000  0.0000  0.0000  0.0000 -0.0000
                                           -0.0000  0.0000  0.0000  0.8509 -0.0186
                                           -0.0010 -0.0000 -0.0000 -0.0000  0.0000
                                            0.0000  0.0281
                ( 49.71%)   0.7051* C   2 s( 52.88%)p 0.89( 47.10%)d 0.00(  0.03%)
                                           -0.0000  0.7259  0.0431  0.0007  0.0013
                                            0.0000  0.0000  0.0000  0.0000  0.0000
                                            0.0000  0.0000  0.0000 -0.6860 -0.0032
                                            0.0208  0.0005  0.0000  0.0000  0.0000
                                            0.0000  0.0160
     2. (1.97104) BD ( 1) C   1 - H   4  
                ( 61.94%)   0.7870* C   1 s( 24.19%)p 3.13( 75.76%)d 0.00(  0.05%)
                                           -0.0002  0.4918 -0.0045  0.0002 -0.0002
                                           -0.0000 -0.0000  0.0000  0.0000  0.8162
                                            0.0085 -0.0000 -0.0000 -0.3022  0.0065
                                           -0.0018  0.0001  0.0000  0.0000 -0.0081
                                           -0.0192 -0.0100
                ( 38.06%)   0.6169* H   4 s( 99.96%)p 0.00(  0.04%)
                                            0.9998  0.0012  0.0005 -0.0000  0.0000
                                           -0.0180  0.0081
     3. (1.97104) BD ( 1) C   1 - H   5  
                ( 61.94%)   0.7870* C   1 s( 24.19%)p 3.13( 75.76%)d 0.00(  0.05%)
                                           -0.0002  0.4918 -0.0045  0.0002 -0.0002
                                            0.7068  0.0073 -0.0000 -0.0000 -0.4081
                                           -0.0042  0.0000  0.0000 -0.3022  0.0065
                                           -0.0018  0.0001 -0.0167 -0.0070  0.0041
                                            0.0096 -0.0100
                ( 38.06%)   0.6169* H   5 s( 99.96%)p 0.00(  0.04%)
                                            0.9998  0.0012  0.0005 -0.0000 -0.0156
                                            0.0090  0.0081
     4. (1.97104) BD ( 1) C   1 - H   6  
                ( 61.94%)   0.7870* C   1 s( 24.19%)p 3.13( 75.76%)d 0.00(  0.05%)
                                           -0.0002  0.4918 -0.0045  0.0002 -0.0002
                                           -0.7068 -0.0073  0.0000  0.0000 -0.4081
                                           -0.0042  0.0000  0.0000 -0.3022  0.0065
                                           -0.0018  0.0001  0.0167  0.0070  0.0041
                                            0.0096 -0.0100
                ( 38.06%)   0.6169* H   6 s( 99.96%)p 0.00(  0.04%)
                                            0.9998  0.0012  0.0005 -0.0000  0.0156
                                            0.0090  0.0081
     5. (1.99691) BD ( 1) C   2 - N   3  
                ( 42.52%)   0.6521* C   2 s( 47.35%)p 1.11( 52.63%)d 0.00(  0.02%)
                                           -0.0001  0.6863 -0.0497 -0.0016 -0.0017
                                            0.0000  0.0000  0.0000  0.0000  0.0000
                                            0.0000  0.0000  0.0000  0.7230  0.0597
                                           -0.0053 -0.0018  0.0000  0.0000  0.0000
                                            0.0000  0.0135
                ( 57.48%)   0.7582* N   3 s( 46.84%)p 1.13( 52.75%)d 0.01(  0.41%)
                                            0.0000  0.6829 -0.0458  0.0006 -0.0007
                                            0.0000  0.0000  0.0000  0.0000  0.0000
                                            0.0000  0.0000  0.0000 -0.7261  0.0130
                                           -0.0004  0.0051  0.0000  0.0000  0.0000
                                            0.0000  0.0641
     6. (1.98698) BD ( 2) C   2 - N   3  
                ( 45.10%)   0.6716* C   2 s(  0.00%)p 1.00( 99.93%)d 0.00(  0.07%)
                                            0.0000  0.0000  0.0000  0.0000  0.0000
                                            0.9993 -0.0225  0.0100  0.0023  0.0000
                                            0.0000  0.0000  0.0000  0.0000  0.0000
                                            0.0000  0.0000  0.0007  0.0272  0.0000
                                            0.0000  0.0000
                ( 54.90%)   0.7410* N   3 s(  0.00%)p 1.00( 99.67%)d 0.00(  0.33%)
                                            0.0000  0.0000  0.0000  0.0000  0.0000
                                            0.9983 -0.0138  0.0003  0.0023  0.0000
                                            0.0000  0.0000  0.0000  0.0000  0.0000
                                            0.0000  0.0000  0.0002 -0.0574  0.0000
                                            0.0000  0.0000
     7. (1.98698) BD ( 3) C   2 - N   3  
                ( 45.10%)   0.6716* C   2 s(  0.00%)p 1.00( 99.93%)d 0.00(  0.07%)
                                            0.0000  0.0000  0.0000  0.0000  0.0000
                                            0.0000  0.0000  0.0000  0.0000  0.9993
                                           -0.0225  0.0100  0.0023  0.0000  0.0000
                                            0.0000  0.0000  0.0000  0.0000  0.0272
                                            0.0007  0.0000
                ( 54.90%)   0.7410* N   3 s(  0.00%)p 1.00( 99.67%)d 0.00(  0.33%)
                                            0.0000  0.0000  0.0000  0.0000  0.0000
                                            0.0000  0.0000  0.0000  0.0000  0.9983
                                           -0.0138  0.0003  0.0023  0.0000  0.0000
                                            0.0000  0.0000  0.0000  0.0000 -0.0574
                                            0.0002  0.0000
     8. (1.99917) CR ( 1) C   1           s(100.00%)p 0.00(  0.00%)
                                            1.0000  0.0002 -0.0000  0.0000 -0.0000
                                           -0.0000 -0.0000  0.0000  0.0000 -0.0000
                                           -0.0000  0.0000  0.0000 -0.0003  0.0000
                                           -0.0000  0.0000  0.0000  0.0000  0.0000
                                            0.0000 -0.0000
     9. (1.99935) CR ( 1) C   2           s(100.00%)
                                            1.0000  0.0001 -0.0000 -0.0000 -0.0000
                                            0.0000  0.0000  0.0000  0.0000  0.0000
                                            0.0000  0.0000  0.0000  0.0000  0.0000
                                            0.0000 -0.0000  0.0000  0.0000  0.0000
                                            0.0000  0.0000
    10. (1.99958) CR ( 1) N   3           s(100.00%)p 0.00(  0.00%)
                                            1.0000  0.0006  0.0000 -0.0000  0.0000
                                            0.0000  0.0000  0.0000  0.0000  0.0000
                                            0.0000  0.0000  0.0000  0.0005  0.0000
                                           -0.0000 -0.0000  0.0000  0.0000  0.0000
                                            0.0000 -0.0000
    11. (1.96970) LP ( 1) N   3           s( 53.27%)p 0.88( 46.65%)d 0.00(  0.09%)
                                           -0.0008  0.7294  0.0241 -0.0002  0.0004
                                            0.0000  0.0000  0.0000  0.0000  0.0000
                                            0.0000  0.0000  0.0000  0.6824  0.0291
                                           -0.0002 -0.0012  0.0000  0.0000  0.0000
                                            0.0000 -0.0294
    12. (0.00084) RY*( 1) C   1           s(  0.00%)p 1.00( 64.31%)d 0.55( 35.69%)
                                            0.0000 -0.0000 -0.0000  0.0000 -0.0000
                                           -0.0164  0.7968  0.0886  0.0056  0.0000
                                            0.0000  0.0000  0.0000  0.0000 -0.0000
                                            0.0000  0.0000 -0.0939 -0.5900 -0.0000
                                           -0.0000  0.0000
    13. (0.00084) RY*( 2) C   1           s(  0.00%)p 1.00( 64.31%)d 0.55( 35.69%)
                                           -0.0000  0.0000 -0.0000  0.0000 -0.0000
                                            0.0000  0.0000 -0.0000 -0.0000 -0.0164
                                            0.7968  0.0886  0.0056 -0.0000  0.0000
                                           -0.0000  0.0000 -0.0000 -0.0000 -0.5900
                                           -0.0939 -0.0000
    14. (0.00046) RY*( 3) C   1           s( 28.53%)p 2.45( 70.02%)d 0.05(  1.45%)
                                            0.0000  0.0001  0.5305  0.0292 -0.0542
                                           -0.0000 -0.0000  0.0000  0.0000 -0.0000
                                           -0.0000  0.0000  0.0000 -0.0297 -0.7292
                                            0.4094  0.0010  0.0000  0.0000  0.0000
                                            0.0000  0.1205
    15. (0.00010) RY*( 4) C   1           s( 11.13%)p 5.28( 58.78%)d 2.70( 30.09%)
                                            0.0000  0.0016  0.1529  0.2965  0.0013
                                            0.0000  0.0000  0.0000  0.0000 -0.0000
                                           -0.0000  0.0000  0.0000 -0.0097  0.5256
                                            0.5546  0.0618 -0.0000 -0.0000  0.0000
                                            0.0000  0.5486
    16. (0.00003) RY*( 5) C   1           s( 16.14%)p 3.47( 55.96%)d 1.73( 27.90%)
    17. (0.00000) RY*( 6) C   1           s(  0.00%)p 1.00(100.00%)d 0.00(  0.00%)
    18. (0.00000) RY*( 7) C   1           s( 98.91%)p 0.01(  0.77%)d 0.00(  0.32%)
    19. (0.00000) RY*( 8) C   1           s(  0.00%)p 1.00(100.00%)
    20. (0.00000) RY*( 9) C   1           s(  0.00%)p 1.00(100.00%)d 0.00(  0.00%)
    21. (0.00000) RY*(10) C   1           s( 89.15%)p 0.03(  2.86%)d 0.09(  7.99%)
    22. (0.00000) RY*(11) C   1           s( 43.27%)p 1.12( 48.59%)d 0.19(  8.14%)
    23. (0.00000) RY*(12) C   1           s( 12.84%)p 4.92( 63.16%)d 1.87( 24.00%)
    24. (0.00000) RY*(13) C   1           s(  0.00%)p 1.00(  1.41%)d70.01( 98.59%)
    25. (0.00000) RY*(14) C   1           s(  0.00%)p 1.00( 34.35%)d 1.91( 65.65%)
    26. (0.00000) RY*(15) C   1           s(  0.00%)p 1.00( 35.13%)d 1.85( 64.87%)
    27. (0.00000) RY*(16) C   1           s(  0.00%)p 1.00(  0.63%)d99.99( 99.37%)
    28. (0.00000) RY*(17) C   1           s(  0.00%)p 1.00(100.00%)
    29. (0.01892) RY*( 1) C   2           s( 19.29%)p 4.18( 80.54%)d 0.01(  0.18%)
                                            0.0000  0.0352  0.4370 -0.0199 -0.0153
                                           -0.0000 -0.0000 -0.0000 -0.0000 -0.0000
                                           -0.0000 -0.0000 -0.0000  0.0692 -0.8938
                                           -0.0217 -0.0345 -0.0000 -0.0000 -0.0000
                                           -0.0000  0.0421
    30. (0.00131) RY*( 2) C   2           s(  0.00%)p 1.00( 63.99%)d 0.56( 36.01%)
                                            0.0000  0.0000  0.0000  0.0000  0.0000
                                            0.0000  0.0000  0.0000  0.0000  0.0332
                                            0.7739  0.0740 -0.1857  0.0000  0.0000
                                            0.0000  0.0000  0.0000  0.0000 -0.5883
                                           -0.1181  0.0000
    31. (0.00131) RY*( 3) C   2           s(  0.00%)p 1.00( 63.99%)d 0.56( 36.01%)
                                            0.0000  0.0000  0.0000  0.0000  0.0000
                                            0.0332  0.7739  0.0740 -0.1857  0.0000
                                            0.0000  0.0000  0.0000  0.0000  0.0000
                                            0.0000  0.0000 -0.1181 -0.5883  0.0000
                                            0.0000  0.0000
    32. (0.00046) RY*( 4) C   2           s( 63.09%)p 0.43( 27.12%)d 0.16(  9.79%)
                                            0.0000 -0.0077  0.7591  0.2274 -0.0534
                                            0.0000  0.0000  0.0000  0.0000  0.0000
                                            0.0000  0.0000  0.0000  0.0364  0.3623
                                            0.1946 -0.3173  0.0000  0.0000  0.0000
                                            0.0000 -0.3129
    33. (0.00003) RY*( 5) C   2           s( 63.10%)p 0.58( 36.68%)d 0.00(  0.22%)
    34. (0.00004) RY*( 6) C   2           s(  7.74%)p 6.06( 46.90%)d 5.86( 45.37%)
    35. (0.00000) RY*( 7) C   2           s( 93.73%)p 0.05(  4.85%)d 0.02(  1.43%)
    36. (0.00000) RY*( 8) C   2           s(  0.00%)p 1.00( 99.79%)d 0.00(  0.21%)
    37. (0.00000) RY*( 9) C   2           s(  0.00%)p 1.00( 98.71%)d 0.01(  1.29%)
    38. (0.00000) RY*(10) C   2           s(  0.00%)p 1.00( 99.79%)d 0.00(  0.21%)
    39. (0.00000) RY*(11) C   2           s(  0.00%)p 1.00( 98.71%)d 0.01(  1.29%)
    40. (0.00000) RY*(12) C   2           s( 34.83%)p 1.87( 65.14%)d 0.00(  0.03%)
    41. (0.00000) RY*(13) C   2           s(  0.00%)p 1.00(  2.28%)d42.92( 97.72%)
    42. (0.00000) RY*(14) C   2           s(  0.00%)p 1.00( 35.30%)d 1.83( 64.70%)
    43. (0.00000) RY*(15) C   2           s(  0.00%)p 1.00( 36.66%)d 1.73( 63.34%)
    44. (0.00000) RY*(16) C   2           s(  0.00%)p 1.00(  0.92%)d99.99( 99.08%)
    45. (0.00000) RY*(17) C   2           s( 18.00%)p 2.17( 39.05%)d 2.39( 42.95%)
    46. (0.00175) RY*( 1) N   3           s( 89.51%)p 0.10(  8.98%)d 0.02(  1.51%)
                                            0.0000  0.0149  0.9452  0.0152 -0.0369
                                            0.0000  0.0000  0.0000  0.0000  0.0000
                                            0.0000  0.0000  0.0000 -0.0559  0.0354
                                            0.2921 -0.0061  0.0000  0.0000  0.0000
                                            0.0000 -0.1229
    47. (0.00028) RY*( 2) N   3           s(  0.72%)p99.99( 81.83%)d24.23( 17.45%)
                                           -0.0000 -0.0363  0.0292  0.0708 -0.0047
                                            0.0000  0.0000  0.0000  0.0000  0.0000
                                            0.0000  0.0000  0.0000  0.0174  0.9028
                                           -0.0262  0.0475  0.0000  0.0000  0.0000
                                            0.0000  0.4177
    48. (0.00011) RY*( 3) N   3           s(  0.00%)p 1.00( 86.70%)d 0.15( 13.30%)
                                            0.0000  0.0000  0.0000  0.0000  0.0000
                                            0.0000  0.0000  0.0000  0.0000 -0.0092
                                            0.8852  0.0007  0.2886  0.0000  0.0000
                                            0.0000  0.0000  0.0000  0.0000 -0.3607
                                            0.0537  0.0000
    49. (0.00011) RY*( 4) N   3           s(  0.00%)p 1.00( 86.70%)d 0.15( 13.30%)
                                            0.0000  0.0000  0.0000  0.0000  0.0000
                                           -0.0092  0.8852  0.0007  0.2886  0.0000
                                            0.0000  0.0000  0.0000  0.0000  0.0000
                                            0.0000  0.0000  0.0537 -0.3607  0.0000
                                            0.0000  0.0000
    50. (0.00003) RY*( 5) N   3           s( 35.51%)p 1.67( 59.30%)d 0.15(  5.18%)
    51. (0.00000) RY*( 6) N   3           s(  0.00%)p 1.00( 98.81%)d 0.01(  1.19%)
    52. (0.00000) RY*( 7) N   3           s( 99.95%)p 0.00(  0.05%)d 0.00(  0.00%)
    53. (0.00000) RY*( 8) N   3           s(  0.00%)p 1.00(100.00%)d 0.00(  0.00%)
    54. (0.00000) RY*( 9) N   3           s(  0.00%)p 1.00( 98.81%)d 0.01(  1.19%)
    55. (0.00000) RY*(10) N   3           s( 69.65%)p 0.23( 15.68%)d 0.21( 14.67%)
    56. (0.00000) RY*(11) N   3           s(  0.00%)p 1.00(100.00%)d 0.00(  0.00%)
    57. (0.00000) RY*(12) N   3           s(  0.23%)p99.99( 99.62%)d 0.67(  0.15%)
    58. (0.00000) RY*(13) N   3           s(  0.00%)p 1.00(  0.25%)d99.99( 99.75%)
    59. (0.00000) RY*(14) N   3           s(  0.00%)p 1.00( 14.57%)d 5.86( 85.43%)
    60. (0.00000) RY*(15) N   3           s(  0.00%)p 1.00( 14.57%)d 5.86( 85.43%)
    61. (0.00000) RY*(16) N   3           s(  0.00%)p 1.00(  0.25%)d99.99( 99.75%)
    62. (0.00000) RY*(17) N   3           s(  4.32%)p 8.14( 35.14%)d14.02( 60.54%)
    63. (0.00095) RY*( 1) H   4           s( 94.92%)p 0.05(  5.08%)
                                           -0.0032  0.9740  0.0206  0.0110  0.0000
                                           -0.0129  0.2249
    64. (0.00023) RY*( 2) H   4           s( 64.84%)p 0.54( 35.16%)
                                            0.0018 -0.1268  0.7802  0.1536  0.0000
                                            0.3345  0.4896
    65. (0.00010) RY*( 3) H   4           s(  0.00%)p 1.00(100.00%)
                                            0.0000  0.0000  0.0000  0.0000  1.0000
                                            0.0000  0.0000
    66. (0.00009) RY*( 4) H   4           s( 71.19%)p 0.40( 28.81%)
    67. (0.00002) RY*( 5) H   4           s( 25.05%)p 2.99( 74.95%)
    68. (0.00000) RY*( 6) H   4           s( 44.04%)p 1.27( 55.96%)
    69. (0.00095) RY*( 1) H   5           s( 94.92%)p 0.05(  5.08%)
                                           -0.0032  0.9740  0.0206  0.0110 -0.0112
                                            0.0065  0.2249
    70. (0.00023) RY*( 2) H   5           s( 64.84%)p 0.54( 35.16%)
                                            0.0018 -0.1268  0.7802  0.1536  0.2897
                                           -0.1673  0.4896
    71. (0.00010) RY*( 3) H   5           s(  0.00%)p 1.00(100.00%)
                                            0.0000 -0.0000 -0.0000  0.0000  0.5000
                                            0.8660  0.0000
    72. (0.00009) RY*( 4) H   5           s( 71.19%)p 0.40( 28.81%)
    73. (0.00002) RY*( 5) H   5           s( 25.05%)p 2.99( 74.95%)
    74. (0.00000) RY*( 6) H   5           s( 44.04%)p 1.27( 55.96%)
    75. (0.00095) RY*( 1) H   6           s( 94.92%)p 0.05(  5.08%)
                                           -0.0032  0.9740  0.0206  0.0110  0.0112
                                            0.0065  0.2249
    76. (0.00023) RY*( 2) H   6           s( 64.84%)p 0.54( 35.16%)
                                            0.0018 -0.1268  0.7802  0.1536 -0.2897
                                           -0.1673  0.4896
    77. (0.00010) RY*( 3) H   6           s(  0.00%)p 1.00(100.00%)
                                            0.0000 -0.0000 -0.0000  0.0000 -0.5000
                                            0.8660  0.0000
    78. (0.00009) RY*( 4) H   6           s( 71.19%)p 0.40( 28.81%)
    79. (0.00002) RY*( 5) H   6           s( 25.05%)p 2.99( 74.95%)
    80. (0.00000) RY*( 6) H   6           s( 44.04%)p 1.27( 55.96%)
    81. (0.01620) BD*( 1) C   1 - C   2  
                ( 49.71%)   0.7051* C   1 s( 27.48%)p 2.64( 72.44%)d 0.00(  0.08%)
                                           -0.0001 -0.5239 -0.0165  0.0005 -0.0006
                                           -0.0000 -0.0000 -0.0000 -0.0000  0.0000
                                            0.0000 -0.0000 -0.0000 -0.8509  0.0186
                                            0.0010  0.0000  0.0000  0.0000 -0.0000
                                           -0.0000 -0.0281
                ( 50.29%)  -0.7091* C   2 s( 52.88%)p 0.89( 47.10%)d 0.00(  0.03%)
                                            0.0000 -0.7259 -0.0431 -0.0007 -0.0013
                                           -0.0000 -0.0000 -0.0000 -0.0000 -0.0000
                                           -0.0000 -0.0000 -0.0000  0.6860  0.0032
                                           -0.0208 -0.0005 -0.0000 -0.0000 -0.0000
                                           -0.0000 -0.0160
    82. (0.00837) BD*( 1) C   1 - H   4  
                ( 38.06%)   0.6169* C   1 s( 24.19%)p 3.13( 75.76%)d 0.00(  0.05%)
                                            0.0002 -0.4918  0.0045 -0.0002  0.0002
                                            0.0000  0.0000 -0.0000 -0.0000 -0.8162
                                           -0.0085  0.0000  0.0000  0.3022 -0.0065
                                            0.0018 -0.0001 -0.0000 -0.0000  0.0081
                                            0.0192  0.0100
                ( 61.94%)  -0.7870* H   4 s( 99.96%)p 0.00(  0.04%)
                                           -0.9998 -0.0012 -0.0005  0.0000 -0.0000
                                            0.0180 -0.0081
    83. (0.00837) BD*( 1) C   1 - H   5  
                ( 38.06%)   0.6169* C   1 s( 24.19%)p 3.13( 75.76%)d 0.00(  0.05%)
                                            0.0002 -0.4918  0.0045 -0.0002  0.0002
                                           -0.7068 -0.0073  0.0000  0.0000  0.4081
                                            0.0042 -0.0000 -0.0000  0.3022 -0.0065
                                            0.0018 -0.0001  0.0167  0.0070 -0.0041
                                           -0.0096  0.0100
                ( 61.94%)  -0.7870* H   5 s( 99.96%)p 0.00(  0.04%)
                                           -0.9998 -0.0012 -0.0005  0.0000  0.0156
                                           -0.0090 -0.0081
    84. (0.00837) BD*( 1) C   1 - H   6  
                ( 38.06%)   0.6169* C   1 s( 24.19%)p 3.13( 75.76%)d 0.00(  0.05%)
                                            0.0002 -0.4918  0.0045 -0.0002  0.0002
                                            0.7068  0.0073 -0.0000 -0.0000  0.4081
                                            0.0042 -0.0000 -0.0000  0.3022 -0.0065
                                            0.0018 -0.0001 -0.0167 -0.0070 -0.0041
                                           -0.0096  0.0100
                ( 61.94%)  -0.7870* H   6 s( 99.96%)p 0.00(  0.04%)
                                           -0.9998 -0.0012 -0.0005  0.0000 -0.0156
                                           -0.0090 -0.0081
    85. (0.01094) BD*( 1) C   2 - N   3  
                ( 57.48%)   0.7582* C   2 s( 47.35%)p 1.11( 52.63%)d 0.00(  0.02%)
                                           -0.0001  0.6863 -0.0497 -0.0016 -0.0017
                                            0.0000  0.0000  0.0000  0.0000  0.0000
                                            0.0000  0.0000  0.0000  0.7230  0.0597
                                           -0.0053 -0.0018  0.0000  0.0000  0.0000
                                            0.0000  0.0135
                ( 42.52%)  -0.6521* N   3 s( 46.84%)p 1.13( 52.75%)d 0.01(  0.41%)
                                            0.0000  0.6829 -0.0458  0.0006 -0.0007
                                            0.0000  0.0000  0.0000  0.0000  0.0000
                                            0.0000  0.0000  0.0000 -0.7261  0.0130
                                           -0.0004  0.0051  0.0000  0.0000  0.0000
                                            0.0000  0.0641
    86. (0.03572) BD*( 2) C   2 - N   3  
                ( 54.90%)   0.7410* C   2 s(  0.00%)p 1.00( 99.93%)d 0.00(  0.07%)
                                            0.0000  0.0000  0.0000  0.0000  0.0000
                                            0.9993 -0.0225  0.0100  0.0023  0.0000
                                            0.0000  0.0000  0.0000  0.0000  0.0000
                                            0.0000  0.0000  0.0007  0.0272  0.0000
                                            0.0000  0.0000
                ( 45.10%)  -0.6716* N   3 s(  0.00%)p 1.00( 99.67%)d 0.00(  0.33%)
                                            0.0000  0.0000  0.0000  0.0000  0.0000
                                            0.9983 -0.0138  0.0003  0.0023  0.0000
                                            0.0000  0.0000  0.0000  0.0000  0.0000
                                            0.0000  0.0000  0.0002 -0.0574  0.0000
                                            0.0000  0.0000
    87. (0.03572) BD*( 3) C   2 - N   3  
                ( 54.90%)   0.7410* C   2 s(  0.00%)p 1.00( 99.93%)d 0.00(  0.07%)
                                            0.0000  0.0000  0.0000  0.0000  0.0000
                                            0.0000  0.0000  0.0000  0.0000  0.9993
                                           -0.0225  0.0100  0.0023  0.0000  0.0000
                                            0.0000  0.0000  0.0000  0.0000  0.0272
                                            0.0007  0.0000
                ( 45.10%)  -0.6716* N   3 s(  0.00%)p 1.00( 99.67%)d 0.00(  0.33%)
                                            0.0000  0.0000  0.0000  0.0000  0.0000
                                            0.0000  0.0000  0.0000  0.0000  0.9983
                                           -0.0138  0.0003  0.0023  0.0000  0.0000
                                            0.0000  0.0000  0.0000  0.0000 -0.0574
                                            0.0002  0.0000


 NHO Directionality and "Bond Bending" (deviations from line of nuclear centers)

         [Thresholds for printing:  angular deviation  >  1.0 degree]
                                    hybrid p-character > 25.0%
                                    orbital occupancy  >  0.10e

                                Line of Centers        Hybrid 1              Hybrid 2
                                ---------------  -------------------   ------------------
                NBO               Theta   Phi    Theta   Phi    Dev    Theta   Phi    Dev
 ========================================================================================
     6. BD (   2) C   2 - N   3     0.0    0.0    90.0    0.0  90.0     90.0    0.0  90.0
     7. BD (   3) C   2 - N   3     0.0    0.0    90.0   90.0  90.0     90.0   90.0  90.0
    11. LP (   1) N   3             --     --      0.0    0.0   --       --     --    --


 Second Order Perturbation Theory Analysis of Fock Matrix in NBO Basis

     Threshold for printing:   0.50 kcal/mol
                                                                              E(2)  E(j)-E(i) F(i,j)
         Donor NBO (i)                     Acceptor NBO (j)                 kcal/mol   a.u.    a.u. 
 ===================================================================================================

 within unit  1
   1. BD (   1) C   1 - C   2        / 46. RY*(   1) N   3                    1.79    2.22    0.056
   1. BD (   1) C   1 - C   2        / 85. BD*(   1) C   2 - N   3            5.77    1.67    0.088
   2. BD (   1) C   1 - H   4        / 30. RY*(   2) C   2                    0.73    1.61    0.031
   2. BD (   1) C   1 - H   4        / 85. BD*(   1) C   2 - N   3            3.67    1.49    0.066
   2. BD (   1) C   1 - H   4        / 87. BD*(   3) C   2 - N   3            6.90    0.65    0.060
   3. BD (   1) C   1 - H   5        / 31. RY*(   3) C   2                    0.55    1.61    0.027
   3. BD (   1) C   1 - H   5        / 85. BD*(   1) C   2 - N   3            3.67    1.49    0.066
   3. BD (   1) C   1 - H   5        / 86. BD*(   2) C   2 - N   3            5.18    0.65    0.052
   3. BD (   1) C   1 - H   5        / 87. BD*(   3) C   2 - N   3            1.73    0.65    0.030
   4. BD (   1) C   1 - H   6        / 31. RY*(   3) C   2                    0.55    1.61    0.027
   4. BD (   1) C   1 - H   6        / 85. BD*(   1) C   2 - N   3            3.67    1.49    0.066
   4. BD (   1) C   1 - H   6        / 86. BD*(   2) C   2 - N   3            5.18    0.65    0.052
   4. BD (   1) C   1 - H   6        / 87. BD*(   3) C   2 - N   3            1.73    0.65    0.030
   5. BD (   1) C   2 - N   3        / 29. RY*(   1) C   2                    1.24    2.01    0.045
   5. BD (   1) C   2 - N   3        / 81. BD*(   1) C   1 - C   2            4.70    1.49    0.075
   6. BD (   2) C   2 - N   3        / 12. RY*(   1) C   1                    0.70    1.17    0.026
   6. BD (   2) C   2 - N   3        / 83. BD*(   1) C   1 - H   5            2.13    0.72    0.035
   6. BD (   2) C   2 - N   3        / 84. BD*(   1) C   1 - H   6            2.13    0.72    0.035
   7. BD (   3) C   2 - N   3        / 13. RY*(   2) C   1                    0.70    1.17    0.026
   7. BD (   3) C   2 - N   3        / 82. BD*(   1) C   1 - H   4            2.84    0.72    0.040
   7. BD (   3) C   2 - N   3        / 83. BD*(   1) C   1 - H   5            0.71    0.72    0.020
   7. BD (   3) C   2 - N   3        / 84. BD*(   1) C   1 - H   6            0.71    0.72    0.020
   8. CR (   1) C   1                / 29. RY*(   1) C   2                    1.22   11.03    0.104
   8. CR (   1) C   1                / 85. BD*(   1) C   2 - N   3            3.11   11.02    0.166
   9. CR (   1) C   2                / 14. RY*(   3) C   1                    1.47   11.27    0.115
   9. CR (   1) C   2                / 47. RY*(   2) N   3                    1.73   10.98    0.123
   9. CR (   1) C   2                / 85. BD*(   1) C   2 - N   3            0.91   11.02    0.089
  10. CR (   1) N   3                / 29. RY*(   1) C   2                    7.42   15.00    0.299
  10. CR (   1) N   3                / 81. BD*(   1) C   1 - C   2            4.29   14.49    0.223
  11. LP (   1) N   3                / 29. RY*(   1) C   2                   19.23    1.46    0.150
  11. LP (   1) N   3                / 40. RY*(  12) C   2                    1.67    7.73    0.102
  11. LP (   1) N   3                / 46. RY*(   1) N   3                    0.74    2.00    0.035
  11. LP (   1) N   3                / 81. BD*(   1) C   1 - C   2           10.60    0.94    0.090


 Natural Bond Orbitals (Summary):

                                                            Principal Delocalizations
           NBO                        Occupancy    Energy   (geminal,vicinal,remote)
 ====================================================================================
 Molecular unit  1  (C2H3N)
     1. BD (   1) C   1 - C   2          1.99373    -0.73705  85(g),46(v)
     2. BD (   1) C   1 - H   4          1.97104    -0.55007  87(v),85(v),30(v)
     3. BD (   1) C   1 - H   5          1.97104    -0.55007  86(v),85(v),87(v),31(v)
     4. BD (   1) C   1 - H   6          1.97104    -0.55007  86(v),85(v),87(v),31(v)
     5. BD (   1) C   2 - N   3          1.99691    -1.06572  81(g),29(g)
     6. BD (   2) C   2 - N   3          1.98698    -0.35195  83(v),84(v),12(v)
     7. BD (   3) C   2 - N   3          1.98698    -0.35195  82(v),83(v),84(v),13(v)
     8. CR (   1) C   1                  1.99917   -10.08697  85(v),29(v)
     9. CR (   1) C   2                  1.99935   -10.08905  47(v),14(v),85(g)
    10. CR (   1) N   3                  1.99958   -14.05806  29(v),81(v)
    11. LP (   1) N   3                  1.96970    -0.51742  29(v),81(v),40(v),46(g)
    12. RY*(   1) C   1                  0.00084     0.82171   
    13. RY*(   2) C   1                  0.00084     0.82171   
    14. RY*(   3) C   1                  0.00046     1.18213   
    15. RY*(   4) C   1                  0.00010     3.18006   
    16. RY*(   5) C   1                  0.00003     1.63628   
    17. RY*(   6) C   1                  0.00000     0.42069   
    18. RY*(   7) C   1                  0.00000     0.43450   
    19. RY*(   8) C   1                  0.00000     2.88326   
    20. RY*(   9) C   1                  0.00000     0.42069   
    21. RY*(  10) C   1                  0.00000    20.16564   
    22. RY*(  11) C   1                  0.00000     3.18765   
    23. RY*(  12) C   1                  0.00000     1.12757   
    24. RY*(  13) C   1                  0.00000     2.03568   
    25. RY*(  14) C   1                  0.00000     1.52658   
    26. RY*(  15) C   1                  0.00000     1.55227   
    27. RY*(  16) C   1                  0.00000     2.00999   
    28. RY*(  17) C   1                  0.00000     2.88326   
    29. RY*(   1) C   2                  0.01892     0.93946   
    30. RY*(   2) C   2                  0.00131     1.06189   
    31. RY*(   3) C   2                  0.00131     1.06189   
    32. RY*(   4) C   2                  0.00046     1.57534   
    33. RY*(   5) C   2                  0.00003     4.30336   
    34. RY*(   6) C   2                  0.00004     4.43074   
    35. RY*(   7) C   2                  0.00000    11.18886   
    36. RY*(   8) C   2                  0.00000     0.41339   
    37. RY*(   9) C   2                  0.00000     2.56119   
    38. RY*(  10) C   2                  0.00000     0.41339   
    39. RY*(  11) C   2                  0.00000     2.56119   
    40. RY*(  12) C   2                  0.00000     7.21018   
    41. RY*(  13) C   2                  0.00000     1.36299   
    42. RY*(  14) C   2                  0.00000     1.65976   
    43. RY*(  15) C   2                  0.00000     1.64324   
    44. RY*(  16) C   2                  0.00000     1.37950   
    45. RY*(  17) C   2                  0.00000     1.82604   
    46. RY*(   1) N   3                  0.00175     1.48070   
    47. RY*(   2) N   3                  0.00028     0.89205   
    48. RY*(   3) N   3                  0.00011     0.76628   
    49. RY*(   4) N   3                  0.00011     0.76628   
    50. RY*(   5) N   3                  0.00003     2.64967   
    51. RY*(   6) N   3                  0.00000     2.07687   
    52. RY*(   7) N   3                  0.00000    35.04061   
    53. RY*(   8) N   3                  0.00000     2.41675   
    54. RY*(   9) N   3                  0.00000     2.07687   
    55. RY*(  10) N   3                  0.00000     1.33808   
    56. RY*(  11) N   3                  0.00000     2.41675   
    57. RY*(  12) N   3                  0.00000     1.74232   
    58. RY*(  13) N   3                  0.00000     1.96933   
    59. RY*(  14) N   3                  0.00000     1.80864   
    60. RY*(  15) N   3                  0.00000     1.80865   
    61. RY*(  16) N   3                  0.00000     1.96933   
    62. RY*(  17) N   3                  0.00000     2.85606   
    63. RY*(   1) H   4                  0.00095     0.60080   
    64. RY*(   2) H   4                  0.00023     1.42451   
    65. RY*(   3) H   4                  0.00010     1.70561   
    66. RY*(   4) H   4                  0.00009     1.92283   
    67. RY*(   5) H   4                  0.00002     1.96938   
    68. RY*(   6) H   4                  0.00000     1.27031   
    69. RY*(   1) H   5                  0.00095     0.60080   
    70. RY*(   2) H   5                  0.00023     1.42451   
    71. RY*(   3) H   5                  0.00010     1.70561   
    72. RY*(   4) H   5                  0.00009     1.92283   
    73. RY*(   5) H   5                  0.00002     1.96938   
    74. RY*(   6) H   5                  0.00000     1.27031   
    75. RY*(   1) H   6                  0.00095     0.60080   
    76. RY*(   2) H   6                  0.00023     1.42451   
    77. RY*(   3) H   6                  0.00010     1.70561   
    78. RY*(   4) H   6                  0.00009     1.92283   
    79. RY*(   5) H   6                  0.00002     1.96938   
    80. RY*(   6) H   6                  0.00000     1.27031   
    81. BD*(   1) C   1 - C   2          0.01620     0.42710   
    82. BD*(   1) C   1 - H   4          0.00837     0.36671   
    83. BD*(   1) C   1 - H   5          0.00837     0.36671   
    84. BD*(   1) C   1 - H   6          0.00837     0.36671   
    85. BD*(   1) C   2 - N   3          0.01094     0.93582   
    86. BD*(   2) C   2 - N   3          0.03572     0.09494   
    87. BD*(   3) C   2 - N   3          0.03572     0.09494   
       -------------------------------
              Total Lewis   21.84552  ( 99.2978%)
        Valence non-Lewis    0.12368  (  0.5622%)
        Rydberg non-Lewis    0.03080  (  0.1400%)
       -------------------------------
            Total unit  1   22.00000  (100.0000%)
           Charge unit  1    0.00000
 Unable to Open any file for archive entry.
 1\1\GINC-CCC131\FOpt\RB3LYP\6-311++G(d,p)\C2H3N1\ROOT\12-Jun-2024\0\\#
  opt freq b3lyp/6-311++g(d,p) pop=nbo geom=connectivity\\CC#N\\0,1\C,-
 0.4884761373,0.0059174645,0.0207087021\C,0.9662722269,-0.011705548,-0.
 0409646466\N,2.1177572181,-0.0256547883,-0.0897812922\H,-0.904837702,-
 0.7115322695,-0.6893026682\H,-0.826677218,-0.2580729186,1.0247686235\H
 ,-0.8644248191,1.0010527442,-0.2254123718\\Version=ES64L-G16RevC.02\St
 ate=1-A1\HF=-132.7962005\RMSD=7.959e-09\RMSF=8.890e-05\Dipole=-1.59323
 93,0.0193007,0.0675446\Quadrupole=-1.642299,0.8231845,0.8191145,0.0298
 716,0.1045383,-0.0012664\PG=C03V [C3(C1C1N1),3SGV(H1)]\\@
 The archive entry for this job was punched.


 ACTORS ARE SO FORTUNATE.  THEY CAN CHOOSE WHETHER
 THEY WILL APPEAR IN A TRAGEDY OR IN COMEDY,
 WHETHER THEY WILL SUFFER OF MAKE MERRY,
 LAUGH OR SHED TEARS.  BUT IN REAL LIFE IT IS DIFFERENT.
 MOST MEN AND WOMEN ARE FORCED TO PERFORM
 PARTS FOR WHICH THEY HAVE NO QUALIFICATIONS.
 THE WORLD IS A STAGE, BUT THE PLAY IS BADLY CAST.

                                   -- OSCAR WILDE
 Job cpu time:       0 days  0 hours  0 minutes 42.9 seconds.
 Elapsed time:       0 days  0 hours  0 minutes 11.8 seconds.
 File lengths (MBytes):  RWF=     10 Int=      0 D2E=      0 Chk=      2 Scr=      1
 Normal termination of Gaussian 16 at Wed Jun 12 21:54:31 2024.
 Link1:  Proceeding to internal job step number  2.
 ----------------------------------------------------------------------
 #N Geom=AllCheck Guess=TCheck SCRF=Check GenChk RB3LYP/6-311++G(d,p) F
 req
 ----------------------------------------------------------------------
 1/10=4,29=7,30=1,38=1,40=1/1,3;
 2/12=2,40=1/2;
 3/5=4,6=6,7=1111,11=2,14=-4,25=1,30=1,70=2,71=2,74=-5,116=1,140=1/1,2,3;
 4/5=101/1;
 5/5=2,38=6,98=1/2;
 8/6=4,10=90,11=11/1;
 11/6=1,8=1,9=11,15=111,16=1/1,2,10;
 10/6=1/2;
 6/7=2,8=2,9=2,10=2,28=1,40=1/1,7;
 7/8=1,10=1,25=1/1,2,3,16;
 1/10=4,30=1/3;
 99//99;
 Structure from the checkpoint file:  "CC#N.chk"
 ----
 CC#N
 ----
 Charge =  0 Multiplicity = 1
 Redundant internal coordinates found in file.  (old form).
 C,0,-0.4884761373,0.0059174645,0.0207087021
 C,0,0.9662722269,-0.011705548,-0.0409646466
 N,0,2.1177572181,-0.0256547883,-0.0897812922
 H,0,-0.904837702,-0.7115322695,-0.6893026682
 H,0,-0.826677218,-0.2580729186,1.0247686235
 H,0,-0.8644248191,1.0010527442,-0.2254123718
 Recover connectivity data from disk.

 GradGradGradGradGradGradGradGradGradGradGradGradGradGradGradGradGradGrad
 Berny optimization.
 Initialization pass.
                           ----------------------------
                           !    Initial Parameters    !
                           ! (Angstroms and Degrees)  !
 --------------------------                            --------------------------
 ! Name  Definition              Value          Derivative Info.                !
 --------------------------------------------------------------------------------
 ! R1    R(1,2)                  1.4562         calculate D2E/DX2 analytically  !
 ! R2    R(1,4)                  1.0919         calculate D2E/DX2 analytically  !
 ! R3    R(1,5)                  1.0919         calculate D2E/DX2 analytically  !
 ! R4    R(1,6)                  1.0919         calculate D2E/DX2 analytically  !
 ! R5    R(2,3)                  1.1526         calculate D2E/DX2 analytically  !
 ! A1    A(2,1,4)              110.21           calculate D2E/DX2 analytically  !
 ! A2    A(2,1,5)              110.21           calculate D2E/DX2 analytically  !
 ! A3    A(2,1,6)              110.21           calculate D2E/DX2 analytically  !
 ! A4    A(4,1,5)              108.7225         calculate D2E/DX2 analytically  !
 ! A5    A(4,1,6)              108.7225         calculate D2E/DX2 analytically  !
 ! A6    A(5,1,6)              108.7225         calculate D2E/DX2 analytically  !
 ! A7    L(1,2,3,4,-1)         180.0            calculate D2E/DX2 analytically  !
 ! A8    L(1,2,3,4,-2)         180.0            calculate D2E/DX2 analytically  !
 ! D1    D(2,1,5,4)           -120.8945         calculate D2E/DX2 analytically  !
 ! D2    D(2,1,6,4)            120.8945         calculate D2E/DX2 analytically  !
 ! D3    D(2,1,6,5)           -120.8945         calculate D2E/DX2 analytically  !
 ! D4    D(4,1,6,5)            118.2111         calculate D2E/DX2 analytically  !
 --------------------------------------------------------------------------------
 Trust Radius=3.00D-01 FncErr=1.00D-07 GrdErr=1.00D-07 EigMax=2.50D+02 EigMin=1.00D-04
 Number of steps in this run=      2 maximum allowed number of steps=      2.
 GradGradGradGradGradGradGradGradGradGradGradGradGradGradGradGradGradGrad

                          Input orientation:                          
 ---------------------------------------------------------------------
 Center     Atomic      Atomic             Coordinates (Angstroms)
 Number     Number       Type             X           Y           Z
 ---------------------------------------------------------------------
      1          6           0       -0.488476    0.005917    0.020709
      2          6           0        0.966272   -0.011706   -0.040965
      3          7           0        2.117757   -0.025655   -0.089781
      4          1           0       -0.904838   -0.711532   -0.689303
      5          1           0       -0.826677   -0.258073    1.024769
      6          1           0       -0.864425    1.001053   -0.225412
 ---------------------------------------------------------------------
                    Distance matrix (angstroms):
                    1          2          3          4          5
     1  C    0.000000
     2  C    1.456162   0.000000
     3  N    2.608765   1.152604   0.000000
     4  H    1.091882   2.100274   3.156887   0.000000
     5  H    1.091882   2.100274   3.156887   1.774761   0.000000
     6  H    1.091882   2.100274   3.156887   1.774761   1.774761
                    6
     6  H    0.000000
 Stoichiometry    C2H3N
 Framework group  C3V[C3(CCN),3SGV(H)]
 Deg. of freedom     4
 Full point group                 C3V     NOp   6
 Largest Abelian subgroup         CS      NOp   2
 Largest concise Abelian subgroup CS      NOp   2
                         Standard orientation:                         
 ---------------------------------------------------------------------
 Center     Atomic      Atomic             Coordinates (Angstroms)
 Number     Number       Type             X           Y           Z
 ---------------------------------------------------------------------
      1          6           0        0.000000   -0.000000   -1.175760
      2          6           0       -0.000000    0.000000    0.280402
      3          7           0       -0.000000    0.000000    1.433005
      4          1           0       -0.000000    1.024658   -1.552963
      5          1           0        0.887380   -0.512329   -1.552963
      6          1           0       -0.887380   -0.512329   -1.552963
 ---------------------------------------------------------------------
 Rotational constants (GHZ):         159.2034765           9.2484156           9.2484156
 Standard basis: 6-311++G(d,p) (5D, 7F)
 There are    64 symmetry adapted cartesian basis functions of A'  symmetry.
 There are    26 symmetry adapted cartesian basis functions of A"  symmetry.
 There are    61 symmetry adapted basis functions of A'  symmetry.
 There are    26 symmetry adapted basis functions of A"  symmetry.
    87 basis functions,   135 primitive gaussians,    90 cartesian basis functions
    11 alpha electrons       11 beta electrons
       nuclear repulsion energy        58.5584474338 Hartrees.
 NAtoms=    6 NActive=    6 NUniq=    4 SFac= 2.25D+00 NAtFMM=   60 NAOKFM=F Big=F
 Integral buffers will be    131072 words long.
 Raffenetti 2 integral format.
 Two-electron integral symmetry is turned on.
 One-electron integrals computed using PRISM.
 NBasis=    87 RedAO= T EigKep=  4.76D-05  NBF=    61    26
 NBsUse=    87 1.00D-06 EigRej= -1.00D+00 NBFU=    61    26
 Initial guess from the checkpoint file:  "CC#N.chk"
 B after Tr=    -0.000000    0.000000   -0.000000
         Rot=    1.000000    0.000000    0.000000    0.000000 Ang=   0.00 deg.
 Initial guess orbital symmetries:
       Occupied  (A1) (A1) (A1) (A1) (A1) (A1) (E) (E) (A1) (E)
                 (E)
       Virtual   (A1) (E) (E) (A1) (E) (E) (A1) (E) (E) (E) (E)
                 (A1) (A1) (E) (E) (A1) (E) (E) (A1) (A1) (A1)
                 (E) (E) (A1) (E) (E) (E) (E) (A1) (A1) (A1) (A1)
                 (E) (E) (A1) (E) (E) (A1) (E) (E) (A2) (A1) (E)
                 (E) (E) (E) (A1) (E) (E) (A1) (E) (E) (E) (E)
                 (A1) (E) (E) (E) (E) (A1) (E) (E) (A1) (E) (E)
                 (A1) (A1) (E) (E) (A1) (E) (E) (A1) (A1) (A1)
                 (A1)
 Keep R1 ints in memory in symmetry-blocked form, NReq=14652093.
 Requested convergence on RMS density matrix=1.00D-08 within 128 cycles.
 Requested convergence on MAX density matrix=1.00D-06.
 Requested convergence on             energy=1.00D-06.
 No special actions if energy rises.
 SCF Done:  E(RB3LYP) =  -132.796200471     A.U. after    1 cycles
            NFock=  1  Conv=0.21D-08     -V/T= 2.0044
 DoSCS=F DFT=T ScalE2(SS,OS)=  1.000000  1.000000
 Range of M.O.s used for correlation:     1    87
 NBasis=    87 NAE=    11 NBE=    11 NFC=     0 NFV=     0
 NROrb=     87 NOA=    11 NOB=    11 NVA=    76 NVB=    76

 **** Warning!!: The largest alpha MO coefficient is  0.49535880D+02

 Symmetrizing basis deriv contribution to polar:
 IMax=3 JMax=2 DiffMx= 0.00D+00
 G2DrvN: will do     7 centers at a time, making    1 passes.
 Calling FoFCou, ICntrl=  3107 FMM=F I1Cent=   0 AccDes= 0.00D+00.
 End of G2Drv F.D. properties file   721 does not exist.
 End of G2Drv F.D. properties file   722 does not exist.
 End of G2Drv F.D. properties file   788 does not exist.
          IDoAtm=111111
          Differentiating once with respect to electric field.
                with respect to dipole field.
          Differentiating once with respect to nuclear coordinates.
 Keep R1 ints in memory in symmetry-blocked form, NReq=14629802.
          There are    15 degrees of freedom in the 1st order CPHF.  IDoFFX=4 NUNeed=    15.
     15 vectors produced by pass  0 Test12= 5.57D-15 6.67D-09 XBig12= 3.62D+01 3.09D+00.
 AX will form    15 AO Fock derivatives at one time.
     15 vectors produced by pass  1 Test12= 5.57D-15 6.67D-09 XBig12= 2.58D+01 1.59D+00.
     15 vectors produced by pass  2 Test12= 5.57D-15 6.67D-09 XBig12= 3.56D-01 1.56D-01.
     15 vectors produced by pass  3 Test12= 5.57D-15 6.67D-09 XBig12= 9.15D-04 9.20D-03.
     15 vectors produced by pass  4 Test12= 5.57D-15 6.67D-09 XBig12= 2.57D-06 4.46D-04.
     11 vectors produced by pass  5 Test12= 5.57D-15 6.67D-09 XBig12= 2.98D-09 1.82D-05.
      3 vectors produced by pass  6 Test12= 5.57D-15 6.67D-09 XBig12= 4.42D-12 5.94D-07.
      1 vectors produced by pass  7 Test12= 5.57D-15 6.67D-09 XBig12= 6.13D-15 3.59D-08.
 InvSVY:  IOpt=1 It=  1 EMax= 1.78D-15
 Solved reduced A of dimension    90 with    15 vectors.
 Isotropic polarizability for W=    0.000000       27.09 Bohr**3.
 End of Minotr F.D. properties file   721 does not exist.
 End of Minotr F.D. properties file   722 does not exist.
 End of Minotr F.D. properties file   788 does not exist.

 **********************************************************************

            Population analysis using the SCF Density.

 **********************************************************************

 Orbital symmetries:
       Occupied  (A1) (A1) (A1) (A1) (A1) (A1) (E) (E) (A1) (E)
                 (E)
       Virtual   (A1) (E) (E) (A1) (E) (E) (A1) (E) (E) (E) (E)
                 (A1) (A1) (E) (E) (A1) (E) (E) (A1) (A1) (A1)
                 (E) (E) (A1) (E) (E) (E) (E) (A1) (A1) (A1) (A1)
                 (E) (E) (A1) (E) (E) (A1) (E) (E) (A2) (A1) (E)
                 (E) (E) (E) (A1) (E) (E) (A1) (E) (E) (E) (E)
                 (A1) (E) (E) (E) (E) (A1) (E) (E) (A1) (E) (E)
                 (A1) (A1) (E) (E) (A1) (E) (E) (A1) (A1) (A1)
                 (A1)
 The electronic state is 1-A1.
 Alpha  occ. eigenvalues --  -14.31736 -10.22863 -10.21857  -0.91834  -0.78642
 Alpha  occ. eigenvalues --   -0.52545  -0.47338  -0.47338  -0.37159  -0.34053
 Alpha  occ. eigenvalues --   -0.34053
 Alpha virt. eigenvalues --   -0.02087   0.01263   0.01263   0.03400   0.03446
 Alpha virt. eigenvalues --    0.03446   0.07680   0.09028   0.09028   0.09307
 Alpha virt. eigenvalues --    0.09307   0.10525   0.13405   0.16640   0.16640
 Alpha virt. eigenvalues --    0.19998   0.22600   0.22600   0.24132   0.26547
 Alpha virt. eigenvalues --    0.29324   0.43250   0.43250   0.44360   0.54909
 Alpha virt. eigenvalues --    0.54909   0.60630   0.60630   0.66471   0.70551
 Alpha virt. eigenvalues --    0.73820   0.82162   0.88283   0.88283   0.89857
 Alpha virt. eigenvalues --    1.01965   1.01965   1.07084   1.24284   1.24284
 Alpha virt. eigenvalues --    1.40632   1.41685   1.45170   1.45170   1.53792
 Alpha virt. eigenvalues --    1.53792   1.71880   1.82870   1.82870   1.98742
 Alpha virt. eigenvalues --    2.07099   2.07099   2.17175   2.17175   2.38330
 Alpha virt. eigenvalues --    2.45774   2.45774   2.51069   2.51069   2.57512
 Alpha virt. eigenvalues --    2.78340   2.78340   2.89194   2.89825   2.89825
 Alpha virt. eigenvalues --    3.03594   3.15398   3.76770   3.76770   3.86731
 Alpha virt. eigenvalues --    3.99574   3.99574   4.56697  23.86403  24.32157
 Alpha virt. eigenvalues --   35.85333
          Condensed to atoms (all electrons):
               1          2          3          4          5          6
     1  C    5.338758  -0.202350   0.118371   0.407861   0.407861   0.407861
     2  C   -0.202350   5.606962   0.419547  -0.035197  -0.035197  -0.035197
     3  N    0.118371   0.419547   6.800088  -0.002571  -0.002571  -0.002571
     4  H    0.407861  -0.035197  -0.002571   0.525300  -0.035567  -0.035567
     5  H    0.407861  -0.035197  -0.002571  -0.035567   0.525300  -0.035567
     6  H    0.407861  -0.035197  -0.002571  -0.035567  -0.035567   0.525300
 Mulliken charges:
               1
     1  C   -0.478360
     2  C    0.281432
     3  N   -0.330293
     4  H    0.175740
     5  H    0.175740
     6  H    0.175740
 Sum of Mulliken charges =  -0.00000
 Mulliken charges with hydrogens summed into heavy atoms:
               1
     1  C    0.048860
     2  C    0.281432
     3  N   -0.330293
 APT charges:
               1
     1  C    0.091805
     2  C    0.105882
     3  N   -0.319370
     4  H    0.040561
     5  H    0.040561
     6  H    0.040561
 Sum of APT charges =  -0.00000
 APT charges with hydrogens summed into heavy atoms:
               1
     1  C    0.213488
     2  C    0.105882
     3  N   -0.319370
 Electronic spatial extent (au):  <R**2>=            161.8455
 Charge=             -0.0000 electrons
 Dipole moment (field-independent basis, Debye):
    X=              0.0000    Y=             -0.0000    Z=             -4.0535  Tot=              4.0535
 Quadrupole moment (field-independent basis, Debye-Ang):
   XX=            -17.7781   YY=            -17.7781   ZZ=            -21.1012
   XY=              0.0000   XZ=             -0.0000   YZ=             -0.0000
 Traceless Quadrupole moment (field-independent basis, Debye-Ang):
   XX=              1.1077   YY=              1.1077   ZZ=             -2.2154
   XY=              0.0000   XZ=             -0.0000   YZ=             -0.0000
 Octapole moment (field-independent basis, Debye-Ang**2):
  XXX=             -0.0000  YYY=              0.8149  ZZZ=            -12.9785  XYY=              0.0000
  XXY=             -0.8149  XXZ=             -2.1317  XZZ=              0.0000  YZZ=             -0.0000
  YYZ=             -2.1317  XYZ=              0.0000
 Hexadecapole moment (field-independent basis, Debye-Ang**3):
 XXXX=            -25.1056 YYYY=            -25.1056 ZZZZ=           -184.2595 XXXY=              0.0000
 XXXZ=              0.0000 YYYX=              0.0000 YYYZ=             -1.3513 ZZZX=             -0.0000
 ZZZY=             -0.0000 XXYY=             -8.3685 XXZZ=            -31.3473 YYZZ=            -31.3473
 XXYZ=              1.3513 YYXZ=             -0.0000 ZZXY=              0.0000
 N-N= 5.855844743376D+01 E-N=-4.259842787607D+02  KE= 1.322192680794D+02
 Symmetry A'   KE= 1.273059217680D+02
 Symmetry A"   KE= 4.913346311431D+00
  Exact polarizability:      21.128       0.000      21.128       0.000       0.000      39.000
 Approx polarizability:      27.681      -0.000      27.681      -0.000      -0.000      60.440
 ******************************Gaussian NBO Version 3.1******************************
             N A T U R A L   A T O M I C   O R B I T A L   A N D
          N A T U R A L   B O N D   O R B I T A L   A N A L Y S I S
 ******************************Gaussian NBO Version 3.1******************************
       /RESON  / : Allow strongly delocalized NBO set

 Analyzing the SCF density

 Job title: CC#N                                                            

 Storage needed:     23175 in NPA,     30595 in NBO (1258290960 available)
 GSVD:  LWork=        2375 too small for GESVD, short by        7572 words or        7572 for optimal perf.


 NATURAL POPULATIONS:  Natural atomic orbital occupancies 
                                                          
   NAO  Atom  No  lang   Type(AO)    Occupancy      Energy
 ----------------------------------------------------------
     1    C    1  S      Cor( 1S)     1.99917     -10.08662
     2    C    1  S      Val( 2S)     1.10902      -0.28834
     3    C    1  S      Ryd( 4S)     0.00046       0.94866
     4    C    1  S      Ryd( 5S)     0.00001      23.42649
     5    C    1  S      Ryd( 3S)     0.00000       0.45003
     6    C    1  px     Val( 2p)     1.24072      -0.14926
     7    C    1  px     Ryd( 4p)     0.00063       0.44832
     8    C    1  px     Ryd( 5p)     0.00001       2.89301
     9    C    1  px     Ryd( 3p)     0.00000       0.41887
    10    C    1  py     Val( 2p)     1.24072      -0.14926
    11    C    1  py     Ryd( 4p)     0.00063       0.44832
    12    C    1  py     Ryd( 5p)     0.00001       2.89301
    13    C    1  py     Ryd( 3p)     0.00000       0.41887
    14    C    1  pz     Val( 2p)     1.08852      -0.14154
    15    C    1  pz     Ryd( 3p)     0.00075       0.37619
    16    C    1  pz     Ryd( 5p)     0.00012       2.90003
    17    C    1  pz     Ryd( 4p)     0.00001       0.42995
    18    C    1  dxy    Ryd( 3d)     0.00069       2.02310
    19    C    1  dxz    Ryd( 3d)     0.00039       1.90590
    20    C    1  dyz    Ryd( 3d)     0.00039       1.90590
    21    C    1  dx2y2  Ryd( 3d)     0.00069       2.02310
    22    C    1  dz2    Ryd( 3d)     0.00124       2.39314
 
    23    C    2  S      Cor( 1S)     1.99935     -10.08896
    24    C    2  S      Val( 2S)     0.85100      -0.13321
    25    C    2  S      Ryd( 3S)     0.00757       0.61035
    26    C    2  S      Ryd( 5S)     0.00005      14.90464
    27    C    2  S      Ryd( 4S)     0.00001       8.66850
    28    C    2  px     Val( 2p)     0.91481      -0.10590
    29    C    2  px     Ryd( 4p)     0.00107       0.56526
    30    C    2  px     Ryd( 3p)     0.00011       0.45280
    31    C    2  px     Ryd( 5p)     0.00005       2.42345
    32    C    2  py     Val( 2p)     0.91481      -0.10590
    33    C    2  py     Ryd( 4p)     0.00107       0.56526
    34    C    2  py     Ryd( 3p)     0.00011       0.45280
    35    C    2  py     Ryd( 5p)     0.00005       2.42345
    36    C    2  pz     Val( 2p)     0.99634       0.03728
    37    C    2  pz     Ryd( 4p)     0.01806       1.09770
    38    C    2  pz     Ryd( 3p)     0.00052       0.55824
    39    C    2  pz     Ryd( 5p)     0.00009       2.25788
    40    C    2  dxy    Ryd( 3d)     0.00002       1.38234
    41    C    2  dxz    Ryd( 3d)     0.00097       2.23554
    42    C    2  dyz    Ryd( 3d)     0.00097       2.23554
    43    C    2  dx2y2  Ryd( 3d)     0.00002       1.38234
    44    C    2  dz2    Ryd( 3d)     0.00045       3.39910
 
    45    N    3  S      Cor( 1S)     1.99958     -14.05612
    46    N    3  S      Val( 2S)     1.58555      -0.57333
    47    N    3  S      Ryd( 4S)     0.00493       1.55282
    48    N    3  S      Ryd( 3S)     0.00001       0.92878
    49    N    3  S      Ryd( 5S)     0.00000      35.04833
    50    N    3  px     Val( 2p)     1.10312      -0.15257
    51    N    3  px     Ryd( 3p)     0.00026       0.59467
    52    N    3  px     Ryd( 5p)     0.00000       2.41597
    53    N    3  px     Ryd( 4p)     0.00002       1.97742
    54    N    3  py     Val( 2p)     1.10312      -0.15257
    55    N    3  py     Ryd( 3p)     0.00026       0.59467
    56    N    3  py     Ryd( 5p)     0.00000       2.41597
    57    N    3  py     Ryd( 4p)     0.00002       1.97742
    58    N    3  pz     Val( 2p)     1.52498      -0.18260
    59    N    3  pz     Ryd( 3p)     0.00209       0.63619
    60    N    3  pz     Ryd( 5p)     0.00017       3.24014
    61    N    3  pz     Ryd( 4p)     0.00003       1.96960
    62    N    3  dxy    Ryd( 3d)     0.00000       1.97281
    63    N    3  dxz    Ryd( 3d)     0.00371       2.07830
    64    N    3  dyz    Ryd( 3d)     0.00371       2.07830
    65    N    3  dx2y2  Ryd( 3d)     0.00000       1.97281
    66    N    3  dz2    Ryd( 3d)     0.00646       2.64025
 
    67    H    4  S      Val( 1S)     0.75509       0.00427
    68    H    4  S      Ryd( 2S)     0.00091       0.50017
    69    H    4  S      Ryd( 4S)     0.00017       1.73056
    70    H    4  S      Ryd( 3S)     0.00004       0.68537
    71    H    4  px     Ryd( 2p)     0.00010       1.70561
    72    H    4  py     Ryd( 2p)     0.00031       2.51192
    73    H    4  pz     Ryd( 2p)     0.00016       1.76160
 
    74    H    5  S      Val( 1S)     0.75509       0.00427
    75    H    5  S      Ryd( 2S)     0.00091       0.50017
    76    H    5  S      Ryd( 4S)     0.00017       1.73056
    77    H    5  S      Ryd( 3S)     0.00004       0.68537
    78    H    5  px     Ryd( 2p)     0.00025       2.31034
    79    H    5  py     Ryd( 2p)     0.00015       1.90719
    80    H    5  pz     Ryd( 2p)     0.00016       1.76160
 
    81    H    6  S      Val( 1S)     0.75509       0.00427
    82    H    6  S      Ryd( 2S)     0.00091       0.50017
    83    H    6  S      Ryd( 4S)     0.00017       1.73056
    84    H    6  S      Ryd( 3S)     0.00004       0.68537
    85    H    6  px     Ryd( 2p)     0.00025       2.31034
    86    H    6  py     Ryd( 2p)     0.00015       1.90719
    87    H    6  pz     Ryd( 2p)     0.00016       1.76160

 WARNING:  Population inversion found on atom  C    1
           Population inversion found on atom  C    2
           Population inversion found on atom  N    3
           Population inversion found on atom  H    4
           Population inversion found on atom  H    5
           Population inversion found on atom  H    6


 Summary of Natural Population Analysis:                  
                                                          
                                       Natural Population 
                Natural  -----------------------------------------------
    Atom  No    Charge         Core      Valence    Rydberg      Total
 -----------------------------------------------------------------------
      C    1   -0.68417      1.99917     4.67897    0.00603     6.68417
      C    2    0.29253      1.99935     3.67695    0.03117     5.70747
      N    3   -0.33802      1.99958     5.31676    0.02167     7.33802
      H    4    0.24322      0.00000     0.75509    0.00169     0.75678
      H    5    0.24322      0.00000     0.75509    0.00169     0.75678
      H    6    0.24322      0.00000     0.75509    0.00169     0.75678
 =======================================================================
   * Total *    0.00000      5.99811    15.93794    0.06395    22.00000

                                 Natural Population      
 --------------------------------------------------------
   Core                       5.99811 ( 99.9685% of   6)
   Valence                   15.93794 ( 99.6121% of  16)
   Natural Minimal Basis     21.93605 ( 99.7093% of  22)
   Natural Rydberg Basis      0.06395 (  0.2907% of  22)
 --------------------------------------------------------

    Atom  No          Natural Electron Configuration
 ----------------------------------------------------------------------------
      C    1      [core]2S( 1.11)2p( 3.57)
      C    2      [core]2S( 0.85)2p( 2.83)3S( 0.01)4p( 0.02)
      N    3      [core]2S( 1.59)2p( 3.73)3d( 0.01)
      H    4            1S( 0.76)
      H    5            1S( 0.76)
      H    6            1S( 0.76)


 NATURAL BOND ORBITAL ANALYSIS:

                       Occupancies       Lewis Structure    Low   High
           Occ.    -------------------  -----------------   occ   occ
  Cycle   Thresh.   Lewis   Non-Lewis     CR  BD  3C  LP    (L)   (NL)   Dev
 =============================================================================
   1(1)    1.90    21.84552   0.15448      3   7   0   1     0      0    0.09
 -----------------------------------------------------------------------------

 Structure accepted: No low occupancy Lewis orbitals

 --------------------------------------------------------
   Core                      5.99810 ( 99.968% of   6)
   Valence Lewis            15.84742 ( 99.046% of  16)
  ==================       ============================
   Total Lewis              21.84552 ( 99.298% of  22)
  -----------------------------------------------------
   Valence non-Lewis         0.12368 (  0.562% of  22)
   Rydberg non-Lewis         0.03080 (  0.140% of  22)
  ==================       ============================
   Total non-Lewis           0.15448 (  0.702% of  22)
 --------------------------------------------------------


       (Occupancy)   Bond orbital/ Coefficients/ Hybrids
 ---------------------------------------------------------------------------------
     1. (1.99373) BD ( 1) C   1 - C   2  
                ( 50.29%)   0.7091* C   1 s( 27.48%)p 2.64( 72.44%)d 0.00(  0.08%)
                                            0.0001  0.5239  0.0165 -0.0005  0.0006
                                            0.0000 -0.0000 -0.0000 -0.0000 -0.0000
                                           -0.0000  0.0000  0.0000  0.8509 -0.0186
                                           -0.0010 -0.0000 -0.0000  0.0000  0.0000
                                            0.0000  0.0281
                ( 49.71%)   0.7051* C   2 s( 52.88%)p 0.89( 47.10%)d 0.00(  0.03%)
                                           -0.0000  0.7259  0.0431  0.0007  0.0013
                                            0.0000  0.0000  0.0000  0.0000  0.0000
                                            0.0000  0.0000  0.0000 -0.6860 -0.0032
                                            0.0208  0.0005  0.0000  0.0000  0.0000
                                            0.0000  0.0160
     2. (1.97104) BD ( 1) C   1 - H   4  
                ( 61.94%)   0.7870* C   1 s( 24.19%)p 3.13( 75.76%)d 0.00(  0.05%)
                                           -0.0002  0.4918 -0.0045  0.0002 -0.0002
                                            0.0000 -0.0000 -0.0000 -0.0000  0.8162
                                            0.0085 -0.0000 -0.0000 -0.3022  0.0065
                                           -0.0018  0.0001 -0.0000 -0.0000 -0.0081
                                           -0.0192 -0.0100
                ( 38.06%)   0.6169* H   4 s( 99.96%)p 0.00(  0.04%)
                                            0.9998  0.0012  0.0005 -0.0000  0.0000
                                           -0.0180  0.0081
     3. (1.97104) BD ( 1) C   1 - H   5  
                ( 61.94%)   0.7870* C   1 s( 24.19%)p 3.13( 75.76%)d 0.00(  0.05%)
                                           -0.0002  0.4918 -0.0045  0.0002 -0.0002
                                            0.7068  0.0073 -0.0000 -0.0000 -0.4081
                                           -0.0042  0.0000  0.0000 -0.3022  0.0065
                                           -0.0018  0.0001 -0.0167 -0.0070  0.0041
                                            0.0096 -0.0100
                ( 38.06%)   0.6169* H   5 s( 99.96%)p 0.00(  0.04%)
                                            0.9998  0.0012  0.0005 -0.0000 -0.0156
                                            0.0090  0.0081
     4. (1.97104) BD ( 1) C   1 - H   6  
                ( 61.94%)   0.7870* C   1 s( 24.19%)p 3.13( 75.76%)d 0.00(  0.05%)
                                           -0.0002  0.4918 -0.0045  0.0002 -0.0002
                                           -0.7068 -0.0073  0.0000  0.0000 -0.4081
                                           -0.0042  0.0000  0.0000 -0.3022  0.0065
                                           -0.0018  0.0001  0.0167  0.0070  0.0041
                                            0.0096 -0.0100
                ( 38.06%)   0.6169* H   6 s( 99.96%)p 0.00(  0.04%)
                                            0.9998  0.0012  0.0005 -0.0000  0.0156
                                            0.0090  0.0081
     5. (1.99691) BD ( 1) C   2 - N   3  
                ( 42.52%)   0.6521* C   2 s( 47.35%)p 1.11( 52.63%)d 0.00(  0.02%)
                                           -0.0001  0.6863 -0.0497 -0.0016 -0.0017
                                            0.0000  0.0000  0.0000  0.0000  0.0000
                                            0.0000  0.0000  0.0000  0.7230  0.0597
                                           -0.0053 -0.0018  0.0000  0.0000  0.0000
                                            0.0000  0.0135
                ( 57.48%)   0.7582* N   3 s( 46.84%)p 1.13( 52.75%)d 0.01(  0.41%)
                                            0.0000  0.6829 -0.0458  0.0006 -0.0007
                                            0.0000  0.0000  0.0000  0.0000  0.0000
                                            0.0000  0.0000  0.0000 -0.7261  0.0130
                                           -0.0004  0.0051  0.0000  0.0000  0.0000
                                            0.0000  0.0641
     6. (1.98698) BD ( 2) C   2 - N   3  
                ( 45.10%)   0.6716* C   2 s(  0.00%)p 1.00( 99.93%)d 0.00(  0.07%)
                                            0.0000  0.0000  0.0000  0.0000  0.0000
                                            0.9993 -0.0225  0.0100  0.0023  0.0000
                                            0.0000  0.0000  0.0000  0.0000  0.0000
                                            0.0000  0.0000  0.0007  0.0272  0.0000
                                            0.0000  0.0000
                ( 54.90%)   0.7410* N   3 s(  0.00%)p 1.00( 99.67%)d 0.00(  0.33%)
                                            0.0000  0.0000  0.0000  0.0000  0.0000
                                            0.9983 -0.0138  0.0003  0.0023  0.0000
                                            0.0000  0.0000  0.0000  0.0000  0.0000
                                            0.0000  0.0000  0.0002 -0.0574  0.0000
                                            0.0000  0.0000
     7. (1.98698) BD ( 3) C   2 - N   3  
                ( 45.10%)   0.6716* C   2 s(  0.00%)p 1.00( 99.93%)d 0.00(  0.07%)
                                            0.0000  0.0000  0.0000  0.0000  0.0000
                                            0.0000  0.0000  0.0000  0.0000  0.9993
                                           -0.0225  0.0100  0.0023  0.0000  0.0000
                                            0.0000  0.0000  0.0000  0.0000  0.0272
                                            0.0007  0.0000
                ( 54.90%)   0.7410* N   3 s(  0.00%)p 1.00( 99.67%)d 0.00(  0.33%)
                                            0.0000  0.0000  0.0000  0.0000  0.0000
                                            0.0000  0.0000  0.0000  0.0000  0.9983
                                           -0.0138  0.0003  0.0023  0.0000  0.0000
                                            0.0000  0.0000  0.0000  0.0000 -0.0574
                                            0.0002  0.0000
     8. (1.99917) CR ( 1) C   1           s(100.00%)p 0.00(  0.00%)
                                            1.0000  0.0002 -0.0000  0.0000 -0.0000
                                           -0.0000 -0.0000 -0.0000 -0.0000 -0.0000
                                           -0.0000  0.0000  0.0000 -0.0003  0.0000
                                           -0.0000  0.0000  0.0000  0.0000  0.0000
                                            0.0000 -0.0000
     9. (1.99935) CR ( 1) C   2           s(100.00%)
                                            1.0000  0.0001 -0.0000 -0.0000 -0.0000
                                            0.0000  0.0000  0.0000  0.0000  0.0000
                                            0.0000  0.0000  0.0000  0.0000  0.0000
                                            0.0000 -0.0000  0.0000  0.0000  0.0000
                                            0.0000  0.0000
    10. (1.99958) CR ( 1) N   3           s(100.00%)p 0.00(  0.00%)
                                            1.0000  0.0006  0.0000 -0.0000  0.0000
                                            0.0000  0.0000  0.0000  0.0000  0.0000
                                            0.0000  0.0000  0.0000  0.0005  0.0000
                                           -0.0000 -0.0000  0.0000  0.0000  0.0000
                                            0.0000 -0.0000
    11. (1.96970) LP ( 1) N   3           s( 53.27%)p 0.88( 46.65%)d 0.00(  0.09%)
                                           -0.0008  0.7294  0.0241 -0.0002  0.0004
                                            0.0000  0.0000  0.0000  0.0000  0.0000
                                            0.0000  0.0000  0.0000  0.6824  0.0291
                                           -0.0002 -0.0012  0.0000  0.0000  0.0000
                                            0.0000 -0.0294
    12. (0.00084) RY*( 1) C   1           s(  0.00%)p 1.00( 64.31%)d 0.55( 35.69%)
                                            0.0000  0.0000 -0.0000  0.0000 -0.0000
                                           -0.0164  0.7968  0.0886  0.0056 -0.0000
                                           -0.0000 -0.0000 -0.0000 -0.0000  0.0000
                                           -0.0000  0.0000 -0.0939 -0.5900  0.0000
                                            0.0000 -0.0000
    13. (0.00084) RY*( 2) C   1           s(  0.00%)p 1.00( 64.31%)d 0.55( 35.69%)
                                           -0.0000  0.0000 -0.0000  0.0000 -0.0000
                                            0.0000  0.0000 -0.0000  0.0000 -0.0164
                                            0.7968  0.0886  0.0056 -0.0000  0.0000
                                           -0.0000  0.0000 -0.0000  0.0000 -0.5900
                                           -0.0939 -0.0000
    14. (0.00046) RY*( 3) C   1           s( 28.53%)p 2.45( 70.02%)d 0.05(  1.45%)
                                            0.0000  0.0001  0.5305  0.0292 -0.0542
                                           -0.0000 -0.0000 -0.0000 -0.0000 -0.0000
                                           -0.0000  0.0000  0.0000 -0.0297 -0.7292
                                            0.4094  0.0010  0.0000  0.0000  0.0000
                                            0.0000  0.1205
    15. (0.00010) RY*( 4) C   1           s( 11.13%)p 5.28( 58.78%)d 2.70( 30.09%)
                                            0.0000  0.0016  0.1529  0.2965  0.0013
                                            0.0000  0.0000 -0.0000 -0.0000 -0.0000
                                           -0.0000  0.0000  0.0000 -0.0097  0.5256
                                            0.5546  0.0618 -0.0000 -0.0000  0.0000
                                            0.0000  0.5486
    16. (0.00003) RY*( 5) C   1           s( 16.14%)p 3.47( 55.96%)d 1.73( 27.90%)
    17. (0.00000) RY*( 6) C   1           s(  0.00%)p 1.00(100.00%)d 0.00(  0.00%)
    18. (0.00000) RY*( 7) C   1           s( 98.91%)p 0.01(  0.77%)d 0.00(  0.32%)
    19. (0.00000) RY*( 8) C   1           s(  0.00%)p 1.00(100.00%)
    20. (0.00000) RY*( 9) C   1           s(  0.00%)p 1.00(100.00%)d 0.00(  0.00%)
    21. (0.00000) RY*(10) C   1           s( 89.15%)p 0.03(  2.86%)d 0.09(  7.99%)
    22. (0.00000) RY*(11) C   1           s( 43.27%)p 1.12( 48.59%)d 0.19(  8.14%)
    23. (0.00000) RY*(12) C   1           s( 12.84%)p 4.92( 63.16%)d 1.87( 24.00%)
    24. (0.00000) RY*(13) C   1           s(  0.00%)p 1.00(  1.41%)d70.01( 98.59%)
    25. (0.00000) RY*(14) C   1           s(  0.00%)p 1.00( 34.35%)d 1.91( 65.65%)
    26. (0.00000) RY*(15) C   1           s(  0.00%)p 1.00( 35.13%)d 1.85( 64.87%)
    27. (0.00000) RY*(16) C   1           s(  0.00%)p 1.00(  0.63%)d99.99( 99.37%)
    28. (0.00000) RY*(17) C   1           s(  0.00%)p 1.00(100.00%)
    29. (0.01892) RY*( 1) C   2           s( 19.29%)p 4.18( 80.54%)d 0.01(  0.18%)
                                            0.0000  0.0352  0.4370 -0.0199 -0.0153
                                           -0.0000 -0.0000 -0.0000 -0.0000 -0.0000
                                           -0.0000 -0.0000 -0.0000  0.0692 -0.8938
                                           -0.0217 -0.0345 -0.0000 -0.0000 -0.0000
                                           -0.0000  0.0421
    30. (0.00131) RY*( 2) C   2           s(  0.00%)p 1.00( 63.99%)d 0.56( 36.01%)
                                            0.0000  0.0000  0.0000  0.0000  0.0000
                                            0.0000  0.0000  0.0000  0.0000  0.0332
                                            0.7739  0.0740 -0.1857  0.0000  0.0000
                                            0.0000  0.0000  0.0000  0.0000 -0.5883
                                           -0.1181  0.0000
    31. (0.00131) RY*( 3) C   2           s(  0.00%)p 1.00( 63.99%)d 0.56( 36.01%)
                                            0.0000  0.0000  0.0000  0.0000  0.0000
                                            0.0332  0.7739  0.0740 -0.1857  0.0000
                                            0.0000  0.0000  0.0000  0.0000  0.0000
                                            0.0000  0.0000 -0.1181 -0.5883  0.0000
                                            0.0000  0.0000
    32. (0.00046) RY*( 4) C   2           s( 63.09%)p 0.43( 27.12%)d 0.16(  9.79%)
                                            0.0000 -0.0077  0.7591  0.2274 -0.0534
                                            0.0000  0.0000  0.0000  0.0000  0.0000
                                            0.0000  0.0000  0.0000  0.0364  0.3623
                                            0.1946 -0.3173  0.0000  0.0000  0.0000
                                            0.0000 -0.3129
    33. (0.00003) RY*( 5) C   2           s( 63.10%)p 0.58( 36.68%)d 0.00(  0.22%)
    34. (0.00004) RY*( 6) C   2           s(  7.74%)p 6.06( 46.90%)d 5.86( 45.37%)
    35. (0.00000) RY*( 7) C   2           s( 93.73%)p 0.05(  4.85%)d 0.02(  1.43%)
    36. (0.00000) RY*( 8) C   2           s(  0.00%)p 1.00( 99.79%)d 0.00(  0.21%)
    37. (0.00000) RY*( 9) C   2           s(  0.00%)p 1.00( 98.71%)d 0.01(  1.29%)
    38. (0.00000) RY*(10) C   2           s(  0.00%)p 1.00( 99.79%)d 0.00(  0.21%)
    39. (0.00000) RY*(11) C   2           s(  0.00%)p 1.00( 98.71%)d 0.01(  1.29%)
    40. (0.00000) RY*(12) C   2           s( 34.83%)p 1.87( 65.14%)d 0.00(  0.03%)
    41. (0.00000) RY*(13) C   2           s(  0.00%)p 1.00(  2.28%)d42.92( 97.72%)
    42. (0.00000) RY*(14) C   2           s(  0.00%)p 1.00( 35.30%)d 1.83( 64.70%)
    43. (0.00000) RY*(15) C   2           s(  0.00%)p 1.00( 36.66%)d 1.73( 63.34%)
    44. (0.00000) RY*(16) C   2           s(  0.00%)p 1.00(  0.92%)d99.99( 99.08%)
    45. (0.00000) RY*(17) C   2           s( 18.00%)p 2.17( 39.05%)d 2.39( 42.95%)
    46. (0.00175) RY*( 1) N   3           s( 89.51%)p 0.10(  8.98%)d 0.02(  1.51%)
                                            0.0000  0.0149  0.9452  0.0152 -0.0369
                                            0.0000  0.0000  0.0000  0.0000  0.0000
                                            0.0000  0.0000  0.0000 -0.0559  0.0354
                                            0.2921 -0.0061  0.0000  0.0000  0.0000
                                            0.0000 -0.1229
    47. (0.00028) RY*( 2) N   3           s(  0.72%)p99.99( 81.83%)d24.23( 17.45%)
                                           -0.0000 -0.0363  0.0292  0.0708 -0.0047
                                            0.0000  0.0000  0.0000  0.0000  0.0000
                                            0.0000  0.0000  0.0000  0.0174  0.9028
                                           -0.0262  0.0475  0.0000  0.0000  0.0000
                                            0.0000  0.4177
    48. (0.00011) RY*( 3) N   3           s(  0.00%)p 1.00( 86.70%)d 0.15( 13.30%)
                                            0.0000  0.0000  0.0000  0.0000  0.0000
                                            0.0000  0.0000  0.0000  0.0000 -0.0092
                                            0.8852  0.0007  0.2886  0.0000  0.0000
                                            0.0000  0.0000  0.0000  0.0000 -0.3607
                                            0.0537  0.0000
    49. (0.00011) RY*( 4) N   3           s(  0.00%)p 1.00( 86.70%)d 0.15( 13.30%)
                                            0.0000  0.0000  0.0000  0.0000  0.0000
                                           -0.0092  0.8852  0.0007  0.2886  0.0000
                                            0.0000  0.0000  0.0000  0.0000  0.0000
                                            0.0000  0.0000  0.0537 -0.3607  0.0000
                                            0.0000  0.0000
    50. (0.00003) RY*( 5) N   3           s( 35.51%)p 1.67( 59.30%)d 0.15(  5.18%)
    51. (0.00000) RY*( 6) N   3           s(  0.00%)p 1.00( 98.81%)d 0.01(  1.19%)
    52. (0.00000) RY*( 7) N   3           s( 99.95%)p 0.00(  0.05%)d 0.00(  0.00%)
    53. (0.00000) RY*( 8) N   3           s(  0.00%)p 1.00(100.00%)d 0.00(  0.00%)
    54. (0.00000) RY*( 9) N   3           s(  0.00%)p 1.00( 98.81%)d 0.01(  1.19%)
    55. (0.00000) RY*(10) N   3           s( 69.65%)p 0.23( 15.68%)d 0.21( 14.67%)
    56. (0.00000) RY*(11) N   3           s(  0.00%)p 1.00(100.00%)d 0.00(  0.00%)
    57. (0.00000) RY*(12) N   3           s(  0.23%)p99.99( 99.62%)d 0.67(  0.15%)
    58. (0.00000) RY*(13) N   3           s(  0.00%)p 1.00(  0.25%)d99.99( 99.75%)
    59. (0.00000) RY*(14) N   3           s(  0.00%)p 1.00( 14.57%)d 5.86( 85.43%)
    60. (0.00000) RY*(15) N   3           s(  0.00%)p 1.00( 14.57%)d 5.86( 85.43%)
    61. (0.00000) RY*(16) N   3           s(  0.00%)p 1.00(  0.25%)d99.99( 99.75%)
    62. (0.00000) RY*(17) N   3           s(  4.32%)p 8.14( 35.14%)d14.02( 60.54%)
    63. (0.00095) RY*( 1) H   4           s( 94.92%)p 0.05(  5.08%)
                                           -0.0032  0.9740  0.0206  0.0110  0.0000
                                           -0.0129  0.2249
    64. (0.00023) RY*( 2) H   4           s( 64.84%)p 0.54( 35.16%)
                                            0.0018 -0.1268  0.7802  0.1536  0.0000
                                            0.3345  0.4896
    65. (0.00010) RY*( 3) H   4           s(  0.00%)p 1.00(100.00%)
                                            0.0000  0.0000  0.0000  0.0000  1.0000
                                            0.0000  0.0000
    66. (0.00009) RY*( 4) H   4           s( 71.19%)p 0.40( 28.81%)
    67. (0.00002) RY*( 5) H   4           s( 25.05%)p 2.99( 74.95%)
    68. (0.00000) RY*( 6) H   4           s( 44.04%)p 1.27( 55.96%)
    69. (0.00095) RY*( 1) H   5           s( 94.92%)p 0.05(  5.08%)
                                           -0.0032  0.9740  0.0206  0.0110 -0.0112
                                            0.0065  0.2249
    70. (0.00023) RY*( 2) H   5           s( 64.84%)p 0.54( 35.16%)
                                            0.0018 -0.1268  0.7802  0.1536  0.2897
                                           -0.1673  0.4896
    71. (0.00010) RY*( 3) H   5           s(  0.00%)p 1.00(100.00%)
                                            0.0000  0.0000  0.0000 -0.0000  0.5000
                                            0.8660 -0.0000
    72. (0.00009) RY*( 4) H   5           s( 71.19%)p 0.40( 28.81%)
    73. (0.00002) RY*( 5) H   5           s( 25.05%)p 2.99( 74.95%)
    74. (0.00000) RY*( 6) H   5           s( 44.04%)p 1.27( 55.96%)
    75. (0.00095) RY*( 1) H   6           s( 94.92%)p 0.05(  5.08%)
                                           -0.0032  0.9740  0.0206  0.0110  0.0112
                                            0.0065  0.2249
    76. (0.00023) RY*( 2) H   6           s( 64.84%)p 0.54( 35.16%)
                                            0.0018 -0.1268  0.7802  0.1536 -0.2897
                                           -0.1673  0.4896
    77. (0.00010) RY*( 3) H   6           s(  0.00%)p 1.00(100.00%)
                                            0.0000  0.0000 -0.0000 -0.0000 -0.5000
                                            0.8660 -0.0000
    78. (0.00009) RY*( 4) H   6           s( 71.19%)p 0.40( 28.81%)
    79. (0.00002) RY*( 5) H   6           s( 25.05%)p 2.99( 74.95%)
    80. (0.00000) RY*( 6) H   6           s( 44.04%)p 1.27( 55.96%)
    81. (0.01620) BD*( 1) C   1 - C   2  
                ( 49.71%)   0.7051* C   1 s( 27.48%)p 2.64( 72.44%)d 0.00(  0.08%)
                                           -0.0001 -0.5239 -0.0165  0.0005 -0.0006
                                           -0.0000  0.0000  0.0000  0.0000  0.0000
                                            0.0000 -0.0000 -0.0000 -0.8509  0.0186
                                            0.0010  0.0000  0.0000 -0.0000 -0.0000
                                           -0.0000 -0.0281
                ( 50.29%)  -0.7091* C   2 s( 52.88%)p 0.89( 47.10%)d 0.00(  0.03%)
                                            0.0000 -0.7259 -0.0431 -0.0007 -0.0013
                                           -0.0000 -0.0000 -0.0000 -0.0000 -0.0000
                                           -0.0000 -0.0000 -0.0000  0.6860  0.0032
                                           -0.0208 -0.0005 -0.0000 -0.0000 -0.0000
                                           -0.0000 -0.0160
    82. (0.00837) BD*( 1) C   1 - H   4  
                ( 38.06%)   0.6169* C   1 s( 24.19%)p 3.13( 75.76%)d 0.00(  0.05%)
                                            0.0002 -0.4918  0.0045 -0.0002  0.0002
                                           -0.0000  0.0000  0.0000  0.0000 -0.8162
                                           -0.0085  0.0000  0.0000  0.3022 -0.0065
                                            0.0018 -0.0001  0.0000  0.0000  0.0081
                                            0.0192  0.0100
                ( 61.94%)  -0.7870* H   4 s( 99.96%)p 0.00(  0.04%)
                                           -0.9998 -0.0012 -0.0005  0.0000 -0.0000
                                            0.0180 -0.0081
    83. (0.00837) BD*( 1) C   1 - H   5  
                ( 38.06%)   0.6169* C   1 s( 24.19%)p 3.13( 75.76%)d 0.00(  0.05%)
                                            0.0002 -0.4918  0.0045 -0.0002  0.0002
                                           -0.7068 -0.0073  0.0000  0.0000  0.4081
                                            0.0042 -0.0000 -0.0000  0.3022 -0.0065
                                            0.0018 -0.0001  0.0167  0.0070 -0.0041
                                           -0.0096  0.0100
                ( 61.94%)  -0.7870* H   5 s( 99.96%)p 0.00(  0.04%)
                                           -0.9998 -0.0012 -0.0005  0.0000  0.0156
                                           -0.0090 -0.0081
    84. (0.00837) BD*( 1) C   1 - H   6  
                ( 38.06%)   0.6169* C   1 s( 24.19%)p 3.13( 75.76%)d 0.00(  0.05%)
                                            0.0002 -0.4918  0.0045 -0.0002  0.0002
                                            0.7068  0.0073 -0.0000 -0.0000  0.4081
                                            0.0042 -0.0000 -0.0000  0.3022 -0.0065
                                            0.0018 -0.0001 -0.0167 -0.0070 -0.0041
                                           -0.0096  0.0100
                ( 61.94%)  -0.7870* H   6 s( 99.96%)p 0.00(  0.04%)
                                           -0.9998 -0.0012 -0.0005  0.0000 -0.0156
                                           -0.0090 -0.0081
    85. (0.01094) BD*( 1) C   2 - N   3  
                ( 57.48%)   0.7582* C   2 s( 47.35%)p 1.11( 52.63%)d 0.00(  0.02%)
                                           -0.0001  0.6863 -0.0497 -0.0016 -0.0017
                                            0.0000  0.0000  0.0000  0.0000  0.0000
                                            0.0000  0.0000  0.0000  0.7230  0.0597
                                           -0.0053 -0.0018  0.0000  0.0000  0.0000
                                            0.0000  0.0135
                ( 42.52%)  -0.6521* N   3 s( 46.84%)p 1.13( 52.75%)d 0.01(  0.41%)
                                            0.0000  0.6829 -0.0458  0.0006 -0.0007
                                            0.0000  0.0000  0.0000  0.0000  0.0000
                                            0.0000  0.0000  0.0000 -0.7261  0.0130
                                           -0.0004  0.0051  0.0000  0.0000  0.0000
                                            0.0000  0.0641
    86. (0.03572) BD*( 2) C   2 - N   3  
                ( 54.90%)   0.7410* C   2 s(  0.00%)p 1.00( 99.93%)d 0.00(  0.07%)
                                            0.0000  0.0000  0.0000  0.0000  0.0000
                                            0.9993 -0.0225  0.0100  0.0023  0.0000
                                            0.0000  0.0000  0.0000  0.0000  0.0000
                                            0.0000  0.0000  0.0007  0.0272  0.0000
                                            0.0000  0.0000
                ( 45.10%)  -0.6716* N   3 s(  0.00%)p 1.00( 99.67%)d 0.00(  0.33%)
                                            0.0000  0.0000  0.0000  0.0000  0.0000
                                            0.9983 -0.0138  0.0003  0.0023  0.0000
                                            0.0000  0.0000  0.0000  0.0000  0.0000
                                            0.0000  0.0000  0.0002 -0.0574  0.0000
                                            0.0000  0.0000
    87. (0.03572) BD*( 3) C   2 - N   3  
                ( 54.90%)   0.7410* C   2 s(  0.00%)p 1.00( 99.93%)d 0.00(  0.07%)
                                            0.0000  0.0000  0.0000  0.0000  0.0000
                                            0.0000  0.0000  0.0000  0.0000  0.9993
                                           -0.0225  0.0100  0.0023  0.0000  0.0000
                                            0.0000  0.0000  0.0000  0.0000  0.0272
                                            0.0007  0.0000
                ( 45.10%)  -0.6716* N   3 s(  0.00%)p 1.00( 99.67%)d 0.00(  0.33%)
                                            0.0000  0.0000  0.0000  0.0000  0.0000
                                            0.0000  0.0000  0.0000  0.0000  0.9983
                                           -0.0138  0.0003  0.0023  0.0000  0.0000
                                            0.0000  0.0000  0.0000  0.0000 -0.0574
                                            0.0002  0.0000


 NHO Directionality and "Bond Bending" (deviations from line of nuclear centers)

         [Thresholds for printing:  angular deviation  >  1.0 degree]
                                    hybrid p-character > 25.0%
                                    orbital occupancy  >  0.10e

                                Line of Centers        Hybrid 1              Hybrid 2
                                ---------------  -------------------   ------------------
                NBO               Theta   Phi    Theta   Phi    Dev    Theta   Phi    Dev
 ========================================================================================
     6. BD (   2) C   2 - N   3     0.0    0.0    90.0    0.0  90.0     90.0    0.0  90.0
     7. BD (   3) C   2 - N   3     0.0    0.0    90.0   90.0  90.0     90.0   90.0  90.0
    11. LP (   1) N   3             --     --      0.0    0.0   --       --     --    --


 Second Order Perturbation Theory Analysis of Fock Matrix in NBO Basis

     Threshold for printing:   0.50 kcal/mol
                                                                              E(2)  E(j)-E(i) F(i,j)
         Donor NBO (i)                     Acceptor NBO (j)                 kcal/mol   a.u.    a.u. 
 ===================================================================================================

 within unit  1
   1. BD (   1) C   1 - C   2        / 46. RY*(   1) N   3                    1.79    2.22    0.056
   1. BD (   1) C   1 - C   2        / 85. BD*(   1) C   2 - N   3            5.77    1.67    0.088
   2. BD (   1) C   1 - H   4        / 30. RY*(   2) C   2                    0.73    1.61    0.031
   2. BD (   1) C   1 - H   4        / 85. BD*(   1) C   2 - N   3            3.67    1.49    0.066
   2. BD (   1) C   1 - H   4        / 87. BD*(   3) C   2 - N   3            6.90    0.65    0.060
   3. BD (   1) C   1 - H   5        / 31. RY*(   3) C   2                    0.55    1.61    0.027
   3. BD (   1) C   1 - H   5        / 85. BD*(   1) C   2 - N   3            3.67    1.49    0.066
   3. BD (   1) C   1 - H   5        / 86. BD*(   2) C   2 - N   3            5.18    0.65    0.052
   3. BD (   1) C   1 - H   5        / 87. BD*(   3) C   2 - N   3            1.73    0.65    0.030
   4. BD (   1) C   1 - H   6        / 31. RY*(   3) C   2                    0.55    1.61    0.027
   4. BD (   1) C   1 - H   6        / 85. BD*(   1) C   2 - N   3            3.67    1.49    0.066
   4. BD (   1) C   1 - H   6        / 86. BD*(   2) C   2 - N   3            5.18    0.65    0.052
   4. BD (   1) C   1 - H   6        / 87. BD*(   3) C   2 - N   3            1.73    0.65    0.030
   5. BD (   1) C   2 - N   3        / 29. RY*(   1) C   2                    1.24    2.01    0.045
   5. BD (   1) C   2 - N   3        / 81. BD*(   1) C   1 - C   2            4.70    1.49    0.075
   6. BD (   2) C   2 - N   3        / 12. RY*(   1) C   1                    0.70    1.17    0.026
   6. BD (   2) C   2 - N   3        / 83. BD*(   1) C   1 - H   5            2.13    0.72    0.035
   6. BD (   2) C   2 - N   3        / 84. BD*(   1) C   1 - H   6            2.13    0.72    0.035
   7. BD (   3) C   2 - N   3        / 13. RY*(   2) C   1                    0.70    1.17    0.026
   7. BD (   3) C   2 - N   3        / 82. BD*(   1) C   1 - H   4            2.84    0.72    0.040
   7. BD (   3) C   2 - N   3        / 83. BD*(   1) C   1 - H   5            0.71    0.72    0.020
   7. BD (   3) C   2 - N   3        / 84. BD*(   1) C   1 - H   6            0.71    0.72    0.020
   8. CR (   1) C   1                / 29. RY*(   1) C   2                    1.22   11.03    0.104
   8. CR (   1) C   1                / 85. BD*(   1) C   2 - N   3            3.11   11.02    0.166
   9. CR (   1) C   2                / 14. RY*(   3) C   1                    1.47   11.27    0.115
   9. CR (   1) C   2                / 47. RY*(   2) N   3                    1.73   10.98    0.123
   9. CR (   1) C   2                / 85. BD*(   1) C   2 - N   3            0.91   11.02    0.089
  10. CR (   1) N   3                / 29. RY*(   1) C   2                    7.42   15.00    0.299
  10. CR (   1) N   3                / 81. BD*(   1) C   1 - C   2            4.29   14.49    0.223
  11. LP (   1) N   3                / 29. RY*(   1) C   2                   19.23    1.46    0.150
  11. LP (   1) N   3                / 40. RY*(  12) C   2                    1.67    7.73    0.102
  11. LP (   1) N   3                / 46. RY*(   1) N   3                    0.74    2.00    0.035
  11. LP (   1) N   3                / 81. BD*(   1) C   1 - C   2           10.60    0.94    0.090


 Natural Bond Orbitals (Summary):

                                                            Principal Delocalizations
           NBO                        Occupancy    Energy   (geminal,vicinal,remote)
 ====================================================================================
 Molecular unit  1  (C2H3N)
     1. BD (   1) C   1 - C   2          1.99373    -0.73705  85(g),46(v)
     2. BD (   1) C   1 - H   4          1.97104    -0.55007  87(v),85(v),30(v)
     3. BD (   1) C   1 - H   5          1.97104    -0.55007  86(v),85(v),87(v),31(v)
     4. BD (   1) C   1 - H   6          1.97104    -0.55007  86(v),85(v),87(v),31(v)
     5. BD (   1) C   2 - N   3          1.99691    -1.06572  81(g),29(g)
     6. BD (   2) C   2 - N   3          1.98698    -0.35195  83(v),84(v),12(v)
     7. BD (   3) C   2 - N   3          1.98698    -0.35195  82(v),83(v),84(v),13(v)
     8. CR (   1) C   1                  1.99917   -10.08697  85(v),29(v)
     9. CR (   1) C   2                  1.99935   -10.08905  47(v),14(v),85(g)
    10. CR (   1) N   3                  1.99958   -14.05806  29(v),81(v)
    11. LP (   1) N   3                  1.96970    -0.51742  29(v),81(v),40(v),46(g)
    12. RY*(   1) C   1                  0.00084     0.82171   
    13. RY*(   2) C   1                  0.00084     0.82171   
    14. RY*(   3) C   1                  0.00046     1.18213   
    15. RY*(   4) C   1                  0.00010     3.18006   
    16. RY*(   5) C   1                  0.00003     1.63628   
    17. RY*(   6) C   1                  0.00000     0.42069   
    18. RY*(   7) C   1                  0.00000     0.43450   
    19. RY*(   8) C   1                  0.00000     2.88326   
    20. RY*(   9) C   1                  0.00000     0.42069   
    21. RY*(  10) C   1                  0.00000    20.16564   
    22. RY*(  11) C   1                  0.00000     3.18765   
    23. RY*(  12) C   1                  0.00000     1.12757   
    24. RY*(  13) C   1                  0.00000     2.03568   
    25. RY*(  14) C   1                  0.00000     1.52658   
    26. RY*(  15) C   1                  0.00000     1.55227   
    27. RY*(  16) C   1                  0.00000     2.00999   
    28. RY*(  17) C   1                  0.00000     2.88326   
    29. RY*(   1) C   2                  0.01892     0.93946   
    30. RY*(   2) C   2                  0.00131     1.06189   
    31. RY*(   3) C   2                  0.00131     1.06189   
    32. RY*(   4) C   2                  0.00046     1.57534   
    33. RY*(   5) C   2                  0.00003     4.30336   
    34. RY*(   6) C   2                  0.00004     4.43074   
    35. RY*(   7) C   2                  0.00000    11.18886   
    36. RY*(   8) C   2                  0.00000     0.41339   
    37. RY*(   9) C   2                  0.00000     2.56119   
    38. RY*(  10) C   2                  0.00000     0.41339   
    39. RY*(  11) C   2                  0.00000     2.56119   
    40. RY*(  12) C   2                  0.00000     7.21018   
    41. RY*(  13) C   2                  0.00000     1.36299   
    42. RY*(  14) C   2                  0.00000     1.65976   
    43. RY*(  15) C   2                  0.00000     1.64324   
    44. RY*(  16) C   2                  0.00000     1.37950   
    45. RY*(  17) C   2                  0.00000     1.82604   
    46. RY*(   1) N   3                  0.00175     1.48070   
    47. RY*(   2) N   3                  0.00028     0.89205   
    48. RY*(   3) N   3                  0.00011     0.76628   
    49. RY*(   4) N   3                  0.00011     0.76628   
    50. RY*(   5) N   3                  0.00003     2.64967   
    51. RY*(   6) N   3                  0.00000     2.07687   
    52. RY*(   7) N   3                  0.00000    35.04061   
    53. RY*(   8) N   3                  0.00000     2.41675   
    54. RY*(   9) N   3                  0.00000     2.07687   
    55. RY*(  10) N   3                  0.00000     1.33808   
    56. RY*(  11) N   3                  0.00000     2.41675   
    57. RY*(  12) N   3                  0.00000     1.74232   
    58. RY*(  13) N   3                  0.00000     1.96933   
    59. RY*(  14) N   3                  0.00000     1.80864   
    60. RY*(  15) N   3                  0.00000     1.80865   
    61. RY*(  16) N   3                  0.00000     1.96933   
    62. RY*(  17) N   3                  0.00000     2.85606   
    63. RY*(   1) H   4                  0.00095     0.60080   
    64. RY*(   2) H   4                  0.00023     1.42451   
    65. RY*(   3) H   4                  0.00010     1.70561   
    66. RY*(   4) H   4                  0.00009     1.92283   
    67. RY*(   5) H   4                  0.00002     1.96938   
    68. RY*(   6) H   4                  0.00000     1.27031   
    69. RY*(   1) H   5                  0.00095     0.60080   
    70. RY*(   2) H   5                  0.00023     1.42451   
    71. RY*(   3) H   5                  0.00010     1.70561   
    72. RY*(   4) H   5                  0.00009     1.92283   
    73. RY*(   5) H   5                  0.00002     1.96938   
    74. RY*(   6) H   5                  0.00000     1.27031   
    75. RY*(   1) H   6                  0.00095     0.60080   
    76. RY*(   2) H   6                  0.00023     1.42451   
    77. RY*(   3) H   6                  0.00010     1.70561   
    78. RY*(   4) H   6                  0.00009     1.92283   
    79. RY*(   5) H   6                  0.00002     1.96938   
    80. RY*(   6) H   6                  0.00000     1.27031   
    81. BD*(   1) C   1 - C   2          0.01620     0.42710   
    82. BD*(   1) C   1 - H   4          0.00837     0.36671   
    83. BD*(   1) C   1 - H   5          0.00837     0.36671   
    84. BD*(   1) C   1 - H   6          0.00837     0.36671   
    85. BD*(   1) C   2 - N   3          0.01094     0.93582   
    86. BD*(   2) C   2 - N   3          0.03572     0.09494   
    87. BD*(   3) C   2 - N   3          0.03572     0.09494   
       -------------------------------
              Total Lewis   21.84552  ( 99.2978%)
        Valence non-Lewis    0.12368  (  0.5622%)
        Rydberg non-Lewis    0.03080  (  0.1400%)
       -------------------------------
            Total unit  1   22.00000  (100.0000%)
           Charge unit  1    0.00000
 Calling FoFJK, ICntrl=    100127 FMM=F ISym2X=1 I1Cent= 0 IOpClX= 0 NMat=1 NMatS=1 NMatT=0.
 Full mass-weighted force constant matrix:
 Low frequencies ---   -8.5365   -8.5312   -2.6865   -0.0008    0.0050    0.0382
 Low frequencies ---  381.8133  381.8135  930.5408
 Diagonal vibrational polarizability:
        0.2375171       0.2375185       0.1574381
 Harmonic frequencies (cm**-1), IR intensities (KM/Mole), Raman scattering
 activities (A**4/AMU), depolarization ratios for plane and unpolarized
 incident light, reduced masses (AMU), force constants (mDyne/A),
 and normal coordinates:
                      1                      2                      3
                      E                      E                     A1
 Frequencies --    381.8133               381.8135               930.5408
 Red. masses --      3.8166                 3.8166                 4.5945
 Frc consts  --      0.3278                 0.3278                 2.3440
 IR Inten    --      0.1692                 0.1692                 1.5638
  Atom  AN      X      Y      Z        X      Y      Z        X      Y      Z
     1   6    -0.08   0.00   0.00    -0.00  -0.08  -0.00    -0.00   0.00   0.43
     2   6     0.43  -0.00   0.00     0.00   0.43  -0.00     0.00  -0.00  -0.19
     3   7    -0.24   0.00  -0.00    -0.00  -0.24   0.00    -0.00  -0.00  -0.30
     4   1    -0.30   0.00   0.00    -0.00  -0.29  -0.57     0.00   0.02   0.48
     5   1    -0.29  -0.00  -0.50    -0.00  -0.30   0.29     0.02  -0.01   0.48
     6   1    -0.29   0.00   0.50     0.00  -0.30   0.29    -0.02  -0.01   0.48
                      4                      5                      6
                      E                      E                     A1
 Frequencies --   1061.2597              1061.2598              1411.9638
 Red. masses --      1.4456                 1.4456                 1.2320
 Frc consts  --      0.9592                 0.9592                 1.4472
 IR Inten    --      2.2042                 2.2042                 3.0255
  Atom  AN      X      Y      Z        X      Y      Z        X      Y      Z
     1   6    -0.16   0.00  -0.00    -0.00  -0.16   0.00     0.00   0.00  -0.14
     2   6     0.12  -0.00   0.00     0.00   0.12  -0.00    -0.00  -0.00   0.00
     3   7    -0.02   0.00   0.00    -0.00  -0.02  -0.00     0.00   0.00   0.01
     4   1     0.37  -0.00  -0.00     0.00   0.12   0.70    -0.00   0.24   0.52
     5   1     0.18   0.11   0.61     0.11   0.30  -0.35     0.20  -0.12   0.52
     6   1     0.18  -0.11  -0.61    -0.11   0.30  -0.35    -0.20  -0.12   0.52
                      7                      8                      9
                      E                      E                     A1
 Frequencies --   1474.9380              1474.9381              2363.0807
 Red. masses --      1.0380                 1.0380                12.5580
 Frc consts  --      1.3305                 1.3305                41.3170
 IR Inten    --     12.1300                12.1303                12.0137
  Atom  AN      X      Y      Z        X      Y      Z        X      Y      Z
     1   6    -0.05   0.00   0.00    -0.00  -0.05  -0.00    -0.00  -0.00  -0.10
     2   6    -0.02   0.00  -0.00    -0.00  -0.02   0.00     0.00   0.00   0.80
     3   7     0.00  -0.00  -0.00     0.00   0.00   0.00    -0.00  -0.00  -0.58
     4   1     0.70   0.00   0.00     0.00  -0.17  -0.39    -0.00  -0.01  -0.06
     5   1     0.05   0.38  -0.33     0.38   0.48   0.19    -0.01   0.01  -0.06
     6   1     0.05  -0.38   0.33    -0.38   0.48   0.19     0.01   0.01  -0.06
                     10                     11                     12
                     A1                      E                      E
 Frequencies --   3045.8575              3115.4805              3115.4806
 Red. masses --      1.0337                 1.1020                 1.1020
 Frc consts  --      5.6504                 6.3021                 6.3021
 IR Inten    --      3.4819                 1.2840                 1.2840
  Atom  AN      X      Y      Z        X      Y      Z        X      Y      Z
     1   6     0.00   0.00   0.05    -0.00  -0.09   0.00    -0.09   0.00   0.00
     2   6     0.00   0.00   0.00    -0.00  -0.00  -0.00    -0.00   0.00   0.00
     3   7     0.00  -0.00  -0.00    -0.00  -0.00   0.00    -0.00   0.00  -0.00
     4   1     0.00   0.54  -0.19    -0.00   0.76  -0.28    -0.02  -0.00   0.00
     5   1     0.47  -0.27  -0.19    -0.34   0.18   0.14     0.57  -0.34  -0.25
     6   1    -0.47  -0.27  -0.19     0.34   0.18   0.14     0.57   0.34   0.25

 -------------------
 - Thermochemistry -
 -------------------
 Temperature   298.150 Kelvin.  Pressure   1.00000 Atm.
 Atom     1 has atomic number  6 and mass  12.00000
 Atom     2 has atomic number  6 and mass  12.00000
 Atom     3 has atomic number  7 and mass  14.00307
 Atom     4 has atomic number  1 and mass   1.00783
 Atom     5 has atomic number  1 and mass   1.00783
 Atom     6 has atomic number  1 and mass   1.00783
 Molecular mass:    41.02655 amu.
 Principal axes and moments of inertia in atomic units:
                           1         2         3
     Eigenvalues --    11.33607 195.14058 195.14058
           X            0.00000  -0.30336   0.95288
           Y            0.00000   0.95288   0.30336
           Z            1.00000   0.00000   0.00000
 This molecule is a prolate symmetric top.
 Rotational symmetry number  3.
 Rotational temperatures (Kelvin)      7.64056     0.44385     0.44385
 Rotational constants (GHZ):         159.20348     9.24842     9.24842
 Zero-point vibrational energy     118540.5 (Joules/Mol)
                                   28.33186 (Kcal/Mol)
 Warning -- explicit consideration of   2 degrees of freedom as
           vibrations may cause significant error
 Vibrational temperatures:    549.34   549.34  1338.84  1526.92  1526.92
          (Kelvin)           2031.50  2122.11  2122.11  3399.95  4382.31
                             4482.48  4482.48
 
 Zero-point correction=                           0.045150 (Hartree/Particle)
 Thermal correction to Energy=                    0.048761
 Thermal correction to Enthalpy=                  0.049706
 Thermal correction to Gibbs Free Energy=         0.022171
 Sum of electronic and zero-point Energies=           -132.751051
 Sum of electronic and thermal Energies=              -132.747439
 Sum of electronic and thermal Enthalpies=            -132.746495
 Sum of electronic and thermal Free Energies=         -132.774029
 
                     E (Thermal)             CV                S
                      KCal/Mol        Cal/Mol-Kelvin    Cal/Mol-Kelvin
 Total                   30.598             10.337             57.952
 Electronic               0.000              0.000              0.000
 Translational            0.889              2.981             37.062
 Rotational               0.889              2.981             18.512
 Vibrational             28.821              4.376              2.377
 Vibration     1          0.751              1.509              1.032
 Vibration     2          0.751              1.509              1.032
                       Q            Log10(Q)             Ln(Q)
 Total Bot       0.633938D-10        -10.197953        -23.481655
 Total V=0       0.371063D+11         10.569448         24.337053
 Vib (Bot)       0.247567D-20        -20.606307        -47.447776
 Vib (Bot)    1  0.472943D+00         -0.325192         -0.748781
 Vib (Bot)    2  0.472942D+00         -0.325192         -0.748782
 Vib (V=0)       0.144908D+01          0.161093          0.370931
 Vib (V=0)    1  0.118824D+01          0.074904          0.172473
 Vib (V=0)    2  0.118824D+01          0.074904          0.172473
 Electronic      0.100000D+01          0.000000          0.000000
 Translational   0.103288D+08          7.014051         16.150450
 Rotational      0.247915D+04          3.394303          7.815672
 ***** Axes restored to original set *****
 -------------------------------------------------------------------
 Center     Atomic                   Forces (Hartrees/Bohr)
 Number     Number              X              Y              Z
 -------------------------------------------------------------------
      1        6          -0.000342824    0.000004153    0.000014534
      2        6           0.000071996   -0.000000872   -0.000003052
      3        7           0.000093610   -0.000001134   -0.000003969
      4        1           0.000059114    0.000000040   -0.000001745
      5        1           0.000059032   -0.000000435   -0.000003538
      6        1           0.000059072   -0.000001752   -0.000002230
 -------------------------------------------------------------------
 Cartesian Forces:  Max     0.000342824 RMS     0.000088889
 FormGI is forming the generalized inverse of G from B-inverse, IUseBI=4.

 GradGradGradGradGradGradGradGradGradGradGradGradGradGradGradGradGradGrad
 Berny optimization.
 Internal  Forces:  Max     0.000165767 RMS     0.000051919
 Search for a local minimum.
 Step number   1 out of a maximum of    2
 All quantities printed in internal units (Hartrees-Bohrs-Radians)
 Second derivative matrix not updated -- analytic derivatives used.
 The second derivative matrix:
                          R1        R2        R3        R4        R5
           R1           0.34103
           R2           0.00788   0.33917
           R3           0.00788   0.00286   0.33917
           R4           0.00788   0.00286   0.00286   0.33917
           R5           0.00451  -0.00259  -0.00259  -0.00259   1.25230
           A1           0.00425   0.00195  -0.00107  -0.00251   0.00023
           A2           0.00663  -0.00056   0.00344  -0.00542   0.00035
           A3           0.01287  -0.00438  -0.00487   0.00433   0.00069
           A4          -0.00200   0.00295   0.00328  -0.00546  -0.00011
           A5          -0.01053   0.00564  -0.00537   0.00377  -0.00056
           A6          -0.01186  -0.00552   0.00467   0.00539  -0.00063
           A7          -0.00000  -0.00163   0.00082   0.00082  -0.00000
           A8          -0.00000   0.00000   0.00069  -0.00069   0.00000
           D1          -0.00805  -0.00392  -0.00287   0.00987  -0.00043
           D2           0.00649   0.00327  -0.00771   0.00196   0.00035
           D3          -0.00858   0.00687  -0.00419   0.00061  -0.00046
           D4          -0.01507   0.00360   0.00352  -0.00135  -0.00080
                          A1        A2        A3        A4        A5
           A1           0.02258
           A2          -0.00962   0.04306
           A3          -0.01503  -0.02672   0.08388
           A4          -0.00921  -0.00252   0.02462   0.03487
           A5          -0.01356   0.02603  -0.03884  -0.02108   0.07245
           A6           0.02489  -0.03041  -0.02903  -0.02702  -0.02429
           A7          -0.00806   0.00448   0.00667   0.00278   0.00215
           A8           0.00024   0.00490  -0.00669  -0.00164   0.00337
           D1          -0.01605  -0.01306   0.01938  -0.00915   0.01399
           D2           0.00997  -0.01183   0.00857  -0.00951   0.00519
           D3           0.00536  -0.01733  -0.00038   0.00503   0.00721
           D4          -0.00462  -0.00550  -0.00895   0.01454   0.00202
                          A6        A7        A8        D1        D2
           A6           0.08678
           A7          -0.00810   0.08830
           A8          -0.00014  -0.00000   0.02102
           D1           0.00515   0.00541  -0.00228   0.03356
           D2          -0.00257  -0.00446  -0.00169   0.00102   0.02082
           D3           0.00045  -0.00450  -0.00182   0.00090   0.01091
           D4           0.00302  -0.00004  -0.00013  -0.00012  -0.00991
                          D3        D4
           D3           0.02128
           D4           0.01036   0.02028
 ITU=  0
     Eigenvalues ---    0.02005   0.04169   0.04588   0.06939   0.08620
     Eigenvalues ---    0.13645   0.14342   0.33192   0.33723   0.33753
     Eigenvalues ---    0.35760   1.25235
 Angle between quadratic step and forces=  50.00 degrees.
 Linear search not attempted -- first point.
 Iteration  1 RMS(Cart)=  0.00024032 RMS(Int)=  0.00000022
 Iteration  2 RMS(Cart)=  0.00000013 RMS(Int)=  0.00000018
 ClnCor:  largest displacement from symmetrization is 1.72D-07 for atom     6.
 Variable       Old X    -DE/DX   Delta X   Delta X   Delta X     New X
                                 (Linear)    (Quad)   (Total)
    R1        2.75175   0.00017   0.00000   0.00066   0.00066   2.75240
    R2        2.06336  -0.00002   0.00000  -0.00010  -0.00010   2.06326
    R3        2.06336  -0.00002   0.00000  -0.00010  -0.00010   2.06326
    R4        2.06336  -0.00002   0.00000  -0.00010  -0.00010   2.06326
    R5        2.17811   0.00009   0.00000   0.00007   0.00007   2.17818
    A1        1.92353  -0.00001   0.00000  -0.00050  -0.00050   1.92302
    A2        1.92353  -0.00002   0.00000  -0.00050  -0.00050   1.92302
    A3        1.92353  -0.00004   0.00000  -0.00050  -0.00050   1.92302
    A4        1.89757   0.00001   0.00000   0.00052   0.00052   1.89808
    A5        1.89757   0.00003   0.00000   0.00052   0.00052   1.89808
    A6        1.89757   0.00004   0.00000   0.00052   0.00052   1.89808
    A7        3.14159   0.00000   0.00000  -0.00000   0.00000   3.14159
    A8        3.14159   0.00000   0.00000   0.00000  -0.00000   3.14159
    D1       -2.11001   0.00002   0.00000   0.00060   0.00060  -2.10940
    D2        2.11001  -0.00002   0.00000  -0.00060  -0.00060   2.10940
    D3       -2.11001   0.00003   0.00000   0.00060   0.00060  -2.10940
    D4        2.06317   0.00005   0.00000   0.00120   0.00120   2.06438
         Item               Value     Threshold  Converged?
 Maximum Force            0.000166     0.000450     YES
 RMS     Force            0.000052     0.000300     YES
 Maximum Displacement     0.000734     0.001800     YES
 RMS     Displacement     0.000240     0.001200     YES
 Predicted change in Energy=-1.469053D-07
 Optimization completed.
    -- Stationary point found.
                           ----------------------------
                           !   Optimized Parameters   !
                           ! (Angstroms and Degrees)  !
 --------------------------                            --------------------------
 ! Name  Definition              Value          Derivative Info.                !
 --------------------------------------------------------------------------------
 ! R1    R(1,2)                  1.4562         -DE/DX =    0.0002              !
 ! R2    R(1,4)                  1.0919         -DE/DX =    0.0                 !
 ! R3    R(1,5)                  1.0919         -DE/DX =    0.0                 !
 ! R4    R(1,6)                  1.0919         -DE/DX =    0.0                 !
 ! R5    R(2,3)                  1.1526         -DE/DX =    0.0001              !
 ! A1    A(2,1,4)              110.21           -DE/DX =    0.0                 !
 ! A2    A(2,1,5)              110.21           -DE/DX =    0.0                 !
 ! A3    A(2,1,6)              110.21           -DE/DX =    0.0                 !
 ! A4    A(4,1,5)              108.7225         -DE/DX =    0.0                 !
 ! A5    A(4,1,6)              108.7225         -DE/DX =    0.0                 !
 ! A6    A(5,1,6)              108.7225         -DE/DX =    0.0                 !
 ! A7    L(1,2,3,4,-1)         180.0            -DE/DX =    0.0                 !
 ! A8    L(1,2,3,4,-2)         180.0            -DE/DX =    0.0                 !
 ! D1    D(2,1,5,4)           -120.8945         -DE/DX =    0.0                 !
 ! D2    D(2,1,6,4)            120.8945         -DE/DX =    0.0                 !
 ! D3    D(2,1,6,5)           -120.8945         -DE/DX =    0.0                 !
 ! D4    D(4,1,6,5)            118.2111         -DE/DX =    0.0                 !
 --------------------------------------------------------------------------------
 GradGradGradGradGradGradGradGradGradGradGradGradGradGradGradGradGradGrad


 ----------------------------------------------------------------------

 Electric dipole moment (input orientation):
 (Debye = 10**-18 statcoulomb cm , SI units = C m)
                  (au)            (Debye)         (10**-30 SI)
   Tot        0.159479D+01      0.405355D+01      0.135212D+02
   x         -0.159324D+01     -0.404961D+01     -0.135080D+02
   y          0.193007D-01      0.490575D-01      0.163638D+00
   z          0.675446D-01      0.171681D+00      0.572667D+00

 Dipole polarizability, Alpha (input orientation).
 (esu units = cm**3 , SI units = C**2 m**2 J**-1)
 Alpha(0;0):
               (au)            (10**-24 esu)      (10**-40 SI)
   iso        0.270855D+02      0.401366D+01      0.446580D+01
   aniso      0.178717D+02      0.264831D+01      0.294664D+01
   xx         0.389653D+02      0.577406D+01      0.642451D+01
   yx        -0.216105D+00     -0.320235D-01     -0.356309D-01
   yy         0.211309D+02      0.313128D+01      0.348402D+01
   zx        -0.756218D+00     -0.112060D+00     -0.124684D+00
   zy         0.923156D-02      0.136798D-02      0.152208D-02
   zz         0.211604D+02      0.313564D+01      0.348887D+01

 ----------------------------------------------------------------------

 Dipole orientation:
     6         -0.00000001          0.00000000          0.92398294
     6         -0.00000001          0.00000000         -1.82776391
     7         -0.00000001          0.00000000         -4.00586927
     1         -1.38958555         -1.34848139          1.63679373
     1          1.86261190         -0.52917568          1.63679373
     1         -0.47302639          1.87765708          1.63679373

 Electric dipole moment (dipole orientation):
 (Debye = 10**-18 statcoulomb cm , SI units = C m)
                  (au)            (Debye)         (10**-30 SI)
   Tot        0.159479D+01      0.405355D+01      0.135212D+02
   x          0.000000D+00      0.000000D+00      0.000000D+00
   y          0.000000D+00      0.000000D+00      0.000000D+00
   z          0.159479D+01      0.405355D+01      0.135212D+02

 Dipole polarizability, Alpha (dipole orientation).
 (esu units = cm**3 , SI units = C**2 m**2 J**-1)
 Alpha(0;0):
               (au)            (10**-24 esu)      (10**-40 SI)
   iso        0.270855D+02      0.401366D+01      0.446580D+01
   aniso      0.178717D+02      0.264831D+01      0.294664D+01
   xx         0.211283D+02      0.313089D+01      0.348358D+01
   yx         0.694607D-04      0.102930D-04      0.114525D-04
   yy         0.211283D+02      0.313089D+01      0.348358D+01
   zx         0.288817D-04      0.427982D-05      0.476194D-05
   zy         0.280273D-04      0.415322D-05      0.462109D-05
   zz         0.390000D+02      0.577920D+01      0.643023D+01

 ----------------------------------------------------------------------
 Unable to Open any file for archive entry.
 1\1\GINC-CCC131\Freq\RB3LYP\6-311++G(d,p)\C2H3N1\ROOT\12-Jun-2024\0\\#
 N Geom=AllCheck Guess=TCheck SCRF=Check GenChk RB3LYP/6-311++G(d,p) Fr
 eq\\CC#N\\0,1\C,-0.4884761373,0.0059174645,0.0207087021\C,0.9662722269
 ,-0.011705548,-0.0409646466\N,2.1177572181,-0.0256547883,-0.0897812922
 \H,-0.904837702,-0.7115322695,-0.6893026682\H,-0.826677218,-0.25807291
 86,1.0247686235\H,-0.8644248191,1.0010527442,-0.2254123718\\Version=ES
 64L-G16RevC.02\State=1-A1\HF=-132.7962005\RMSD=2.113e-09\RMSF=8.889e-0
 5\ZeroPoint=0.0451497\Thermal=0.0487615\ETot=-132.747439\HTot=-132.746
 4948\GTot=-132.7740294\Dipole=-1.5932397,0.0193007,0.0675446\DipoleDer
 iv=0.0054282,0.0015699,0.005497,0.0015683,0.1351005,-0.0000665,0.00549
 53,-0.0000666,0.1348866,0.2584522,-0.002781,-0.0097176,-0.0027741,0.02
 94083,0.000117,-0.0097106,0.0001172,0.0297865,-0.330215,0.0002034,0.00
 06964,0.0001972,-0.3139347,-0.0000082,0.0006903,-0.0000083,-0.3139617,
 0.0200607,-0.0076515,-0.0048027,-0.0334813,0.0506998,-0.0649826,-0.030
 8174,-0.0657625,0.050922,0.0239895,0.0004965,0.0062021,-0.0090881,0.10
 72504,0.0339247,0.0415863,0.0330891,-0.009557,0.0222849,0.0081622,0.00
 21243,0.0435771,-0.008525,0.0310154,-0.0072449,0.0326309,0.107923\Pola
 r=38.9652838,-0.2161051,21.1309082,-0.7562183,0.0092316,21.1603515\Qua
 drupole=-1.6423013,0.8231857,0.8191157,0.0298716,0.1045385,-0.0012664\
 PG=C03V [C3(C1C1N1),3SGV(H1)]\NImag=0\\0.50502588,0.00045701,0.5427445
 3,0.00159931,-0.00001940,0.54268226,-0.27682058,0.00248655,0.00870172,
 1.58144581,0.00248637,-0.07159661,-0.00010539,-0.01787547,0.10610186,0
 .00870154,-0.00010540,-0.07193539,-0.06255601,0.00075785,0.10853735,-0
 .00441756,0.00028234,0.00098826,-1.24544387,0.01463004,0.05119822,1.24
 990902,0.00028249,0.01889196,-0.00001196,0.01462990,-0.03796879,-0.000
 62024,-0.01491684,0.01875235,0.00098842,-0.00001195,0.01885348,0.05119
 808,-0.00062025,-0.03996209,-0.05220221,0.00063240,0.02078474,-0.08121
 712,-0.06551910,-0.06485903,-0.02123477,-0.02447287,-0.02408313,0.0002
 5643,0.00301104,0.00305540,0.09339117,-0.06535094,-0.16109355,-0.11612
 849,-0.00230301,0.00146385,0.00408980,0.00190512,0.00005384,-0.0010225
 3,0.07243456,0.17156480,-0.06468968,-0.11612341,-0.15883187,-0.0017546
 5,0.00475919,0.00231837,0.00194157,-0.00105592,-0.00011011,0.07144808,
 0.12673826,0.16904309,-0.06835242,-0.01941143,0.07379916,-0.01824623,-
 0.00912164,0.03504455,-0.00028388,0.00116564,-0.00419047,0.00413369,0.
 00457804,-0.01131181,0.07910713,-0.01934900,-0.05972201,0.06035231,-0.
 00089535,-0.00189962,-0.00224122,0.00075529,0.00086517,0.00047622,0.00
 795253,0.00582103,-0.01974148,0.02146154,0.06089769,0.07356878,0.06035
 782,-0.27306819,0.00467473,-0.00152459,0.00269329,-0.00267551,0.000440
 48,-0.00038106,0.00581894,0.00564197,-0.01775679,-0.08232865,-0.065893
 98,0.29399424,-0.07421811,0.08170464,-0.02022941,-0.01970027,0.0343535
 3,-0.00830520,-0.00002028,-0.00417221,0.00115082,0.00467059,-0.0112638
 0,0.00436648,0.00364169,-0.00992501,0.00094170,0.08562636,0.08147406,-
 0.26922427,0.05591294,0.00395736,0.00389928,-0.00188077,-0.00265593,-0
 .00059453,0.00054612,0.00659381,-0.01780997,0.00542333,0.00132784,-0.0
 0596224,0.00097833,-0.09069715,0.28969170,-0.02016838,0.05590235,-0.05
 770025,-0.00026388,-0.00326680,-0.00165156,0.00074969,0.00061525,0.000
 81503,0.00861973,-0.01931904,0.00533732,-0.01101276,0.02704812,-0.0054
 8152,0.02207561,-0.06097990,0.05868100\\0.00034282,-0.00000415,-0.0000
 1453,-0.00007200,0.00000087,0.00000305,-0.00009361,0.00000113,0.000003
 97,-0.00005911,-0.00000004,0.00000174,-0.00005903,0.00000043,0.0000035
 4,-0.00005907,0.00000175,0.00000223\\\@
 The archive entry for this job was punched.


 Everywhere is walking distance if you have the time.
                                    -- Steven Wright
 Job cpu time:       0 days  0 hours  0 minutes 44.1 seconds.
 Elapsed time:       0 days  0 hours  0 minutes  7.3 seconds.
 File lengths (MBytes):  RWF=     10 Int=      0 D2E=      0 Chk=      2 Scr=      1
 Normal termination of Gaussian 16 at Wed Jun 12 21:54:41 2024.
