 Entering Gaussian System, Link 0=/apl/gaussian/16c02/g16/._.g16
 Initial command:
 /apl/gaussian/16c02/g16/l1.exe "/lwork/users/eso/6527383.ccpbs1/gaussian/Gau-1606496.inp" -scrdir="/lwork/users/eso/6527383.ccpbs1/gaussian/"
 Default CPUs for threads: 24,25,26,27,28,29,30,31
 Default is to use a total of   8 processors:
                                8 via shared-memory
                                1 via Linda
 Entering Link 1 = /apl/gaussian/16c02/g16/l1.exe PID=   1606497.
  
 Copyright (c) 1988-2021, Gaussian, Inc.  All Rights Reserved.
  
 This is part of the Gaussian(R) 16 program.  It is based on
 the Gaussian(R) 09 system (copyright 2009, Gaussian, Inc.),
 the Gaussian(R) 03 system (copyright 2003, Gaussian, Inc.),
 the Gaussian(R) 98 system (copyright 1998, Gaussian, Inc.),
 the Gaussian(R) 94 system (copyright 1995, Gaussian, Inc.),
 the Gaussian 92(TM) system (copyright 1992, Gaussian, Inc.),
 the Gaussian 90(TM) system (copyright 1990, Gaussian, Inc.),
 the Gaussian 88(TM) system (copyright 1988, Gaussian, Inc.),
 the Gaussian 86(TM) system (copyright 1986, Carnegie Mellon
 University), and the Gaussian 82(TM) system (copyright 1983,
 Carnegie Mellon University). Gaussian is a federally registered
 trademark of Gaussian, Inc.
  
 This software contains proprietary and confidential information,
 including trade secrets, belonging to Gaussian, Inc.
  
 This software is provided under written license and may be
 used, copied, transmitted, or stored only in accord with that
 written license.
  
 The following legend is applicable only to US Government
 contracts under FAR:
  
                    RESTRICTED RIGHTS LEGEND
  
 Use, reproduction and disclosure by the US Government is
 subject to restrictions as set forth in subparagraphs (a)
 and (c) of the Commercial Computer Software - Restricted
 Rights clause in FAR 52.227-19.
  
 Gaussian, Inc.
 340 Quinnipiac St., Bldg. 40, Wallingford CT 06492
  
  
 ---------------------------------------------------------------
 Warning -- This program may not be used in any manner that
 competes with the business of Gaussian, Inc. or will provide
 assistance to any competitor of Gaussian, Inc.  The licensee
 of this program is prohibited from giving any competitor of
 Gaussian, Inc. access to this program.  By using this program,
 the user acknowledges that Gaussian, Inc. is engaged in the
 business of creating and licensing software in the field of
 computational chemistry and represents and warrants to the
 licensee that it is not a competitor of Gaussian, Inc. and that
 it will not use this program in any manner prohibited above.
 ---------------------------------------------------------------
  

 Cite this work as:
 Gaussian 16, Revision C.02,
 M. J. Frisch, G. W. Trucks, H. B. Schlegel, G. E. Scuseria, 
 M. A. Robb, J. R. Cheeseman, G. Scalmani, V. Barone, 
 G. A. Petersson, H. Nakatsuji, X. Li, M. Caricato, A. V. Marenich, 
 J. Bloino, B. G. Janesko, R. Gomperts, B. Mennucci, H. P. Hratchian, 
 J. V. Ortiz, A. F. Izmaylov, J. L. Sonnenberg, D. Williams-Young, 
 F. Ding, F. Lipparini, F. Egidi, J. Goings, B. Peng, A. Petrone, 
 T. Henderson, D. Ranasinghe, V. G. Zakrzewski, J. Gao, N. Rega, 
 G. Zheng, W. Liang, M. Hada, M. Ehara, K. Toyota, R. Fukuda, 
 J. Hasegawa, M. Ishida, T. Nakajima, Y. Honda, O. Kitao, H. Nakai, 
 T. Vreven, K. Throssell, J. A. Montgomery, Jr., J. E. Peralta, 
 F. Ogliaro, M. J. Bearpark, J. J. Heyd, E. N. Brothers, K. N. Kudin, 
 V. N. Staroverov, T. A. Keith, R. Kobayashi, J. Normand, 
 K. Raghavachari, A. P. Rendell, J. C. Burant, S. S. Iyengar, 
 J. Tomasi, M. Cossi, J. M. Millam, M. Klene, C. Adamo, R. Cammi, 
 J. W. Ochterski, R. L. Martin, K. Morokuma, O. Farkas, 
 J. B. Foresman, and D. J. Fox, Gaussian, Inc., Wallingford CT, 2019.
 
 ******************************************
 Gaussian 16:  ES64L-G16RevC.02  7-Dec-2021
                12-Jun-2024 
 ******************************************
 %chk=CC1=CC=CC=C1.chk
 %mem=9600MB
 SetSPE:  set environment variable "OMP_PROC_BIND" = "true"
 SetSPE:  set environment variable "OMP_PLACES" = "{24},{25},{26},{27},{28},{29},{30},{31}"
 --------------------------------------------------------
 # opt freq b3lyp/6-311++g(d,p) pop=nbo geom=connectivity
 --------------------------------------------------------
 1/18=20,19=15,26=3,38=1,57=2/1,3;
 2/9=110,12=2,17=6,18=5,40=1/2;
 3/5=4,6=6,7=1111,11=2,25=1,30=1,71=1,74=-5/1,2,3;
 4//1;
 5/5=2,38=5/2;
 6/7=2,8=2,9=2,10=2,28=1,40=1/1,7;
 7//1,2,3,16;
 1/18=20,19=15,26=3/3(2);
 2/9=110/2;
 99//99;
 2/9=110/2;
 3/5=4,6=6,7=1111,11=2,25=1,30=1,71=1,74=-5/1,2,3;
 4/5=5,16=3,69=1/1;
 5/5=2,38=5/2;
 7//1,2,3,16;
 1/18=20,19=15,26=3/3(-5);
 2/9=110/2;
 6/7=2,8=2,9=2,10=2,19=2,28=1,40=1/1,7;
 99/9=1/99;
 ------------
 CC1=CC=CC=C1
 ------------
 Symbolic Z-matrix:
 Charge =  0 Multiplicity = 1
 C                     2.21859  -0.10864  -0.00882 
 C                     0.72056  -0.03793  -0.02754 
 C                     0.06999   1.19739  -0.13622 
 C                    -1.32422   1.26594  -0.12194 
 C                    -2.07916   0.10216   0.01151 
 C                    -1.44054  -1.13034   0.13505 
 C                    -0.04638  -1.20018   0.12091 
 H                     2.5847   -0.01626   1.01828 
 H                     2.65509   0.69292  -0.61396 
 H                     2.57009  -1.0581   -0.42617 
 H                     0.64621   2.11459  -0.23359 
 H                    -1.82091   2.22831  -0.21211 
 H                    -3.16436   0.15611   0.02347 
 H                    -2.02799  -2.03792   0.24542 
 H                     0.43833  -2.16808   0.2257 
 

 GradGradGradGradGradGradGradGradGradGradGradGradGradGradGradGradGradGrad
 Berny optimization.
 Initialization pass.
                           ----------------------------
                           !    Initial Parameters    !
                           ! (Angstroms and Degrees)  !
 --------------------------                            --------------------------
 ! Name  Definition              Value          Derivative Info.                !
 --------------------------------------------------------------------------------
 ! R1    R(1,2)                  1.4998         estimate D2E/DX2                !
 ! R2    R(1,8)                  1.0943         estimate D2E/DX2                !
 ! R3    R(1,9)                  1.0951         estimate D2E/DX2                !
 ! R4    R(1,10)                 1.0951         estimate D2E/DX2                !
 ! R5    R(2,3)                  1.4004         estimate D2E/DX2                !
 ! R6    R(2,7)                  1.4004         estimate D2E/DX2                !
 ! R7    R(3,4)                  1.396          estimate D2E/DX2                !
 ! R8    R(3,11)                 1.0876         estimate D2E/DX2                !
 ! R9    R(4,5)                  1.3936         estimate D2E/DX2                !
 ! R10   R(4,12)                 1.0867         estimate D2E/DX2                !
 ! R11   R(5,6)                  1.3936         estimate D2E/DX2                !
 ! R12   R(5,13)                 1.0866         estimate D2E/DX2                !
 ! R13   R(6,7)                  1.396          estimate D2E/DX2                !
 ! R14   R(6,14)                 1.0867         estimate D2E/DX2                !
 ! R15   R(7,15)                 1.0876         estimate D2E/DX2                !
 ! A1    A(2,1,8)              109.9922         estimate D2E/DX2                !
 ! A2    A(2,1,9)              110.8988         estimate D2E/DX2                !
 ! A3    A(2,1,10)             110.8987         estimate D2E/DX2                !
 ! A4    A(8,1,9)              108.8754         estimate D2E/DX2                !
 ! A5    A(8,1,10)             108.8754         estimate D2E/DX2                !
 ! A6    A(9,1,10)             107.2225         estimate D2E/DX2                !
 ! A7    A(1,2,3)              120.4355         estimate D2E/DX2                !
 ! A8    A(1,2,7)              120.4355         estimate D2E/DX2                !
 ! A9    A(3,2,7)              119.0732         estimate D2E/DX2                !
 ! A10   A(2,3,4)              120.4313         estimate D2E/DX2                !
 ! A11   A(2,3,11)             120.3159         estimate D2E/DX2                !
 ! A12   A(4,3,11)             119.2528         estimate D2E/DX2                !
 ! A13   A(3,4,5)              120.0664         estimate D2E/DX2                !
 ! A14   A(3,4,12)             119.941          estimate D2E/DX2                !
 ! A15   A(5,4,12)             119.9924         estimate D2E/DX2                !
 ! A16   A(4,5,6)              119.9203         estimate D2E/DX2                !
 ! A17   A(4,5,13)             120.0396         estimate D2E/DX2                !
 ! A18   A(6,5,13)             120.0396         estimate D2E/DX2                !
 ! A19   A(5,6,7)              120.0664         estimate D2E/DX2                !
 ! A20   A(5,6,14)             119.9924         estimate D2E/DX2                !
 ! A21   A(7,6,14)             119.941          estimate D2E/DX2                !
 ! A22   A(2,7,6)              120.4313         estimate D2E/DX2                !
 ! A23   A(2,7,15)             120.3159         estimate D2E/DX2                !
 ! A24   A(6,7,15)             119.2528         estimate D2E/DX2                !
 ! D1    D(8,1,2,3)             88.6282         estimate D2E/DX2                !
 ! D2    D(8,1,2,7)            -88.6283         estimate D2E/DX2                !
 ! D3    D(9,1,2,3)            -31.8638         estimate D2E/DX2                !
 ! D4    D(9,1,2,7)            150.8796         estimate D2E/DX2                !
 ! D5    D(10,1,2,3)          -150.8798         estimate D2E/DX2                !
 ! D6    D(10,1,2,7)            31.8637         estimate D2E/DX2                !
 ! D7    D(1,2,3,4)           -178.4853         estimate D2E/DX2                !
 ! D8    D(1,2,3,11)             1.5659         estimate D2E/DX2                !
 ! D9    D(7,2,3,4)             -1.1916         estimate D2E/DX2                !
 ! D10   D(7,2,3,11)           178.8595         estimate D2E/DX2                !
 ! D11   D(1,2,7,6)            178.4853         estimate D2E/DX2                !
 ! D12   D(1,2,7,15)            -1.5659         estimate D2E/DX2                !
 ! D13   D(3,2,7,6)              1.1916         estimate D2E/DX2                !
 ! D14   D(3,2,7,15)          -178.8595         estimate D2E/DX2                !
 ! D15   D(2,3,4,5)              0.5013         estimate D2E/DX2                !
 ! D16   D(2,3,4,12)          -179.6754         estimate D2E/DX2                !
 ! D17   D(11,3,4,5)          -179.5493         estimate D2E/DX2                !
 ! D18   D(11,3,4,12)            0.274          estimate D2E/DX2                !
 ! D19   D(3,4,5,6)              0.2053         estimate D2E/DX2                !
 ! D20   D(3,4,5,13)           179.9452         estimate D2E/DX2                !
 ! D21   D(12,4,5,6)          -179.6179         estimate D2E/DX2                !
 ! D22   D(12,4,5,13)            0.122          estimate D2E/DX2                !
 ! D23   D(4,5,6,7)             -0.2053         estimate D2E/DX2                !
 ! D24   D(4,5,6,14)           179.6179         estimate D2E/DX2                !
 ! D25   D(13,5,6,7)          -179.9452         estimate D2E/DX2                !
 ! D26   D(13,5,6,14)           -0.122          estimate D2E/DX2                !
 ! D27   D(5,6,7,2)             -0.5013         estimate D2E/DX2                !
 ! D28   D(5,6,7,15)           179.5493         estimate D2E/DX2                !
 ! D29   D(14,6,7,2)           179.6754         estimate D2E/DX2                !
 ! D30   D(14,6,7,15)           -0.274          estimate D2E/DX2                !
 --------------------------------------------------------------------------------
 Trust Radius=3.00D-01 FncErr=1.00D-07 GrdErr=1.00D-06 EigMax=2.50D+02 EigMin=1.00D-04
 Number of steps in this run=     79 maximum allowed number of steps=    100.
 GradGradGradGradGradGradGradGradGradGradGradGradGradGradGradGradGradGrad

                          Input orientation:                          
 ---------------------------------------------------------------------
 Center     Atomic      Atomic             Coordinates (Angstroms)
 Number     Number       Type             X           Y           Z
 ---------------------------------------------------------------------
      1          6           0        2.218590   -0.108636   -0.008819
      2          6           0        0.720561   -0.037929   -0.027537
      3          6           0        0.069994    1.197392   -0.136215
      4          6           0       -1.324223    1.265944   -0.121936
      5          6           0       -2.079159    0.102157    0.011509
      6          6           0       -1.440538   -1.130336    0.135051
      7          6           0       -0.046384   -1.200179    0.120910
      8          1           0        2.584699   -0.016256    1.018284
      9          1           0        2.655088    0.692923   -0.613957
     10          1           0        2.570093   -1.058102   -0.426168
     11          1           0        0.646210    2.114594   -0.233591
     12          1           0       -1.820907    2.228314   -0.212113
     13          1           0       -3.164365    0.156115    0.023466
     14          1           0       -2.027989   -2.037917    0.245415
     15          1           0        0.438329   -2.168083    0.225701
 ---------------------------------------------------------------------
                    Distance matrix (angstroms):
                    1          2          3          4          5
     1  C    0.000000
     2  C    1.499814   0.000000
     3  C    2.517619   1.400381   0.000000
     4  C    3.801814   2.426960   1.395973   0.000000
     5  C    4.302964   2.803494   2.416655   1.393606   0.000000
     6  C    3.801814   2.426960   2.788119   2.412825   1.393606
     7  C    2.517619   1.400381   2.414126   2.788119   2.416655
     8  H    1.094308   2.137574   3.021515   4.268935   4.772755
     9  H    1.095089   2.149518   2.676834   4.050352   4.811789
    10  H    1.095089   2.149518   3.379619   4.545266   4.811788
    11  H    2.732335   2.163640   1.087551   2.148320   3.396706
    12  H    4.671210   3.410130   2.155009   1.086730   2.153426
    13  H    5.389559   3.890103   3.401592   2.153830   1.086612
    14  H    4.671210   3.410130   3.874842   3.397901   2.153426
    15  H    2.732334   2.163640   3.404861   3.875562   3.396706
                    6          7          8          9         10
     6  C    0.000000
     7  C    1.395974   0.000000
     8  H    4.268935   3.021515   0.000000
     9  H    4.545266   3.379619   1.781039   0.000000
    10  H    4.050351   2.676833   1.781039   1.763116   0.000000
    11  H    3.875562   3.404861   3.140931   2.490264   3.715429
    12  H    3.397901   3.874842   5.095226   4.749046   5.488828
    13  H    2.153830   3.401592   5.837046   5.878818   5.878818
    14  H    1.086731   2.155009   5.095227   5.488827   4.749044
    15  H    2.148320   1.087551   3.140932   3.715428   2.490263
                   11         12         13         14         15
    11  H    0.000000
    12  H    2.469830   0.000000
    13  H    4.292109   2.480804   0.000000
    14  H    4.962271   4.295689   2.480803   0.000000
    15  H    4.312248   4.962271   4.292109   2.469830   0.000000
 Stoichiometry    C7H8
 Framework group  C1[X(C7H8)]
 Deg. of freedom    39
 Full point group                 C1      NOp   1
 Largest Abelian subgroup         C1      NOp   1
 Largest concise Abelian subgroup C1      NOp   1
                         Standard orientation:                         
 ---------------------------------------------------------------------
 Center     Atomic      Atomic             Coordinates (Angstroms)
 Number     Number       Type             X           Y           Z
 ---------------------------------------------------------------------
      1          6           0       -2.409561   -0.000000    0.009466
      2          6           0       -0.910019   -0.000000   -0.019078
      3          6           0       -0.200210   -1.207063   -0.003680
      4          6           0        1.195754   -1.206413    0.001565
      5          6           0        1.893396    0.000000    0.002023
      6          6           0        1.195754    1.206413    0.001565
      7          6           0       -0.200210    1.207063   -0.003680
      8          1           0       -2.764058   -0.000001    1.044764
      9          1           0       -2.810007   -0.881557   -0.502119
     10          1           0       -2.810007    0.881559   -0.502117
     11          1           0       -0.731245   -2.156124    0.003491
     12          1           0        1.738567   -2.147844    0.008198
     13          1           0        2.979997    0.000000    0.007007
     14          1           0        1.738567    2.147844    0.008199
     15          1           0       -0.731245    2.156124    0.003491
 ---------------------------------------------------------------------
 Rotational constants (GHZ):           5.5083204           2.5378841           1.7569007
 Standard basis: 6-311++G(d,p) (5D, 7F)
 There are   217 symmetry adapted cartesian basis functions of A   symmetry.
 There are   210 symmetry adapted basis functions of A   symmetry.
   210 basis functions,   324 primitive gaussians,   217 cartesian basis functions
    25 alpha electrons       25 beta electrons
       nuclear repulsion energy       269.2004205838 Hartrees.
 NAtoms=   15 NActive=   15 NUniq=   15 SFac= 1.00D+00 NAtFMM=   60 NAOKFM=F Big=F
 Integral buffers will be    131072 words long.
 Raffenetti 2 integral format.
 Two-electron integral symmetry is turned on.
 One-electron integrals computed using PRISM.
 NBasis=   210 RedAO= T EigKep=  1.11D-06  NBF=   210
 NBsUse=   210 1.00D-06 EigRej= -1.00D+00 NBFU=   210
 ExpMin= 3.60D-02 ExpMax= 4.56D+03 ExpMxC= 6.82D+02 IAcc=3 IRadAn=         5 AccDes= 0.00D+00
 Harris functional with IExCor=  402 and IRadAn=       5 diagonalized for initial guess.
 HarFok:  IExCor=  402 AccDes= 0.00D+00 IRadAn=         5 IDoV= 1 UseB2=F ITyADJ=14
 ICtDFT=  3500011 ScaDFX=  1.000000  1.000000  1.000000  1.000000
 FoFCou: FMM=F IPFlag=           0 FMFlag=      100000 FMFlg1=           0
         NFxFlg=           0 DoJE=T BraDBF=F KetDBF=T FulRan=T
         wScrn=  0.000000 ICntrl=       500 IOpCl=  0 I1Cent=   200000004 NGrid=           0
         NMat0=    1 NMatS0=      1 NMatT0=    0 NMatD0=    1 NMtDS0=    0 NMtDT0=    0
 Petite list used in FoFCou.
 Requested convergence on RMS density matrix=1.00D-08 within 128 cycles.
 Requested convergence on MAX density matrix=1.00D-06.
 Requested convergence on             energy=1.00D-06.
 No special actions if energy rises.
 SCF Done:  E(RB3LYP) =  -271.638426627     A.U. after   12 cycles
            NFock= 12  Conv=0.79D-08     -V/T= 2.0049

 **********************************************************************

            Population analysis using the SCF Density.

 **********************************************************************

 Orbital symmetries:
       Occupied  (A) (A) (A) (A) (A) (A) (A) (A) (A) (A) (A) (A)
                 (A) (A) (A) (A) (A) (A) (A) (A) (A) (A) (A) (A)
                 (A)
       Virtual   (A) (A) (A) (A) (A) (A) (A) (A) (A) (A) (A) (A)
                 (A) (A) (A) (A) (A) (A) (A) (A) (A) (A) (A) (A)
                 (A) (A) (A) (A) (A) (A) (A) (A) (A) (A) (A) (A)
                 (A) (A) (A) (A) (A) (A) (A) (A) (A) (A) (A) (A)
                 (A) (A) (A) (A) (A) (A) (A) (A) (A) (A) (A) (A)
                 (A) (A) (A) (A) (A) (A) (A) (A) (A) (A) (A) (A)
                 (A) (A) (A) (A) (A) (A) (A) (A) (A) (A) (A) (A)
                 (A) (A) (A) (A) (A) (A) (A) (A) (A) (A) (A) (A)
                 (A) (A) (A) (A) (A) (A) (A) (A) (A) (A) (A) (A)
                 (A) (A) (A) (A) (A) (A) (A) (A) (A) (A) (A) (A)
                 (A) (A) (A) (A) (A) (A) (A) (A) (A) (A) (A) (A)
                 (A) (A) (A) (A) (A) (A) (A) (A) (A) (A) (A) (A)
                 (A) (A) (A) (A) (A) (A) (A) (A) (A) (A) (A) (A)
                 (A) (A) (A) (A) (A) (A) (A) (A) (A) (A) (A) (A)
                 (A) (A) (A) (A) (A) (A) (A) (A) (A) (A) (A) (A)
                 (A) (A) (A) (A) (A)
 The electronic state is 1-A.
 Alpha  occ. eigenvalues --  -10.18462 -10.17587 -10.17583 -10.17350 -10.17349
 Alpha  occ. eigenvalues --  -10.17304 -10.16878  -0.86007  -0.77606  -0.74785
 Alpha  occ. eigenvalues --   -0.68779  -0.60843  -0.58632  -0.51397  -0.46448
 Alpha  occ. eigenvalues --   -0.45760  -0.42794  -0.42439  -0.41086  -0.38688
 Alpha  occ. eigenvalues --   -0.35923  -0.34466  -0.34457  -0.25673  -0.24711
 Alpha virt. eigenvalues --   -0.01682  -0.01358  -0.00731   0.00537   0.00973
 Alpha virt. eigenvalues --    0.02838   0.03242   0.03513   0.05460   0.05752
 Alpha virt. eigenvalues --    0.06311   0.07437   0.08274   0.08831   0.10877
 Alpha virt. eigenvalues --    0.11166   0.11223   0.11942   0.12060   0.12195
 Alpha virt. eigenvalues --    0.12438   0.12546   0.13720   0.13879   0.14404
 Alpha virt. eigenvalues --    0.15239   0.15735   0.16752   0.17025   0.17579
 Alpha virt. eigenvalues --    0.18042   0.18400   0.18660   0.19828   0.21302
 Alpha virt. eigenvalues --    0.21415   0.23578   0.24399   0.24651   0.25881
 Alpha virt. eigenvalues --    0.26198   0.27435   0.28360   0.28424   0.29902
 Alpha virt. eigenvalues --    0.30829   0.31455   0.32462   0.35753   0.35836
 Alpha virt. eigenvalues --    0.37232   0.37277   0.46643   0.47391   0.49995
 Alpha virt. eigenvalues --    0.51623   0.53262   0.54298   0.54358   0.55546
 Alpha virt. eigenvalues --    0.56305   0.56729   0.58544   0.59855   0.60687
 Alpha virt. eigenvalues --    0.63207   0.63483   0.65409   0.65770   0.66274
 Alpha virt. eigenvalues --    0.68786   0.69593   0.72177   0.73048   0.75900
 Alpha virt. eigenvalues --    0.76659   0.78621   0.81488   0.84661   0.85268
 Alpha virt. eigenvalues --    0.87129   0.88339   0.88723   0.89652   0.90819
 Alpha virt. eigenvalues --    0.91680   0.95209   0.98442   1.01220   1.01918
 Alpha virt. eigenvalues --    1.03859   1.06309   1.08180   1.13158   1.13902
 Alpha virt. eigenvalues --    1.32814   1.36116   1.38067   1.39136   1.46860
 Alpha virt. eigenvalues --    1.48745   1.52331   1.52973   1.53463   1.56202
 Alpha virt. eigenvalues --    1.56917   1.57938   1.59412   1.60911   1.63018
 Alpha virt. eigenvalues --    1.65223   1.68167   1.69385   1.73552   1.75373
 Alpha virt. eigenvalues --    1.77410   1.80395   1.83752   1.84581   1.88620
 Alpha virt. eigenvalues --    1.92692   1.92721   1.93798   1.94906   1.95638
 Alpha virt. eigenvalues --    2.01096   2.02065   2.05730   2.06019   2.08040
 Alpha virt. eigenvalues --    2.17661   2.22004   2.23511   2.32843   2.37422
 Alpha virt. eigenvalues --    2.40729   2.43581   2.44727   2.44976   2.46590
 Alpha virt. eigenvalues --    2.54799   2.55176   2.60373   2.61047   2.63460
 Alpha virt. eigenvalues --    2.66789   2.68197   2.69906   2.71865   2.72558
 Alpha virt. eigenvalues --    2.75963   2.76213   2.79041   2.80639   2.83096
 Alpha virt. eigenvalues --    2.86311   2.90061   2.92864   2.92981   2.95973
 Alpha virt. eigenvalues --    2.96608   3.09072   3.15451   3.22902   3.34273
 Alpha virt. eigenvalues --    3.37378   3.48517   3.51939   3.62537   3.69094
 Alpha virt. eigenvalues --    3.81240   3.82227   3.99472   4.04087   4.14692
 Alpha virt. eigenvalues --    4.15522   4.33272   4.84465  23.59231  23.93028
 Alpha virt. eigenvalues --   23.96965  23.98361  24.08365  24.09230  24.19379
          Condensed to atoms (all electrons):
               1          2          3          4          5          6
     1  C    6.787576  -0.540803  -0.487040   0.006276   0.054501   0.006277
     2  C   -0.540803   8.436101  -2.185074   1.369684  -1.444082   1.369683
     3  C   -0.487040  -2.185074   8.974016  -1.137389   1.187904  -1.359723
     4  C    0.006276   1.369684  -1.137389   6.159737  -0.459918   0.856249
     5  C    0.054501  -1.444082   1.187904  -0.459918   6.115493  -0.459918
     6  C    0.006277   1.369683  -1.359723   0.856249  -0.459918   6.159736
     7  C   -0.487038  -2.185078   1.647408  -1.359724   1.187906  -1.137390
     8  H    0.384491   0.071283  -0.070730   0.023573  -0.011870   0.023573
     9  H    0.403173  -0.076031   0.088081   0.036125  -0.008833  -0.002041
    10  H    0.403173  -0.076031  -0.085262  -0.002041  -0.008834   0.036125
    11  H    0.000864  -0.053175   0.384457  -0.038263   0.011828  -0.003242
    12  H    0.006803   0.051507  -0.095489   0.412222  -0.046921   0.011737
    13  H   -0.001273   0.026665  -0.023429  -0.004336   0.361117  -0.004336
    14  H    0.006803   0.051507  -0.025353   0.011737  -0.046921   0.412222
    15  H    0.000864  -0.053175   0.039452  -0.003242   0.011828  -0.038262
               7          8          9         10         11         12
     1  C   -0.487038   0.384491   0.403173   0.403173   0.000864   0.006803
     2  C   -2.185078   0.071283  -0.076031  -0.076031  -0.053175   0.051507
     3  C    1.647408  -0.070730   0.088081  -0.085262   0.384457  -0.095489
     4  C   -1.359724   0.023573   0.036125  -0.002041  -0.038263   0.412222
     5  C    1.187906  -0.011870  -0.008833  -0.008834   0.011828  -0.046921
     6  C   -1.137390   0.023573  -0.002041   0.036125  -0.003242   0.011737
     7  C    8.974019  -0.070730  -0.085262   0.088081   0.039452  -0.025353
     8  H   -0.070730   0.561134  -0.036427  -0.036427  -0.001305   0.000399
     9  H   -0.085262  -0.036427   0.572259  -0.029585  -0.001405   0.000853
    10  H    0.088081  -0.036427  -0.029585   0.572259   0.001267   0.000360
    11  H    0.039452  -0.001305  -0.001405   0.001267   0.538098  -0.014174
    12  H   -0.025353   0.000399   0.000853   0.000360  -0.014174   0.544518
    13  H   -0.023429  -0.000031  -0.000310  -0.000310  -0.001451  -0.009590
    14  H   -0.095490   0.000399   0.000360   0.000853   0.000633  -0.001220
    15  H    0.384457  -0.001305   0.001267  -0.001405  -0.002170   0.000633
              13         14         15
     1  C   -0.001273   0.006803   0.000864
     2  C    0.026665   0.051507  -0.053175
     3  C   -0.023429  -0.025353   0.039452
     4  C   -0.004336   0.011737  -0.003242
     5  C    0.361117  -0.046921   0.011828
     6  C   -0.004336   0.412222  -0.038262
     7  C   -0.023429  -0.095490   0.384457
     8  H   -0.000031   0.000399  -0.001305
     9  H   -0.000310   0.000360   0.001267
    10  H   -0.000310   0.000853  -0.001405
    11  H   -0.001451   0.000633  -0.002170
    12  H   -0.009590  -0.001220   0.000633
    13  H    0.539934  -0.009590  -0.001451
    14  H   -0.009590   0.544518  -0.014174
    15  H   -0.001451  -0.014174   0.538098
 Mulliken charges:
               1
     1  C   -0.544647
     2  C    1.237019
     3  C   -0.851830
     4  C    0.129311
     5  C   -0.443280
     6  C    0.129311
     7  C   -0.851831
     8  H    0.163973
     9  H    0.137776
    10  H    0.137776
    11  H    0.138586
    12  H    0.163715
    13  H    0.151821
    14  H    0.163715
    15  H    0.138585
 Sum of Mulliken charges =  -0.00000
 Mulliken charges with hydrogens summed into heavy atoms:
               1
     1  C   -0.105122
     2  C    1.237019
     3  C   -0.713244
     4  C    0.293026
     5  C   -0.291460
     6  C    0.293026
     7  C   -0.713245
 Electronic spatial extent (au):  <R**2>=            717.5517
 Charge=             -0.0000 electrons
 Dipole moment (field-independent basis, Debye):
    X=             -0.3873    Y=             -0.0000    Z=              0.0602  Tot=              0.3919
 Quadrupole moment (field-independent basis, Debye-Ang):
   XX=            -38.9717   YY=            -39.0348   ZZ=            -46.5293
   XY=              0.0000   XZ=             -0.0033   YZ=              0.0000
 Traceless Quadrupole moment (field-independent basis, Debye-Ang):
   XX=              2.5403   YY=              2.4771   ZZ=             -5.0174
   XY=              0.0000   XZ=             -0.0033   YZ=              0.0000
 Octapole moment (field-independent basis, Debye-Ang**2):
  XXX=              4.7916  YYY=              0.0000  ZZZ=              0.7851  XYY=              1.0206
  XXY=              0.0000  XXZ=             -0.0341  XZZ=             -4.2175  YZZ=             -0.0000
  YYZ=             -0.4068  XYZ=             -0.0000
 Hexadecapole moment (field-independent basis, Debye-Ang**3):
 XXXX=           -618.4533 YYYY=           -293.4800 ZZZZ=            -63.3327 XXXY=              0.0000
 XXXZ=              0.9334 YYYX=             -0.0000 YYYZ=             -0.0000 ZZZX=             -1.9495
 ZZZY=              0.0000 XXYY=           -148.7155 XXZZ=           -121.5392 YYZZ=            -70.4194
 XXYZ=              0.0000 YYXZ=              1.7973 ZZXY=              0.0000
 N-N= 2.692004205838D+02 E-N=-1.167868283906D+03  KE= 2.703229633852D+02
 ******************************Gaussian NBO Version 3.1******************************
             N A T U R A L   A T O M I C   O R B I T A L   A N D
          N A T U R A L   B O N D   O R B I T A L   A N A L Y S I S
 ******************************Gaussian NBO Version 3.1******************************
       /RESON  / : Allow strongly delocalized NBO set

 Analyzing the SCF density

 Job title: CC1=CC=CC=C1                                                    

 Storage needed:    133260 in NPA,    177277 in NBO (1258289925 available)
 GSVD:  LWork=        8730 too small for GESVD, short by       60831 words or       60831 for optimal perf.


 NATURAL POPULATIONS:  Natural atomic orbital occupancies 
                                                          
   NAO  Atom  No  lang   Type(AO)    Occupancy      Energy
 ----------------------------------------------------------
     1    C    1  S      Cor( 1S)     1.99928     -10.02373
     2    C    1  S      Val( 2S)     1.07456      -0.23742
     3    C    1  S      Ryd( 4S)     0.00057       0.77679
     4    C    1  S      Ryd( 3S)     0.00008       0.74371
     5    C    1  S      Ryd( 5S)     0.00000      23.24989
     6    C    1  px     Val( 2p)     1.08050      -0.08420
     7    C    1  px     Ryd( 4p)     0.00114       0.47671
     8    C    1  px     Ryd( 3p)     0.00013       0.39877
     9    C    1  px     Ryd( 5p)     0.00008       2.97890
    10    C    1  py     Val( 2p)     1.21561      -0.09473
    11    C    1  py     Ryd( 4p)     0.00380       0.51673
    12    C    1  py     Ryd( 3p)     0.00008       0.40059
    13    C    1  py     Ryd( 5p)     0.00002       3.00643
    14    C    1  pz     Val( 2p)     1.20859      -0.09350
    15    C    1  pz     Ryd( 4p)     0.00049       0.50478
    16    C    1  pz     Ryd( 3p)     0.00004       0.39302
    17    C    1  pz     Ryd( 5p)     0.00004       2.99996
    18    C    1  dxy    Ryd( 3d)     0.00050       2.07214
    19    C    1  dxz    Ryd( 3d)     0.00061       1.92583
    20    C    1  dyz    Ryd( 3d)     0.00061       2.06272
    21    C    1  dx2y2  Ryd( 3d)     0.00077       2.23137
    22    C    1  dz2    Ryd( 3d)     0.00074       2.12277
 
    23    C    2  S      Cor( 1S)     1.99906     -10.03781
    24    C    2  S      Val( 2S)     0.89050      -0.13621
    25    C    2  S      Ryd( 4S)     0.00069       0.72988
    26    C    2  S      Ryd( 3S)     0.00012       0.56425
    27    C    2  S      Ryd( 5S)     0.00001      23.33572
    28    C    2  px     Val( 2p)     1.05746      -0.05241
    29    C    2  px     Ryd( 4p)     0.00645       1.20862
    30    C    2  px     Ryd( 3p)     0.00024       0.81208
    31    C    2  px     Ryd( 5p)     0.00008       3.02284
    32    C    2  py     Val( 2p)     1.08764      -0.04744
    33    C    2  py     Ryd( 4p)     0.00305       0.87658
    34    C    2  py     Ryd( 3p)     0.00027       0.74639
    35    C    2  py     Ryd( 5p)     0.00011       2.96279
    36    C    2  pz     Val( 2p)     0.98091      -0.09773
    37    C    2  pz     Ryd( 3p)     0.00141       0.57082
    38    C    2  pz     Ryd( 4p)     0.00038       0.68605
    39    C    2  pz     Ryd( 5p)     0.00002       2.39373
    40    C    2  dxy    Ryd( 3d)     0.00086       2.60583
    41    C    2  dxz    Ryd( 3d)     0.00062       1.68059
    42    C    2  dyz    Ryd( 3d)     0.00053       1.67769
    43    C    2  dx2y2  Ryd( 3d)     0.00073       2.49240
    44    C    2  dz2    Ryd( 3d)     0.00036       2.08528
 
    45    C    3  S      Cor( 1S)     1.99904     -10.02453
    46    C    3  S      Val( 2S)     0.94318      -0.14994
    47    C    3  S      Ryd( 4S)     0.00130       0.88686
    48    C    3  S      Ryd( 3S)     0.00011       0.56309
    49    C    3  S      Ryd( 5S)     0.00001      23.18962
    50    C    3  px     Val( 2p)     1.09198      -0.04657
    51    C    3  px     Ryd( 4p)     0.00491       0.88961
    52    C    3  px     Ryd( 3p)     0.00031       0.42495
    53    C    3  px     Ryd( 5p)     0.00011       3.16116
    54    C    3  py     Val( 2p)     1.14361      -0.04533
    55    C    3  py     Ryd( 4p)     0.00545       1.00330
    56    C    3  py     Ryd( 3p)     0.00025       0.43424
    57    C    3  py     Ryd( 5p)     0.00007       3.14254
    58    C    3  pz     Val( 2p)     1.01123      -0.10618
    59    C    3  pz     Ryd( 4p)     0.00108       0.51498
    60    C    3  pz     Ryd( 3p)     0.00039       0.29212
    61    C    3  pz     Ryd( 5p)     0.00001       2.72405
    62    C    3  dxy    Ryd( 3d)     0.00078       2.50620
    63    C    3  dxz    Ryd( 3d)     0.00046       1.66104
    64    C    3  dyz    Ryd( 3d)     0.00041       1.63995
    65    C    3  dx2y2  Ryd( 3d)     0.00074       2.57195
    66    C    3  dz2    Ryd( 3d)     0.00038       2.07338
 
    67    C    4  S      Cor( 1S)     1.99915     -10.02923
    68    C    4  S      Val( 2S)     0.95159      -0.15985
    69    C    4  S      Ryd( 3S)     0.00146       0.78370
    70    C    4  S      Ryd( 4S)     0.00010       1.08050
    71    C    4  S      Ryd( 5S)     0.00000      22.68598
    72    C    4  px     Val( 2p)     1.08823      -0.04245
    73    C    4  px     Ryd( 4p)     0.00509       0.85009
    74    C    4  px     Ryd( 3p)     0.00036       0.39335
    75    C    4  px     Ryd( 5p)     0.00013       3.10086
    76    C    4  py     Val( 2p)     1.14445      -0.04579
    77    C    4  py     Ryd( 4p)     0.00670       0.99380
    78    C    4  py     Ryd( 3p)     0.00021       0.45321
    79    C    4  py     Ryd( 5p)     0.00008       3.11025
    80    C    4  pz     Val( 2p)     0.99270      -0.10554
    81    C    4  pz     Ryd( 4p)     0.00108       0.51409
    82    C    4  pz     Ryd( 3p)     0.00033       0.30458
    83    C    4  pz     Ryd( 5p)     0.00001       2.69357
    84    C    4  dxy    Ryd( 3d)     0.00080       2.51298
    85    C    4  dxz    Ryd( 3d)     0.00049       1.66162
    86    C    4  dyz    Ryd( 3d)     0.00039       1.63008
    87    C    4  dx2y2  Ryd( 3d)     0.00069       2.56394
    88    C    4  dz2    Ryd( 3d)     0.00039       2.06297
 
    89    C    5  S      Cor( 1S)     1.99915     -10.02670
    90    C    5  S      Val( 2S)     0.95130      -0.15802
    91    C    5  S      Ryd( 3S)     0.00134       0.84688
    92    C    5  S      Ryd( 4S)     0.00007       1.17259
    93    C    5  S      Ryd( 5S)     0.00000      22.58760
    94    C    5  px     Val( 2p)     1.17117      -0.04575
    95    C    5  px     Ryd( 4p)     0.00671       1.06973
    96    C    5  px     Ryd( 3p)     0.00017       0.49241
    97    C    5  px     Ryd( 5p)     0.00005       3.08669
    98    C    5  py     Val( 2p)     1.06412      -0.04362
    99    C    5  py     Ryd( 4p)     0.00464       0.76905
   100    C    5  py     Ryd( 3p)     0.00053       0.37551
   101    C    5  py     Ryd( 5p)     0.00015       3.08884
   102    C    5  pz     Val( 2p)     1.01166      -0.10524
   103    C    5  pz     Ryd( 4p)     0.00132       0.51254
   104    C    5  pz     Ryd( 3p)     0.00027       0.30488
   105    C    5  pz     Ryd( 5p)     0.00002       2.69575
   106    C    5  dxy    Ryd( 3d)     0.00066       2.59414
   107    C    5  dxz    Ryd( 3d)     0.00037       1.61477
   108    C    5  dyz    Ryd( 3d)     0.00048       1.67925
   109    C    5  dx2y2  Ryd( 3d)     0.00085       2.49020
   110    C    5  dz2    Ryd( 3d)     0.00039       2.07465
 
   111    C    6  S      Cor( 1S)     1.99915     -10.02923
   112    C    6  S      Val( 2S)     0.95159      -0.15985
   113    C    6  S      Ryd( 3S)     0.00146       0.78370
   114    C    6  S      Ryd( 4S)     0.00010       1.08050
   115    C    6  S      Ryd( 5S)     0.00000      22.68598
   116    C    6  px     Val( 2p)     1.08823      -0.04245
   117    C    6  px     Ryd( 4p)     0.00509       0.85009
   118    C    6  px     Ryd( 3p)     0.00036       0.39335
   119    C    6  px     Ryd( 5p)     0.00013       3.10086
   120    C    6  py     Val( 2p)     1.14445      -0.04579
   121    C    6  py     Ryd( 4p)     0.00670       0.99380
   122    C    6  py     Ryd( 3p)     0.00021       0.45321
   123    C    6  py     Ryd( 5p)     0.00008       3.11025
   124    C    6  pz     Val( 2p)     0.99270      -0.10554
   125    C    6  pz     Ryd( 4p)     0.00108       0.51409
   126    C    6  pz     Ryd( 3p)     0.00033       0.30458
   127    C    6  pz     Ryd( 5p)     0.00001       2.69357
   128    C    6  dxy    Ryd( 3d)     0.00080       2.51298
   129    C    6  dxz    Ryd( 3d)     0.00049       1.66162
   130    C    6  dyz    Ryd( 3d)     0.00039       1.63008
   131    C    6  dx2y2  Ryd( 3d)     0.00069       2.56394
   132    C    6  dz2    Ryd( 3d)     0.00039       2.06297
 
   133    C    7  S      Cor( 1S)     1.99904     -10.02453
   134    C    7  S      Val( 2S)     0.94318      -0.14994
   135    C    7  S      Ryd( 4S)     0.00130       0.88686
   136    C    7  S      Ryd( 3S)     0.00011       0.56309
   137    C    7  S      Ryd( 5S)     0.00001      23.18962
   138    C    7  px     Val( 2p)     1.09198      -0.04657
   139    C    7  px     Ryd( 4p)     0.00491       0.88961
   140    C    7  px     Ryd( 3p)     0.00031       0.42495
   141    C    7  px     Ryd( 5p)     0.00011       3.16116
   142    C    7  py     Val( 2p)     1.14361      -0.04533
   143    C    7  py     Ryd( 4p)     0.00545       1.00330
   144    C    7  py     Ryd( 3p)     0.00025       0.43424
   145    C    7  py     Ryd( 5p)     0.00007       3.14254
   146    C    7  pz     Val( 2p)     1.01123      -0.10618
   147    C    7  pz     Ryd( 4p)     0.00108       0.51498
   148    C    7  pz     Ryd( 3p)     0.00039       0.29212
   149    C    7  pz     Ryd( 5p)     0.00001       2.72405
   150    C    7  dxy    Ryd( 3d)     0.00078       2.50620
   151    C    7  dxz    Ryd( 3d)     0.00046       1.66104
   152    C    7  dyz    Ryd( 3d)     0.00041       1.63995
   153    C    7  dx2y2  Ryd( 3d)     0.00074       2.57195
   154    C    7  dz2    Ryd( 3d)     0.00038       2.07338
 
   155    H    8  S      Val( 1S)     0.78568       0.03643
   156    H    8  S      Ryd( 2S)     0.00093       0.51302
   157    H    8  S      Ryd( 4S)     0.00013       1.94633
   158    H    8  S      Ryd( 3S)     0.00006       0.56952
   159    H    8  px     Ryd( 2p)     0.00022       1.84380
   160    H    8  py     Ryd( 2p)     0.00014       1.79385
   161    H    8  pz     Ryd( 2p)     0.00030       2.56475
 
   162    H    9  S      Val( 1S)     0.79201       0.03452
   163    H    9  S      Ryd( 3S)     0.00093       0.56960
   164    H    9  S      Ryd( 4S)     0.00013       1.94596
   165    H    9  S      Ryd( 2S)     0.00007       0.48752
   166    H    9  px     Ryd( 2p)     0.00018       1.85176
   167    H    9  py     Ryd( 2p)     0.00023       2.34650
   168    H    9  pz     Ryd( 2p)     0.00016       1.96211
 
   169    H   10  S      Val( 1S)     0.79201       0.03452
   170    H   10  S      Ryd( 3S)     0.00093       0.56960
   171    H   10  S      Ryd( 4S)     0.00013       1.94596
   172    H   10  S      Ryd( 2S)     0.00007       0.48752
   173    H   10  px     Ryd( 2p)     0.00018       1.85176
   174    H   10  py     Ryd( 2p)     0.00023       2.34650
   175    H   10  pz     Ryd( 2p)     0.00016       1.96211
 
   176    H   11  S      Val( 1S)     0.79719       0.04973
   177    H   11  S      Ryd( 3S)     0.00085       0.76093
   178    H   11  S      Ryd( 4S)     0.00019       1.85133
   179    H   11  S      Ryd( 2S)     0.00008       0.37675
   180    H   11  px     Ryd( 2p)     0.00018       2.16694
   181    H   11  py     Ryd( 2p)     0.00038       2.54962
   182    H   11  pz     Ryd( 2p)     0.00020       1.60315
 
   183    H   12  S      Val( 1S)     0.79551       0.05311
   184    H   12  S      Ryd( 3S)     0.00082       0.59716
   185    H   12  S      Ryd( 4S)     0.00018       2.18484
   186    H   12  S      Ryd( 2S)     0.00002       0.19495
   187    H   12  px     Ryd( 2p)     0.00020       2.15204
   188    H   12  py     Ryd( 2p)     0.00037       2.51742
   189    H   12  pz     Ryd( 2p)     0.00020       1.59602
 
   190    H   13  S      Val( 1S)     0.79491       0.05445
   191    H   13  S      Ryd( 3S)     0.00081       0.66096
   192    H   13  S      Ryd( 4S)     0.00018       2.09342
   193    H   13  S      Ryd( 2S)     0.00003       0.21866
   194    H   13  px     Ryd( 2p)     0.00045       2.70162
   195    H   13  py     Ryd( 2p)     0.00012       1.97335
   196    H   13  pz     Ryd( 2p)     0.00021       1.59735
 
   197    H   14  S      Val( 1S)     0.79551       0.05311
   198    H   14  S      Ryd( 3S)     0.00082       0.59716
   199    H   14  S      Ryd( 4S)     0.00018       2.18484
   200    H   14  S      Ryd( 2S)     0.00002       0.19495
   201    H   14  px     Ryd( 2p)     0.00020       2.15204
   202    H   14  py     Ryd( 2p)     0.00037       2.51742
   203    H   14  pz     Ryd( 2p)     0.00020       1.59602
 
   204    H   15  S      Val( 1S)     0.79719       0.04973
   205    H   15  S      Ryd( 3S)     0.00085       0.76093
   206    H   15  S      Ryd( 4S)     0.00019       1.85133
   207    H   15  S      Ryd( 2S)     0.00008       0.37675
   208    H   15  px     Ryd( 2p)     0.00018       2.16694
   209    H   15  py     Ryd( 2p)     0.00038       2.54962
   210    H   15  pz     Ryd( 2p)     0.00020       1.60315

 WARNING:  Population inversion found on atom  C    1
           Population inversion found on atom  C    2
           Population inversion found on atom  C    3
           Population inversion found on atom  C    4
           Population inversion found on atom  C    5
           Population inversion found on atom  C    6
           Population inversion found on atom  C    7
           Population inversion found on atom  H    8
           Population inversion found on atom  H    9
           Population inversion found on atom  H   10
           Population inversion found on atom  H   11
           Population inversion found on atom  H   12
           Population inversion found on atom  H   13
           Population inversion found on atom  H   14
           Population inversion found on atom  H   15


 Summary of Natural Population Analysis:                  
                                                          
                                       Natural Population 
                Natural  -----------------------------------------------
    Atom  No    Charge         Core      Valence    Rydberg      Total
 -----------------------------------------------------------------------
      C    1   -0.58825      1.99928     4.57927    0.00970     6.58825
      C    2   -0.03150      1.99906     4.01651    0.01594     6.03150
      C    3   -0.20582      1.99904     4.18999    0.01678     6.20582
      C    4   -0.19443      1.99915     4.17697    0.01831     6.19443
      C    5   -0.21539      1.99915     4.19825    0.01800     6.21539
      C    6   -0.19443      1.99915     4.17697    0.01831     6.19443
      C    7   -0.20582      1.99904     4.18999    0.01678     6.20582
      H    8    0.21254      0.00000     0.78568    0.00179     0.78746
      H    9    0.20628      0.00000     0.79201    0.00171     0.79372
      H   10    0.20628      0.00000     0.79201    0.00171     0.79372
      H   11    0.20093      0.00000     0.79719    0.00188     0.79907
      H   12    0.20269      0.00000     0.79551    0.00180     0.79731
      H   13    0.20330      0.00000     0.79491    0.00179     0.79670
      H   14    0.20269      0.00000     0.79551    0.00180     0.79731
      H   15    0.20093      0.00000     0.79719    0.00188     0.79907
 =======================================================================
   * Total *   -0.00000     13.99387    35.87796    0.12816    50.00000

                                 Natural Population      
 --------------------------------------------------------
   Core                      13.99387 ( 99.9562% of  14)
   Valence                   35.87796 ( 99.6610% of  36)
   Natural Minimal Basis     49.87184 ( 99.7437% of  50)
   Natural Rydberg Basis      0.12816 (  0.2563% of  50)
 --------------------------------------------------------

    Atom  No          Natural Electron Configuration
 ----------------------------------------------------------------------------
      C    1      [core]2S( 1.07)2p( 3.50)4p( 0.01)
      C    2      [core]2S( 0.89)2p( 3.13)4p( 0.01)
      C    3      [core]2S( 0.94)2p( 3.25)4p( 0.01)
      C    4      [core]2S( 0.95)2p( 3.23)4p( 0.01)
      C    5      [core]2S( 0.95)2p( 3.25)4p( 0.01)
      C    6      [core]2S( 0.95)2p( 3.23)4p( 0.01)
      C    7      [core]2S( 0.94)2p( 3.25)4p( 0.01)
      H    8            1S( 0.79)
      H    9            1S( 0.79)
      H   10            1S( 0.79)
      H   11            1S( 0.80)
      H   12            1S( 0.80)
      H   13            1S( 0.79)
      H   14            1S( 0.80)
      H   15            1S( 0.80)


 NATURAL BOND ORBITAL ANALYSIS:

                       Occupancies       Lewis Structure    Low   High
           Occ.    -------------------  -----------------   occ   occ
  Cycle   Thresh.   Lewis   Non-Lewis     CR  BD  3C  LP    (L)   (NL)   Dev
 =============================================================================
   1(1)    1.90    46.72693   3.27307      7  15   0   3     3      3    0.44
   2(2)    1.90    46.72693   3.27307      7  15   0   3     3      3    0.44
   3(1)    1.80    46.72693   3.27307      7  15   0   3     3      3    0.44
   4(2)    1.80    46.72693   3.27307      7  15   0   3     3      3    0.44
   5(1)    1.70    46.72693   3.27307      7  15   0   3     3      3    0.44
   6(2)    1.70    46.72693   3.27307      7  15   0   3     3      3    0.44
   7(1)    1.60    48.67629   1.32371      7  18   0   0     0      3    0.44
   8(2)    1.60    48.04530   1.95470      7  17   0   1     1      3    0.44
   9(3)    1.60    48.67629   1.32371      7  18   0   0     0      3    0.44
  10(4)    1.60    48.04530   1.95470      7  17   0   1     1      3    0.44
  11(5)    1.60    48.67629   1.32371      7  18   0   0     0      3    0.44
  12(6)    1.60    48.04530   1.95470      7  17   0   1     1      3    0.44
  13(7)    1.60    48.67629   1.32371      7  18   0   0     0      3    0.44
  14(8)    1.60    48.04530   1.95470      7  17   0   1     1      3    0.44
  15(9)    1.60    48.67629   1.32371      7  18   0   0     0      3    0.44
  16(1)    1.50    48.67629   1.32371      7  18   0   0     0      3    0.44
  17(2)    1.50    48.04530   1.95470      7  17   0   1     1      3    0.44
  18(3)    1.50    48.67629   1.32371      7  18   0   0     0      3    0.44
  19(4)    1.50    48.04530   1.95470      7  17   0   1     1      3    0.44
  20(5)    1.50    48.67629   1.32371      7  18   0   0     0      3    0.44
  21(6)    1.50    48.04530   1.95470      7  17   0   1     1      3    0.44
  22(7)    1.50    48.67629   1.32371      7  18   0   0     0      3    0.44
  23(8)    1.50    48.04530   1.95470      7  17   0   1     1      3    0.44
  24(9)    1.50    48.67629   1.32371      7  18   0   0     0      3    0.44
  25(1)    1.60    48.67629   1.32371      7  18   0   0     0      3    0.44
 -----------------------------------------------------------------------------

 Structure accepted: RESONANCE keyword permits strongly delocalized structure

 --------------------------------------------------------
   Core                     13.99389 ( 99.956% of  14)
   Valence Lewis            34.68240 ( 96.340% of  36)
  ==================       ============================
   Total Lewis              48.67629 ( 97.353% of  50)
  -----------------------------------------------------
   Valence non-Lewis         1.23938 (  2.479% of  50)
   Rydberg non-Lewis         0.08432 (  0.169% of  50)
  ==================       ============================
   Total non-Lewis           1.32371 (  2.647% of  50)
 --------------------------------------------------------


       (Occupancy)   Bond orbital/ Coefficients/ Hybrids
 ---------------------------------------------------------------------------------
     1. (1.98236) BD ( 1) C   1 - C   2  
                ( 49.23%)   0.7016* C   1 s( 30.37%)p 2.29( 69.59%)d 0.00(  0.04%)
                                            0.0003  0.5507  0.0183  0.0025 -0.0001
                                            0.8338 -0.0130 -0.0088 -0.0003 -0.0000
                                            0.0000 -0.0000 -0.0000 -0.0224  0.0014
                                           -0.0015 -0.0004  0.0000 -0.0005 -0.0000
                                            0.0184 -0.0099
                ( 50.77%)   0.7126* C   2 s( 31.17%)p 2.21( 68.79%)d 0.00(  0.03%)
                                           -0.0001  0.5583  0.0020 -0.0071  0.0004
                                           -0.8293 -0.0057  0.0078  0.0025  0.0000
                                           -0.0000  0.0000 -0.0000  0.0063  0.0011
                                           -0.0005  0.0001 -0.0000 -0.0013  0.0000
                                            0.0147 -0.0101
     2. (1.97530) BD ( 1) C   1 - H   8  
                ( 60.53%)   0.7780* C   1 s( 23.23%)p 3.30( 76.71%)d 0.00(  0.06%)
                                            0.0001 -0.4819  0.0076 -0.0003 -0.0003
                                            0.2955 -0.0145 -0.0020  0.0011  0.0000
                                            0.0000  0.0000  0.0000 -0.8243 -0.0062
                                           -0.0032 -0.0010 -0.0000  0.0114  0.0000
                                           -0.0014 -0.0218
                ( 39.47%)   0.6282* H   8 s( 99.97%)p 0.00(  0.03%)
                                           -0.9998 -0.0013 -0.0004 -0.0000 -0.0051
                                           -0.0000  0.0170
     3. (1.98635) BD ( 1) C   1 - H   9  
                ( 60.29%)   0.7765* C   1 s( 23.22%)p 3.30( 76.73%)d 0.00(  0.06%)
                                            0.0001 -0.4818  0.0046  0.0010  0.0001
                                            0.3285 -0.0128  0.0006  0.0010  0.7067
                                            0.0123  0.0017 -0.0008  0.3994  0.0030
                                            0.0017  0.0004 -0.0110 -0.0065 -0.0157
                                            0.0124  0.0039
                ( 39.71%)   0.6302* H   9 s( 99.97%)p 0.00(  0.03%)
                                           -0.9998 -0.0006 -0.0005  0.0000 -0.0071
                                           -0.0141 -0.0095
     4. (1.98635) BD ( 1) C   1 - H  10  
                ( 60.29%)   0.7765* C   1 s( 23.22%)p 3.30( 76.73%)d 0.00(  0.06%)
                                            0.0001 -0.4818  0.0046  0.0010  0.0001
                                            0.3285 -0.0128  0.0006  0.0010 -0.7067
                                           -0.0123 -0.0017  0.0008  0.3994  0.0030
                                            0.0017  0.0004  0.0110 -0.0065  0.0157
                                            0.0124  0.0039
                ( 39.71%)   0.6302* H  10 s( 99.97%)p 0.00(  0.03%)
                                           -0.9998 -0.0006 -0.0005  0.0000 -0.0071
                                            0.0141 -0.0095
     5. (1.97392) BD ( 1) C   2 - C   3  
                ( 50.64%)   0.7116* C   2 s( 34.38%)p 1.91( 65.58%)d 0.00(  0.04%)
                                            0.0000  0.5864 -0.0017  0.0035 -0.0002
                                            0.3945  0.0161 -0.0061 -0.0007 -0.7067
                                            0.0160  0.0059 -0.0013  0.0062  0.0002
                                            0.0001  0.0000 -0.0155  0.0007 -0.0009
                                           -0.0075 -0.0104
                ( 49.36%)   0.7026* C   3 s( 36.06%)p 1.77( 63.90%)d 0.00(  0.04%)
                                            0.0001  0.6005 -0.0059  0.0061  0.0009
                                           -0.4237  0.0307  0.0040 -0.0012  0.6770
                                            0.0019 -0.0122  0.0003 -0.0089  0.0016
                                            0.0000 -0.0000 -0.0137  0.0000 -0.0003
                                           -0.0097 -0.0116
     6. (1.97392) BD ( 1) C   2 - C   7  
                ( 50.64%)   0.7116* C   2 s( 34.38%)p 1.91( 65.58%)d 0.00(  0.04%)
                                            0.0000  0.5864 -0.0017  0.0035 -0.0002
                                            0.3945  0.0161 -0.0061 -0.0007  0.7067
                                           -0.0160 -0.0059  0.0013  0.0053  0.0002
                                            0.0001  0.0000  0.0155  0.0006  0.0009
                                           -0.0075 -0.0104
                ( 49.36%)   0.7026* C   7 s( 36.06%)p 1.77( 63.90%)d 0.00(  0.04%)
                                            0.0001  0.6005 -0.0059  0.0061  0.0009
                                           -0.4237  0.0307  0.0040 -0.0012 -0.6770
                                           -0.0019  0.0122 -0.0003 -0.0092  0.0016
                                            0.0000 -0.0000  0.0137  0.0001  0.0003
                                           -0.0097 -0.0116
     7. (1.64772) BD ( 2) C   2 - C   7  
                ( 48.83%)   0.6988* C   2 s(  0.01%)p99.99( 99.95%)d 3.78(  0.04%)
                                           -0.0001 -0.0103 -0.0014 -0.0004 -0.0000
                                            0.0007 -0.0008  0.0000 -0.0002  0.0005
                                           -0.0012  0.0005 -0.0002  0.9995  0.0095
                                            0.0184  0.0028 -0.0002  0.0174  0.0101
                                            0.0000  0.0004
                ( 51.17%)   0.7154* C   7 s(  0.00%)p 1.00( 99.96%)d 0.00(  0.04%)
                                            0.0000  0.0009 -0.0009 -0.0010  0.0001
                                           -0.0050  0.0009  0.0005  0.0004 -0.0095
                                           -0.0002  0.0012 -0.0005  0.9995  0.0136
                                            0.0175 -0.0012  0.0001  0.0010 -0.0201
                                            0.0002 -0.0004
     8. (1.97846) BD ( 1) C   3 - C   4  
                ( 50.17%)   0.7083* C   3 s( 35.57%)p 1.81( 64.38%)d 0.00(  0.04%)
                                           -0.0000  0.5961 -0.0183 -0.0042 -0.0002
                                            0.8007 -0.0189 -0.0092  0.0010 -0.0269
                                            0.0396 -0.0042 -0.0007  0.0041 -0.0007
                                           -0.0000  0.0001  0.0025  0.0002 -0.0002
                                            0.0172 -0.0119
                ( 49.83%)   0.7059* C   4 s( 35.84%)p 1.79( 64.12%)d 0.00(  0.04%)
                                            0.0000  0.5985 -0.0135 -0.0013 -0.0000
                                           -0.7989  0.0201 -0.0118 -0.0009 -0.0276
                                            0.0411  0.0042 -0.0003 -0.0023  0.0001
                                           -0.0000  0.0000 -0.0022  0.0001 -0.0000
                                            0.0166 -0.0120
     9. (1.67140) BD ( 2) C   3 - C   4  
                ( 50.69%)   0.7120* C   3 s(  0.00%)p 1.00( 99.96%)d 0.00(  0.04%)
                                           -0.0000  0.0001  0.0007 -0.0006  0.0002
                                           -0.0050  0.0001  0.0001  0.0004  0.0098
                                            0.0008 -0.0008  0.0005  0.9995  0.0149
                                            0.0180 -0.0023 -0.0002  0.0167  0.0104
                                            0.0001 -0.0003
                ( 49.31%)   0.7022* C   4 s(  0.00%)p 1.00( 99.96%)d 0.00(  0.04%)
                                           -0.0000 -0.0008 -0.0002 -0.0002 -0.0001
                                           -0.0036  0.0001 -0.0002 -0.0001  0.0055
                                           -0.0002 -0.0000 -0.0002  0.9995  0.0184
                                           -0.0171 -0.0016 -0.0002 -0.0175  0.0105
                                            0.0000 -0.0002
    10. (1.98014) BD ( 1) C   3 - H  11  
                ( 60.16%)   0.7756* C   3 s( 28.37%)p 2.52( 71.59%)d 0.00(  0.04%)
                                            0.0004 -0.5322 -0.0204  0.0015  0.0006
                                            0.4203  0.0129  0.0003  0.0001  0.7341
                                            0.0108 -0.0011  0.0014 -0.0050 -0.0001
                                            0.0002  0.0001 -0.0161  0.0002 -0.0002
                                            0.0100  0.0086
                ( 39.84%)   0.6312* H  11 s( 99.95%)p 0.00(  0.05%)
                                           -0.9998 -0.0018 -0.0011 -0.0001 -0.0099
                                           -0.0192  0.0004
    11. (1.97944) BD ( 1) C   4 - C   5  
                ( 50.04%)   0.7074* C   4 s( 35.86%)p 1.79( 64.10%)d 0.00(  0.04%)
                                            0.0000  0.5987 -0.0145 -0.0003 -0.0001
                                            0.4243 -0.0447  0.0017  0.0008  0.6774
                                            0.0017  0.0105  0.0005 -0.0017 -0.0002
                                           -0.0000  0.0001  0.0136 -0.0000 -0.0001
                                           -0.0102 -0.0120
                ( 49.96%)   0.7068* C   5 s( 35.80%)p 1.79( 64.15%)d 0.00(  0.04%)
                                            0.0000  0.5982 -0.0134 -0.0006 -0.0001
                                           -0.3757 -0.0234  0.0086 -0.0001 -0.7059
                                            0.0382  0.0065 -0.0010 -0.0021 -0.0001
                                            0.0000  0.0000  0.0158  0.0001  0.0001
                                           -0.0066 -0.0121
    12. (1.98072) BD ( 1) C   4 - H  12  
                ( 60.23%)   0.7761* C   4 s( 28.31%)p 2.53( 71.64%)d 0.00(  0.04%)
                                            0.0004 -0.5316 -0.0239 -0.0014 -0.0001
                                           -0.4224 -0.0087  0.0001 -0.0008  0.7332
                                            0.0168 -0.0009  0.0015 -0.0060 -0.0001
                                            0.0001  0.0000  0.0167 -0.0001  0.0002
                                            0.0096  0.0084
                ( 39.77%)   0.6306* H  12 s( 99.95%)p 0.00(  0.05%)
                                           -0.9998 -0.0014 -0.0010 -0.0001  0.0109
                                           -0.0190  0.0001
    13. (1.97944) BD ( 1) C   5 - C   6  
                ( 49.96%)   0.7068* C   5 s( 35.80%)p 1.79( 64.15%)d 0.00(  0.04%)
                                            0.0000  0.5982 -0.0134 -0.0006 -0.0001
                                           -0.3757 -0.0234  0.0086 -0.0001  0.7059
                                           -0.0382 -0.0065  0.0010 -0.0015 -0.0001
                                            0.0000  0.0000 -0.0158  0.0001 -0.0001
                                           -0.0066 -0.0121
                ( 50.04%)   0.7074* C   6 s( 35.86%)p 1.79( 64.10%)d 0.00(  0.04%)
                                            0.0000  0.5987 -0.0145 -0.0003 -0.0001
                                            0.4243 -0.0447  0.0017  0.0008 -0.6774
                                           -0.0017 -0.0105 -0.0005 -0.0011 -0.0002
                                           -0.0000  0.0001 -0.0136 -0.0000  0.0001
                                           -0.0102 -0.0120
    14. (1.66738) BD ( 2) C   5 - C   6  
                ( 50.72%)   0.7122* C   5 s(  0.00%)p 1.00( 99.96%)d 0.00(  0.04%)
                                           -0.0000  0.0002  0.0004  0.0005  0.0002
                                           -0.0045 -0.0003 -0.0005 -0.0000 -0.0004
                                           -0.0000 -0.0001 -0.0000  0.9995  0.0185
                                            0.0148 -0.0020 -0.0001 -0.0179  0.0091
                                            0.0001 -0.0001
                ( 49.28%)   0.7020* C   6 s(  0.00%)p 1.00( 99.96%)d 0.00(  0.04%)
                                           -0.0000 -0.0002  0.0000  0.0004 -0.0000
                                           -0.0035 -0.0003  0.0006 -0.0001 -0.0040
                                            0.0002  0.0002  0.0002  0.9995  0.0166
                                           -0.0152 -0.0021  0.0001 -0.0003 -0.0203
                                           -0.0001 -0.0000
    15. (1.98017) BD ( 1) C   5 - H  13  
                ( 60.26%)   0.7763* C   5 s( 28.40%)p 2.52( 71.55%)d 0.00(  0.04%)
                                           -0.0004  0.5325  0.0232  0.0013  0.0002
                                            0.8457  0.0184  0.0008  0.0014 -0.0000
                                           -0.0000 -0.0000 -0.0000  0.0037  0.0001
                                            0.0000  0.0000 -0.0000  0.0002  0.0000
                                            0.0191 -0.0083
                ( 39.74%)   0.6304* H  13 s( 99.95%)p 0.00(  0.05%)
                                            0.9998  0.0015  0.0010 -0.0000 -0.0217
                                           -0.0000 -0.0001
    16. (1.97846) BD ( 1) C   6 - C   7  
                ( 49.83%)   0.7059* C   6 s( 35.84%)p 1.79( 64.12%)d 0.00(  0.04%)
                                            0.0000  0.5985 -0.0135 -0.0013 -0.0000
                                           -0.7989  0.0201 -0.0118 -0.0009  0.0276
                                           -0.0411 -0.0042  0.0003 -0.0026  0.0001
                                           -0.0000  0.0000  0.0022  0.0001  0.0001
                                            0.0166 -0.0120
                ( 50.17%)   0.7083* C   7 s( 35.57%)p 1.81( 64.38%)d 0.00(  0.04%)
                                           -0.0000  0.5961 -0.0183 -0.0042 -0.0002
                                            0.8007 -0.0189 -0.0092  0.0010  0.0269
                                           -0.0396  0.0042  0.0007  0.0037 -0.0007
                                           -0.0000  0.0001 -0.0025  0.0002  0.0002
                                            0.0172 -0.0119
    17. (1.98072) BD ( 1) C   6 - H  14  
                ( 60.23%)   0.7761* C   6 s( 28.31%)p 2.53( 71.64%)d 0.00(  0.04%)
                                           -0.0004  0.5316  0.0239  0.0014  0.0001
                                            0.4224  0.0087 -0.0001  0.0008  0.7332
                                            0.0168 -0.0009  0.0015  0.0045  0.0001
                                           -0.0000 -0.0000  0.0167  0.0001  0.0002
                                           -0.0096 -0.0084
                ( 39.77%)   0.6306* H  14 s( 99.95%)p 0.00(  0.05%)
                                            0.9998  0.0014  0.0010  0.0001 -0.0109
                                           -0.0190 -0.0001
    18. (1.98014) BD ( 1) C   7 - H  15  
                ( 60.16%)   0.7756* C   7 s( 28.37%)p 2.52( 71.59%)d 0.00(  0.04%)
                                           -0.0004  0.5322  0.0204 -0.0015 -0.0006
                                           -0.4203 -0.0129 -0.0003 -0.0001  0.7342
                                            0.0108 -0.0011  0.0014  0.0044  0.0001
                                           -0.0002 -0.0001 -0.0161 -0.0002 -0.0002
                                           -0.0100 -0.0086
                ( 39.84%)   0.6312* H  15 s( 99.95%)p 0.00(  0.05%)
                                            0.9998  0.0018  0.0011  0.0001  0.0099
                                           -0.0192 -0.0004
    19. (1.99928) CR ( 1) C   1           s(100.00%)p 0.00(  0.00%)
                                            1.0000 -0.0001 -0.0000 -0.0000  0.0000
                                           -0.0004  0.0000  0.0000 -0.0000  0.0000
                                           -0.0000  0.0000  0.0000  0.0000 -0.0000
                                            0.0000  0.0000 -0.0000  0.0000  0.0000
                                           -0.0000  0.0000
    20. (1.99906) CR ( 1) C   2           s(100.00%)
                                            1.0000  0.0000  0.0000 -0.0000  0.0000
                                           -0.0001 -0.0000  0.0000  0.0000  0.0000
                                           -0.0000  0.0000 -0.0000  0.0001  0.0000
                                            0.0000  0.0000 -0.0000  0.0000  0.0000
                                            0.0000 -0.0000
    21. (1.99905) CR ( 1) C   3           s(100.00%)p 0.00(  0.00%)
                                            1.0000  0.0002  0.0000 -0.0000 -0.0000
                                           -0.0001 -0.0000 -0.0000  0.0000 -0.0004
                                           -0.0000  0.0000 -0.0000  0.0000  0.0000
                                            0.0000 -0.0000  0.0000  0.0000  0.0000
                                           -0.0000 -0.0000
    22. (1.99916) CR ( 1) C   4           s(100.00%)p 0.00(  0.00%)
                                            1.0000  0.0002  0.0000  0.0000  0.0000
                                            0.0002  0.0000  0.0000  0.0000 -0.0003
                                           -0.0000 -0.0000 -0.0000  0.0000  0.0000
                                           -0.0000 -0.0000 -0.0000 -0.0000  0.0000
                                           -0.0000 -0.0000
    23. (1.99915) CR ( 1) C   5           s(100.00%)p 0.00(  0.00%)
                                            1.0000  0.0002  0.0000  0.0000  0.0000
                                            0.0004  0.0000 -0.0000  0.0000 -0.0000
                                           -0.0000 -0.0000 -0.0000  0.0000  0.0000
                                            0.0000 -0.0000 -0.0000 -0.0000  0.0000
                                            0.0000 -0.0000
    24. (1.99916) CR ( 1) C   6           s(100.00%)p 0.00(  0.00%)
                                            1.0000  0.0002  0.0000  0.0000  0.0000
                                            0.0002  0.0000  0.0000  0.0000  0.0003
                                            0.0000  0.0000  0.0000  0.0000  0.0000
                                           -0.0000 -0.0000  0.0000  0.0000  0.0000
                                           -0.0000 -0.0000
    25. (1.99905) CR ( 1) C   7           s(100.00%)p 0.00(  0.00%)
                                            1.0000  0.0002  0.0000 -0.0000 -0.0000
                                           -0.0001 -0.0000 -0.0000  0.0000  0.0004
                                            0.0000 -0.0000  0.0000 -0.0000 -0.0000
                                           -0.0000  0.0000 -0.0000 -0.0000  0.0000
                                           -0.0000 -0.0000
    26. (0.00373) RY*( 1) C   1           s(  0.00%)p 1.00( 94.37%)d 0.06(  5.63%)
                                            0.0000 -0.0000  0.0000  0.0000 -0.0000
                                           -0.0000  0.0000 -0.0000  0.0000 -0.0202
                                            0.9702 -0.0349 -0.0271 -0.0000 -0.0000
                                           -0.0000 -0.0000 -0.2367  0.0000  0.0149
                                           -0.0000 -0.0000
    27. (0.00087) RY*( 2) C   1           s(  0.18%)p99.99( 56.18%)d99.99( 43.64%)
                                            0.0000  0.0016  0.0374  0.0188 -0.0033
                                           -0.0026 -0.1134 -0.0226  0.0030  0.0000
                                           -0.0000  0.0000 -0.0000  0.0171 -0.7061
                                            0.0652 -0.2129  0.0000  0.6554  0.0000
                                           -0.0109 -0.0823
    28. (0.00040) RY*( 3) C   1           s( 15.18%)p 5.24( 79.48%)d 0.35(  5.34%)
                                            0.0000  0.0115 -0.1091  0.3738 -0.0072
                                           -0.0230 -0.8599  0.1683 -0.1361  0.0000
                                            0.0000 -0.0000 -0.0000  0.0001  0.0418
                                            0.0512  0.0602  0.0000 -0.1037 -0.0000
                                            0.1439 -0.1480
    29. (0.00021) RY*( 4) C   1           s( 51.89%)p 0.82( 42.66%)d 0.10(  5.45%)
                                            0.0000  0.0031  0.6985 -0.1685  0.0513
                                           -0.0151 -0.2789  0.1583  0.5508  0.0000
                                           -0.0000  0.0000  0.0000 -0.0007  0.0975
                                           -0.0868 -0.0562  0.0000  0.0402 -0.0000
                                           -0.0923  0.2106
    30. (0.00009) RY*( 5) C   1           s(  0.00%)p 1.00( 86.20%)d 0.16( 13.80%)
    31. (0.00008) RY*( 6) C   1           s( 25.69%)p 1.72( 44.29%)d 1.17( 30.02%)
    32. (0.00002) RY*( 7) C   1           s(  2.93%)p15.14( 44.41%)d17.95( 52.65%)
    33. (0.00001) RY*( 8) C   1           s(  7.75%)p 0.36(  2.76%)d11.55( 89.49%)
    34. (0.00000) RY*( 9) C   1           s(  0.00%)p 1.00(100.00%)d 0.00(  0.00%)
    35. (0.00000) RY*(10) C   1           s( 17.08%)p 4.15( 70.79%)d 0.71( 12.14%)
    36. (0.00000) RY*(11) C   1           s(  2.69%)p35.39( 95.06%)d 0.84(  2.25%)
    37. (0.00000) RY*(12) C   1           s(  0.26%)p99.99( 99.15%)d 2.22(  0.59%)
    38. (0.00000) RY*(13) C   1           s(  0.00%)p 1.00( 18.51%)d 4.40( 81.49%)
    39. (0.00000) RY*(14) C   1           s( 77.32%)p 0.20( 15.40%)d 0.09(  7.27%)
    40. (0.00001) RY*(15) C   1           s(  0.00%)p 1.00(  1.00%)d99.38( 99.00%)
    41. (0.00000) RY*(16) C   1           s(  0.19%)p99.99( 49.19%)d99.99( 50.62%)
    42. (0.00000) RY*(17) C   1           s( 98.81%)p 0.01(  0.79%)d 0.00(  0.40%)
    43. (0.00671) RY*( 1) C   2           s(  4.19%)p21.57( 90.47%)d 1.27(  5.34%)
                                           -0.0000 -0.0140  0.2017  0.0320  0.0050
                                           -0.0202  0.9499  0.0094  0.0353  0.0000
                                            0.0001 -0.0000  0.0000  0.0009 -0.0236
                                            0.0086 -0.0013  0.0000  0.0053 -0.0004
                                           -0.2255  0.0497
    44. (0.00280) RY*( 2) C   2           s(  0.00%)p 1.00( 94.75%)d 0.06(  5.25%)
                                           -0.0000 -0.0000  0.0005  0.0002  0.0000
                                            0.0000 -0.0002 -0.0001 -0.0001  0.0162
                                            0.9620 -0.1019 -0.1067  0.0013 -0.0009
                                            0.0004  0.0000  0.2291 -0.0017 -0.0063
                                            0.0001  0.0001
    45. (0.00158) RY*( 3) C   2           s(  5.14%)p15.83( 81.43%)d 2.61( 13.43%)
                                            0.0000  0.0027  0.2119  0.0807  0.0049
                                            0.0010 -0.0655 -0.0150 -0.0249  0.0000
                                           -0.0016 -0.0003  0.0006  0.0154 -0.8967
                                            0.0070 -0.0692 -0.0008 -0.3627 -0.0167
                                            0.0167  0.0467
    46. (0.00063) RY*( 4) C   2           s(  0.03%)p11.30(  0.36%)d99.99( 99.60%)
                                            0.0000 -0.0000  0.0177  0.0030  0.0003
                                            0.0002 -0.0030 -0.0029 -0.0002  0.0038
                                            0.0161  0.0169 -0.0100  0.0102  0.0476
                                            0.0222  0.0103 -0.0925 -0.0612 -0.9918
                                            0.0000  0.0006
    47. (0.00040) RY*( 5) C   2           s(  0.00%)p 1.00( 52.64%)d 0.90( 47.36%)
                                            0.0000 -0.0000 -0.0022  0.0023  0.0002
                                           -0.0000  0.0008 -0.0029  0.0004 -0.0247
                                           -0.1857 -0.5980  0.3655  0.0012  0.0084
                                            0.0059  0.0025  0.6834 -0.0177 -0.0791
                                            0.0009  0.0009
    48. (0.00039) RY*( 6) C   2           s( 80.68%)p 0.19( 15.61%)d 0.05(  3.71%)
                                            0.0000  0.0035  0.8909 -0.1135 -0.0156
                                            0.0083 -0.1936  0.1924 -0.0229 -0.0001
                                           -0.0006  0.0015 -0.0004 -0.0002  0.2750
                                            0.0646  0.0345  0.0020 -0.1711  0.0410
                                           -0.0700 -0.0348
    49. (0.00027) RY*( 7) C   2           s(  6.16%)p 3.53( 21.73%)d11.71( 72.11%)
                                            0.0000  0.0007  0.1997 -0.1467 -0.0140
                                            0.0023 -0.0592  0.1896 -0.0485 -0.0002
                                           -0.0015 -0.0133  0.0060 -0.0056 -0.3011
                                           -0.2703 -0.1073  0.0069  0.8408 -0.0718
                                           -0.0651 -0.0685
    50. (0.00015) RY*( 8) C   2           s( 10.80%)p 7.34( 79.25%)d 0.92(  9.94%)
                                           -0.0000 -0.0007  0.1798  0.2185 -0.1672
                                           -0.0117 -0.1204 -0.7455  0.4712 -0.0000
                                            0.0000 -0.0007  0.0001 -0.0022  0.0021
                                           -0.0078 -0.0100 -0.0000  0.1537 -0.0034
                                           -0.2750 -0.0135
    51. (0.00010) RY*( 9) C   2           s(  7.93%)p 2.47( 19.60%)d 9.14( 72.47%)
                                            0.0000  0.0099  0.1184  0.1904  0.1702
                                            0.0105  0.0646  0.0875  0.4186  0.0000
                                            0.0001 -0.0013  0.0001 -0.0001  0.0327
                                           -0.0876 -0.0101 -0.0006  0.0938 -0.0037
                                            0.6030  0.5935
    52. (0.00008) RY*(10) C   2           s(  0.00%)p 1.00( 54.66%)d 0.83( 45.34%)
    53. (0.00007) RY*(11) C   2           s( 13.58%)p 2.11( 28.68%)d 4.25( 57.74%)
    54. (0.00003) RY*(12) C   2           s(  0.00%)p 1.00( 97.93%)d 0.02(  2.07%)
    55. (0.00001) RY*(13) C   2           s( 23.18%)p 1.12( 25.89%)d 2.20( 50.93%)
    56. (0.00000) RY*(14) C   2           s( 55.41%)p 0.75( 41.33%)d 0.06(  3.25%)
    57. (0.00000) RY*(15) C   2           s(  0.01%)p99.99( 92.64%)d99.99(  7.34%)
    58. (0.00000) RY*(16) C   2           s(  0.01%)p99.99( 99.42%)d52.45(  0.56%)
    59. (0.00000) RY*(17) C   2           s( 92.90%)p 0.04(  3.71%)d 0.04(  3.39%)
    60. (0.00598) RY*( 1) C   3           s(  0.34%)p99.99( 94.38%)d15.65(  5.28%)
                                           -0.0000  0.0140  0.0452  0.0336 -0.0000
                                            0.0151 -0.6318 -0.0054 -0.0127  0.0308
                                           -0.7328  0.0676 -0.0408  0.0004  0.0061
                                           -0.0036  0.0019  0.1927  0.0020  0.0044
                                           -0.1236 -0.0191
    61. (0.00218) RY*( 2) C   3           s(  0.60%)p99.99( 97.37%)d 3.38(  2.03%)
                                           -0.0000 -0.0106  0.0745  0.0047  0.0181
                                           -0.0326 -0.7249  0.2008  0.1264  0.0157
                                            0.6152 -0.1056 -0.0314 -0.0012 -0.0004
                                           -0.0023  0.0036 -0.0750  0.0208 -0.0021
                                           -0.1081  0.0505
    62. (0.00089) RY*( 3) C   3           s(  1.95%)p45.60( 89.13%)d 4.56(  8.92%)
                                           -0.0000  0.0009  0.1368 -0.0259  0.0124
                                            0.0064  0.0262  0.0812 -0.0308  0.0004
                                           -0.0084  0.0016  0.0142 -0.0118  0.9108
                                            0.2086  0.0979 -0.0106 -0.1813 -0.2329
                                           -0.0359  0.0265
    63. (0.00060) RY*( 4) C   3           s( 11.99%)p 0.11(  1.34%)d 7.22( 86.66%)
                                           -0.0000  0.0019  0.3451  0.0253  0.0141
                                            0.0085  0.0338 -0.0257 -0.0700  0.0046
                                           -0.0093  0.0417  0.0130 -0.0089 -0.0085
                                            0.0069 -0.0667 -0.0368  0.8039 -0.4673
                                           -0.0202  0.0157
    64. (0.00048) RY*( 5) C   3           s( 73.98%)p 0.13(  9.59%)d 0.22( 16.43%)
                                           -0.0000  0.0053  0.8599 -0.0000  0.0184
                                            0.0256  0.0885  0.1339 -0.2148  0.0107
                                           -0.0296  0.0138  0.0287  0.0041 -0.1391
                                           -0.0439  0.0071 -0.1238 -0.2566  0.2468
                                           -0.1423  0.0446
    65. (0.00019) RY*( 6) C   3           s( 15.03%)p 3.13( 47.00%)d 2.53( 37.98%)
                                            0.0000 -0.0035 -0.2175  0.3129 -0.0712
                                            0.0202  0.1245  0.5794 -0.1282 -0.0201
                                           -0.1391 -0.2592 -0.1193 -0.0009 -0.0192
                                            0.0209  0.0006 -0.3504  0.0780 -0.0006
                                           -0.4304 -0.2561
    66. (0.00011) RY*( 7) C   3           s( 17.01%)p 1.35( 22.89%)d 3.53( 60.10%)
                                           -0.0000 -0.0101  0.0731  0.3907 -0.1096
                                           -0.0144 -0.1683 -0.2628 -0.2649 -0.0035
                                           -0.0055 -0.2442 -0.0129  0.0008  0.0308
                                            0.0027  0.0164 -0.2760 -0.0605 -0.0334
                                            0.5695 -0.4425
    67. (0.00011) RY*( 8) C   3           s(  4.44%)p18.33( 81.30%)d 3.21( 14.26%)
                                           -0.0000 -0.0016  0.1415  0.1363 -0.0759
                                            0.0054  0.0495 -0.2893  0.5588 -0.0007
                                           -0.0139  0.2124 -0.5965  0.0020 -0.0449
                                            0.1072  0.0016 -0.2409 -0.1087 -0.1160
                                           -0.1736 -0.1707
    68. (0.00004) RY*( 9) C   3           s( 16.87%)p 2.84( 47.84%)d 2.09( 35.29%)
    69. (0.00005) RY*(10) C   3           s(  2.62%)p18.18( 47.67%)d18.96( 49.71%)
    70. (0.00000) RY*(11) C   3           s(  0.04%)p99.99( 99.59%)d 9.01(  0.37%)
    71. (0.00001) RY*(12) C   3           s(  2.05%)p 9.82( 20.10%)d38.04( 77.85%)
    72. (0.00000) RY*(13) C   3           s( 90.22%)p 0.01(  0.62%)d 0.10(  9.16%)
    73. (0.00001) RY*(14) C   3           s(  4.43%)p 9.78( 43.33%)d11.80( 52.24%)
    74. (0.00000) RY*(15) C   3           s(  0.07%)p99.99( 92.63%)d99.99(  7.30%)
    75. (0.00000) RY*(16) C   3           s(  3.07%)p30.06( 92.36%)d 1.49(  4.56%)
    76. (0.00001) RY*(17) C   3           s( 55.28%)p 0.24( 13.04%)d 0.57( 31.68%)
    77. (0.00636) RY*( 1) C   4           s(  0.74%)p99.99( 94.40%)d 6.59(  4.87%)
                                           -0.0000  0.0184 -0.0284  0.0789  0.0030
                                           -0.0223  0.4430  0.0500  0.0407  0.0309
                                           -0.8588 -0.0414 -0.0537 -0.0005  0.0044
                                            0.0001 -0.0001 -0.1911  0.0013 -0.0016
                                           -0.1073 -0.0249
    78. (0.00229) RY*( 2) C   4           s(  0.68%)p99.99( 98.38%)d 1.37(  0.94%)
                                            0.0000 -0.0006  0.0766  0.0304  0.0067
                                           -0.0414 -0.8413 -0.1470  0.1874 -0.0224
                                           -0.4398 -0.1114  0.1059  0.0000  0.0043
                                           -0.0009  0.0016 -0.0278  0.0082  0.0023
                                            0.0922  0.0003
    79. (0.00078) RY*( 3) C   4           s(  0.01%)p99.99( 87.69%)d99.99( 12.30%)
                                           -0.0000  0.0002  0.0095  0.0024  0.0022
                                            0.0001  0.0004  0.0203  0.0001  0.0004
                                            0.0061 -0.0124 -0.0066 -0.0152  0.9019
                                           -0.2241  0.1114  0.0039  0.0855 -0.3401
                                            0.0049  0.0041
    80. (0.00062) RY*( 4) C   4           s(  0.14%)p11.07(  1.54%)d99.99( 98.32%)
                                           -0.0000  0.0005  0.0052  0.0367  0.0034
                                           -0.0010 -0.0033  0.0682  0.0039 -0.0003
                                            0.0048 -0.0004 -0.0013  0.0104  0.0888
                                            0.0516 -0.0049  0.0144  0.8937  0.4289
                                           -0.0119  0.0116
    81. (0.00042) RY*( 5) C   4           s( 93.25%)p 0.04(  3.53%)d 0.03(  3.22%)
                                           -0.0000  0.0043  0.9616 -0.0862 -0.0185
                                           -0.0079  0.0953  0.0149  0.0530  0.0287
                                           -0.0054 -0.0137 -0.1483 -0.0000 -0.0075
                                            0.0057  0.0036  0.0475 -0.0050  0.0090
                                            0.1631 -0.0572
    82. (0.00025) RY*( 6) C   4           s(  2.43%)p30.98( 75.38%)d 9.12( 22.19%)
                                            0.0000 -0.0012 -0.0500  0.1455  0.0256
                                            0.0233  0.1208 -0.7182 -0.2616  0.0120
                                            0.0594 -0.3684 -0.1208  0.0002  0.0166
                                            0.0085 -0.0014 -0.2640  0.0452  0.0254
                                            0.3862 -0.0169
    83. (0.00011) RY*( 7) C   4           s( 34.19%)p 0.29(  9.91%)d 1.64( 55.91%)
                                            0.0000 -0.0082 -0.1043  0.5694 -0.0819
                                            0.0066  0.0242  0.1567  0.1638 -0.0099
                                           -0.0111 -0.0262 -0.2142  0.0001 -0.0135
                                           -0.0066 -0.0014  0.3836 -0.0190 -0.0193
                                            0.3241 -0.5533
    84. (0.00008) RY*( 8) C   4           s(  2.76%)p15.10( 41.72%)d20.10( 55.52%)
    85. (0.00004) RY*( 9) C   4           s(  2.12%)p35.55( 75.51%)d10.53( 22.36%)
    86. (0.00002) RY*(10) C   4           s( 29.56%)p 0.74( 21.93%)d 1.64( 48.50%)
    87. (0.00000) RY*(11) C   4           s(  0.01%)p 1.00( 99.40%)d 0.01(  0.59%)
    88. (0.00000) RY*(12) C   4           s(  0.04%)p99.99( 99.71%)d 6.03(  0.25%)
    89. (0.00001) RY*(13) C   4           s( 14.91%)p 1.67( 24.86%)d 4.04( 60.23%)
    90. (0.00000) RY*(14) C   4           s( 96.16%)p 0.01(  0.99%)d 0.03(  2.86%)
    91. (0.00000) RY*(15) C   4           s(  0.12%)p99.84( 12.03%)d99.99( 87.85%)
    92. (0.00000) RY*(16) C   4           s( 20.74%)p 3.51( 72.77%)d 0.31(  6.49%)
    93. (0.00000) RY*(17) C   4           s(  2.13%)p37.74( 80.44%)d 8.18( 17.43%)
    94. (0.00607) RY*( 1) C   5           s(  1.00%)p93.54( 93.63%)d 5.37(  5.37%)
                                            0.0000 -0.0166  0.0968 -0.0168  0.0094
                                            0.0343 -0.9642  0.0420 -0.0610  0.0000
                                            0.0000  0.0000  0.0000 -0.0002 -0.0016
                                            0.0018  0.0004  0.0000  0.0003 -0.0002
                                           -0.2304  0.0252
    95. (0.00216) RY*( 2) C   5           s(  0.00%)p 1.00( 99.19%)d 0.01(  0.81%)
                                           -0.0000 -0.0000 -0.0000 -0.0000 -0.0000
                                            0.0000 -0.0000  0.0000 -0.0000  0.0469
                                            0.9403 -0.2503 -0.2070 -0.0000 -0.0001
                                           -0.0000 -0.0000 -0.0898 -0.0000  0.0004
                                           -0.0000 -0.0000
    96. (0.00096) RY*( 3) C   5           s(  0.05%)p99.99( 88.87%)d99.99( 11.08%)
                                           -0.0000  0.0004  0.0161  0.0155  0.0029
                                           -0.0007 -0.0008 -0.0291  0.0025  0.0001
                                            0.0008  0.0019  0.0002 -0.0126  0.9207
                                            0.1562  0.1246  0.0013  0.3155 -0.1062
                                           -0.0009  0.0048
    97. (0.00056) RY*( 4) C   5           s(  0.00%)p 1.00(  1.10%)d89.53( 98.89%)
                                            0.0000  0.0000  0.0017  0.0017  0.0003
                                           -0.0000 -0.0003 -0.0033  0.0002 -0.0010
                                           -0.0092 -0.0274  0.0003 -0.0105  0.0982
                                            0.0164  0.0133 -0.0169  0.0338  0.9937
                                           -0.0001  0.0006
    98. (0.00039) RY*( 5) C   5           s(  0.00%)p 1.00( 85.50%)d 0.17( 14.50%)
                                           -0.0000  0.0000  0.0000  0.0000  0.0000
                                           -0.0000 -0.0000 -0.0000  0.0000  0.0277
                                            0.2006  0.8568 -0.2828 -0.0002  0.0010
                                            0.0002  0.0001  0.3794  0.0004  0.0319
                                           -0.0000  0.0000
    99. (0.00029) RY*( 6) C   5           s( 93.68%)p 0.06(  5.31%)d 0.01(  1.01%)
                                           -0.0000  0.0036  0.9483 -0.1801 -0.0713
                                           -0.0294  0.1060  0.0753  0.1876  0.0000
                                           -0.0000  0.0000 -0.0000 -0.0002 -0.0106
                                            0.0006 -0.0012 -0.0000 -0.0014  0.0001
                                           -0.0818 -0.0583
   100. (0.00012) RY*( 7) C   5           s( 39.03%)p 0.25(  9.75%)d 1.31( 51.22%)
                                            0.0000 -0.0107 -0.0269  0.6200 -0.0712
                                            0.0076  0.0445  0.0529  0.3043 -0.0000
                                           -0.0000 -0.0000 -0.0000 -0.0000 -0.0081
                                            0.0031 -0.0031 -0.0000  0.0058  0.0001
                                           -0.3813 -0.6056
   101. (0.00007) RY*( 8) C   5           s(  0.00%)p 1.00( 33.38%)d 2.00( 66.62%)
   102. (0.00003) RY*( 9) C   5           s( 15.99%)p 4.90( 78.40%)d 0.35(  5.61%)
   103. (0.00003) RY*(10) C   5           s( 23.41%)p 0.30(  7.07%)d 2.97( 69.51%)
   104. (0.00000) RY*(11) C   5           s(  0.00%)p 1.00( 99.99%)d 0.00(  0.01%)
   105. (0.00000) RY*(12) C   5           s(  0.00%)p 1.00( 99.84%)d 0.00(  0.16%)
   106. (0.00000) RY*(13) C   5           s(  6.36%)p13.74( 87.39%)d 0.98(  6.26%)
   107. (0.00000) RY*(14) C   5           s(  0.00%)p 1.00( 10.38%)d 8.63( 89.62%)
   108. (0.00001) RY*(15) C   5           s(  0.00%)p 1.00( 81.89%)d 0.22( 18.11%)
   109. (0.00000) RY*(16) C   5           s( 97.93%)p 0.01(  1.05%)d 0.01(  1.02%)
   110. (0.00000) RY*(17) C   5           s( 22.53%)p 0.77( 17.44%)d 2.67( 60.04%)
   111. (0.00636) RY*( 1) C   6           s(  0.74%)p99.99( 94.40%)d 6.59(  4.87%)
                                           -0.0000  0.0184 -0.0284  0.0790  0.0030
                                           -0.0223  0.4430  0.0500  0.0407 -0.0309
                                            0.8588  0.0414  0.0537 -0.0004  0.0044
                                            0.0001 -0.0001  0.1911  0.0017  0.0015
                                           -0.1073 -0.0249
   112. (0.00229) RY*( 2) C   6           s(  0.68%)p99.99( 98.38%)d 1.37(  0.93%)
                                            0.0000 -0.0006  0.0766  0.0304  0.0067
                                           -0.0414 -0.8413 -0.1470  0.1874  0.0224
                                            0.4398  0.1114 -0.1059 -0.0004  0.0032
                                           -0.0007  0.0015  0.0278  0.0077 -0.0025
                                            0.0922  0.0003
   113. (0.00084) RY*( 3) C   6           s(  0.01%)p99.99( 75.49%)d99.99( 24.50%)
                                           -0.0000 -0.0000 -0.0066  0.0086 -0.0009
                                           -0.0003 -0.0002 -0.0003  0.0001  0.0004
                                            0.0037 -0.0106 -0.0055  0.0079 -0.8310
                                            0.2294 -0.1074 -0.0000  0.1935 -0.4555
                                           -0.0075 -0.0003
   114. (0.00059) RY*( 4) C   6           s(  0.14%)p97.19( 13.74%)d99.99( 86.12%)
                                            0.0000  0.0006  0.0109  0.0358  0.0039
                                           -0.0009 -0.0038  0.0733  0.0047  0.0002
                                           -0.0063  0.0042  0.0033 -0.0122  0.3612
                                           -0.0194  0.0294 -0.0155  0.8769 -0.3031
                                           -0.0095  0.0124
   115. (0.00042) RY*( 5) C   6           s( 93.24%)p 0.04(  3.53%)d 0.03(  3.23%)
                                           -0.0000  0.0043  0.9616 -0.0863 -0.0185
                                           -0.0079  0.0953  0.0146  0.0529 -0.0287
                                            0.0054  0.0137  0.1483 -0.0000 -0.0077
                                            0.0055  0.0036 -0.0475 -0.0078 -0.0076
                                            0.1632 -0.0573
   116. (0.00025) RY*( 6) C   6           s(  2.44%)p30.94( 75.37%)d 9.11( 22.20%)
                                            0.0000 -0.0012 -0.0500  0.1456  0.0257
                                            0.0233  0.1208 -0.7181 -0.2616 -0.0120
                                           -0.0595  0.3685  0.1208 -0.0003  0.0195
                                            0.0079 -0.0010  0.2640  0.0465 -0.0248
                                            0.3863 -0.0169
   117. (0.00011) RY*( 7) C   6           s( 34.18%)p 0.29(  9.91%)d 1.64( 55.91%)
                                            0.0000 -0.0082 -0.1043  0.5694 -0.0819
                                            0.0066  0.0242  0.1567  0.1638  0.0099
                                            0.0111  0.0262  0.2143  0.0003 -0.0142
                                           -0.0064 -0.0015 -0.3836 -0.0193  0.0191
                                            0.3240 -0.5534
   118. (0.00008) RY*( 8) C   6           s(  2.76%)p15.11( 41.72%)d20.11( 55.52%)
   119. (0.00004) RY*( 9) C   6           s(  2.12%)p35.57( 75.51%)d10.54( 22.37%)
   120. (0.00002) RY*(10) C   6           s( 29.56%)p 0.74( 21.93%)d 1.64( 48.50%)
   121. (0.00000) RY*(11) C   6           s(  0.01%)p 1.00( 99.40%)d 0.01(  0.59%)
   122. (0.00000) RY*(12) C   6           s(  0.04%)p99.99( 99.71%)d 5.95(  0.25%)
   123. (0.00001) RY*(13) C   6           s( 14.91%)p 1.67( 24.84%)d 4.04( 60.25%)
   124. (0.00000) RY*(14) C   6           s( 96.15%)p 0.01(  0.99%)d 0.03(  2.86%)
   125. (0.00000) RY*(15) C   6           s(  0.12%)p99.98( 12.04%)d99.99( 87.84%)
   126. (0.00000) RY*(16) C   6           s( 20.75%)p 3.51( 72.76%)d 0.31(  6.48%)
   127. (0.00000) RY*(17) C   6           s(  2.12%)p37.93( 80.47%)d 8.21( 17.41%)
   128. (0.00598) RY*( 1) C   7           s(  0.34%)p99.99( 94.38%)d15.64(  5.28%)
                                           -0.0000  0.0140  0.0453  0.0336 -0.0000
                                            0.0151 -0.6318 -0.0054 -0.0127 -0.0308
                                            0.7328 -0.0676  0.0408  0.0006  0.0063
                                           -0.0036  0.0019 -0.1926  0.0022 -0.0043
                                           -0.1236 -0.0191
   129. (0.00219) RY*( 2) C   7           s(  0.61%)p99.99( 97.35%)d 3.35(  2.04%)
                                           -0.0000 -0.0106  0.0750  0.0047  0.0181
                                           -0.0326 -0.7248  0.2009  0.1263 -0.0157
                                           -0.6152  0.1056  0.0314  0.0001  0.0043
                                           -0.0013  0.0038  0.0751  0.0232  0.0050
                                           -0.1081  0.0505
   130. (0.00092) RY*( 3) C   7           s(  2.66%)p32.08( 85.21%)d 4.57( 12.14%)
                                            0.0000  0.0010  0.1612 -0.0195  0.0138
                                            0.0069  0.0323  0.0654 -0.0348 -0.0007
                                            0.0123 -0.0089 -0.0151 -0.0086  0.8922
                                            0.2062  0.0801  0.0121  0.0219  0.3452
                                           -0.0310  0.0253
   131. (0.00058) RY*( 4) C   7           s(  6.80%)p 0.89(  6.02%)d12.82( 87.18%)
                                            0.0000  0.0013  0.2587  0.0313  0.0084
                                            0.0052  0.0213 -0.0599 -0.0507 -0.0039
                                            0.0065 -0.0349 -0.0078  0.0112 -0.2075
                                           -0.0411 -0.0858  0.0290  0.8383  0.4102
                                            0.0036  0.0015
   132. (0.00049) RY*( 5) C   7           s( 78.50%)p 0.11(  8.95%)d 0.16( 12.55%)
                                            0.0000  0.0055  0.8858  0.0003  0.0203
                                            0.0264  0.0913  0.1371 -0.2195 -0.0110
                                            0.0297 -0.0183 -0.0301 -0.0011 -0.1006
                                           -0.0336  0.0063  0.1255 -0.2109 -0.2036
                                           -0.1464  0.0484
   133. (0.00019) RY*( 6) C   7           s( 15.06%)p 3.11( 46.88%)d 2.53( 38.06%)
                                            0.0000 -0.0035 -0.2167  0.3139 -0.0715
                                            0.0202  0.1241  0.5779 -0.1288  0.0201
                                            0.1391  0.2600  0.1195 -0.0003 -0.0219
                                            0.0200  0.0002  0.3513  0.0820  0.0015
                                           -0.4291 -0.2575
   134. (0.00011) RY*( 7) C   7           s( 16.72%)p 1.39( 23.21%)d 3.59( 60.07%)
                                           -0.0000 -0.0101  0.0714  0.3876 -0.1085
                                           -0.0145 -0.1692 -0.2588 -0.2722  0.0035
                                            0.0051  0.2465  0.0047  0.0004  0.0326
                                            0.0015  0.0172  0.2717 -0.0697  0.0263
                                            0.5730 -0.4394
   135. (0.00011) RY*( 8) C   7           s(  4.63%)p17.48( 80.95%)d 3.11( 14.42%)
                                            0.0000 -0.0018  0.1424  0.1416 -0.0773
                                            0.0052  0.0472 -0.2926  0.5551  0.0007
                                            0.0139 -0.2093  0.5966  0.0019 -0.0438
                                            0.1075  0.0019  0.2445 -0.1102  0.1167
                                           -0.1656 -0.1766
   136. (0.00004) RY*( 9) C   7           s( 16.95%)p 2.82( 47.79%)d 2.08( 35.25%)
   137. (0.00005) RY*(10) C   7           s(  2.61%)p18.24( 47.69%)d19.01( 49.70%)
   138. (0.00000) RY*(11) C   7           s(  0.04%)p99.99( 99.59%)d 8.24(  0.36%)
   139. (0.00001) RY*(12) C   7           s(  2.08%)p 9.68( 20.14%)d37.37( 77.78%)
   140. (0.00000) RY*(13) C   7           s( 90.21%)p 0.01(  0.63%)d 0.10(  9.16%)
   141. (0.00001) RY*(14) C   7           s(  4.48%)p 9.64( 43.22%)d11.66( 52.29%)
   142. (0.00000) RY*(15) C   7           s(  0.07%)p99.99( 92.61%)d99.99(  7.32%)
   143. (0.00000) RY*(16) C   7           s(  3.06%)p30.19( 92.37%)d 1.49(  4.57%)
   144. (0.00001) RY*(17) C   7           s( 55.16%)p 0.24( 13.17%)d 0.57( 31.66%)
   145. (0.00103) RY*( 1) H   8           s( 89.67%)p 0.12( 10.33%)
                                           -0.0031  0.9467  0.0135 -0.0151  0.3211
                                            0.0000 -0.0152
   146. (0.00018) RY*( 2) H   8           s( 52.43%)p 0.91( 47.57%)
                                            0.0024 -0.2142  0.6609 -0.2040  0.6093
                                           -0.0000  0.3232
   147. (0.00014) RY*( 3) H   8           s(  0.00%)p 1.00(100.00%)
                                            0.0000  0.0000  0.0000 -0.0000 -0.0000
                                            1.0000  0.0000
   148. (0.00011) RY*( 4) H   8           s( 70.11%)p 0.43( 29.89%)
                                            0.0061  0.1719  0.5734  0.5854 -0.4921
                                           -0.0000  0.2384
   149. (0.00006) RY*( 5) H   8           s( 42.40%)p 1.36( 57.60%)
   150. (0.00002) RY*( 6) H   8           s( 45.44%)p 1.20( 54.56%)
   151. (0.00097) RY*( 1) H   9           s( 95.94%)p 0.04(  4.06%)
                                           -0.0028  0.9794  0.0053 -0.0062  0.1897
                                            0.0668 -0.0126
   152. (0.00017) RY*( 2) H   9           s( 51.59%)p 0.94( 48.41%)
                                            0.0008 -0.1065  0.6891 -0.1724  0.6158
                                           -0.2866 -0.1510
   153. (0.00012) RY*( 3) H   9           s( 17.66%)p 4.66( 82.34%)
                                            0.0025  0.0361  0.4184  0.0155 -0.4051
                                            0.4640 -0.6663
   154. (0.00010) RY*( 4) H   9           s( 64.05%)p 0.56( 35.95%)
   155. (0.00005) RY*( 5) H   9           s( 63.11%)p 0.58( 36.89%)
   156. (0.00002) RY*( 6) H   9           s(  7.69%)p12.01( 92.31%)
   157. (0.00097) RY*( 1) H  10           s( 95.94%)p 0.04(  4.06%)
                                           -0.0028  0.9794  0.0053 -0.0062  0.1897
                                           -0.0668 -0.0126
   158. (0.00017) RY*( 2) H  10           s( 51.59%)p 0.94( 48.41%)
                                            0.0008 -0.1065  0.6891 -0.1724  0.6158
                                            0.2866 -0.1510
   159. (0.00012) RY*( 3) H  10           s( 17.66%)p 4.66( 82.34%)
                                            0.0025  0.0361  0.4184  0.0155 -0.4051
                                           -0.4640 -0.6663
   160. (0.00010) RY*( 4) H  10           s( 64.05%)p 0.56( 35.95%)
   161. (0.00005) RY*( 5) H  10           s( 63.11%)p 0.58( 36.89%)
   162. (0.00002) RY*( 6) H  10           s(  7.69%)p12.01( 92.31%)
   163. (0.00086) RY*( 1) H  11           s( 99.00%)p 0.01(  1.00%)
                                           -0.0034  0.9950 -0.0026 -0.0020  0.0933
                                            0.0359 -0.0053
   164. (0.00021) RY*( 2) H  11           s( 88.39%)p 0.13( 11.61%)
                                            0.0059  0.0182  0.9396 -0.0282 -0.0384
                                           -0.3385 -0.0014
   165. (0.00020) RY*( 3) H  11           s(  0.11%)p99.99( 99.89%)
                                           -0.0001 -0.0053 -0.0080  0.0315  0.0089
                                           -0.0222 -0.9992
   166. (0.00013) RY*( 4) H  11           s( 23.09%)p 3.33( 76.91%)
                                           -0.0008  0.0581  0.1332  0.4580 -0.7689
                                            0.4217 -0.0032
   167. (0.00006) RY*( 5) H  11           s( 79.08%)p 0.26( 20.92%)
   168. (0.00004) RY*( 6) H  11           s( 10.38%)p 8.63( 89.62%)
   169. (0.00083) RY*( 1) H  12           s( 98.41%)p 0.02(  1.59%)
                                           -0.0041  0.9920 -0.0063 -0.0007 -0.0584
                                            0.1116  0.0016
   170. (0.00020) RY*( 2) H  12           s( 91.47%)p 0.09(  8.53%)
                                            0.0046  0.0376  0.9556 -0.0051  0.2515
                                           -0.1486 -0.0002
   171. (0.00020) RY*( 3) H  12           s(  0.05%)p99.99( 99.95%)
                                           -0.0001  0.0014 -0.0006  0.0218  0.0037
                                            0.0037 -0.9997
   172. (0.00012) RY*( 4) H  12           s(  4.36%)p21.93( 95.64%)
                                            0.0010  0.0122  0.1342  0.1596 -0.8217
                                           -0.5303 -0.0016
   173. (0.00003) RY*( 5) H  12           s( 19.79%)p 4.05( 80.21%)
   174. (0.00002) RY*( 6) H  12           s( 85.97%)p 0.16( 14.03%)
   175. (0.00083) RY*( 1) H  13           s( 98.66%)p 0.01(  1.34%)
                                           -0.0040  0.9933 -0.0061 -0.0004 -0.1154
                                            0.0000  0.0078
   176. (0.00021) RY*( 2) H  13           s(  4.13%)p23.19( 95.87%)
                                            0.0011 -0.0001  0.2031 -0.0097  0.0541
                                            0.0000  0.9776
   177. (0.00019) RY*( 3) H  13           s( 87.57%)p 0.14( 12.43%)
                                            0.0051  0.0403  0.9349  0.0056  0.2833
                                            0.0000 -0.2098
   178. (0.00012) RY*( 4) H  13           s(  0.00%)p 1.00(100.00%)
                                            0.0000 -0.0000 -0.0000  0.0000 -0.0000
                                            1.0000  0.0000
   179. (0.00003) RY*( 5) H  13           s( 99.99%)p 0.00(  0.01%)
   180. (0.00003) RY*( 6) H  13           s(  9.69%)p 9.32( 90.31%)
   181. (0.00083) RY*( 1) H  14           s( 98.41%)p 0.02(  1.59%)
                                           -0.0041  0.9920 -0.0063 -0.0007 -0.0584
                                           -0.1116  0.0016
   182. (0.00020) RY*( 2) H  14           s( 91.47%)p 0.09(  8.53%)
                                            0.0046  0.0376  0.9556 -0.0051  0.2515
                                            0.1486 -0.0002
   183. (0.00020) RY*( 3) H  14           s(  0.05%)p99.99( 99.95%)
                                           -0.0001  0.0014 -0.0006  0.0218  0.0037
                                           -0.0037 -0.9997
   184. (0.00012) RY*( 4) H  14           s(  4.36%)p21.93( 95.64%)
                                            0.0010  0.0122  0.1342  0.1596 -0.8217
                                            0.5303 -0.0016
   185. (0.00003) RY*( 5) H  14           s( 19.79%)p 4.05( 80.21%)
   186. (0.00002) RY*( 6) H  14           s( 85.97%)p 0.16( 14.03%)
   187. (0.00086) RY*( 1) H  15           s( 99.00%)p 0.01(  1.00%)
                                           -0.0034  0.9950 -0.0026 -0.0020  0.0933
                                           -0.0359 -0.0053
   188. (0.00021) RY*( 2) H  15           s( 88.39%)p 0.13( 11.61%)
                                            0.0059  0.0182  0.9396 -0.0282 -0.0384
                                            0.3385 -0.0014
   189. (0.00020) RY*( 3) H  15           s(  0.11%)p99.99( 99.89%)
                                           -0.0001 -0.0053 -0.0080  0.0315  0.0089
                                            0.0222 -0.9992
   190. (0.00013) RY*( 4) H  15           s( 23.09%)p 3.33( 76.91%)
                                           -0.0008  0.0581  0.1332  0.4580 -0.7689
                                           -0.4217 -0.0032
   191. (0.00006) RY*( 5) H  15           s( 79.08%)p 0.26( 20.92%)
   192. (0.00004) RY*( 6) H  15           s( 10.38%)p 8.63( 89.62%)
   193. (0.01619) BD*( 1) C   1 - C   2  
                ( 50.77%)   0.7126* C   1 s( 30.37%)p 2.29( 69.59%)d 0.00(  0.04%)
                                            0.0003  0.5507  0.0183  0.0025 -0.0001
                                            0.8338 -0.0130 -0.0088 -0.0003 -0.0000
                                            0.0000 -0.0000 -0.0000 -0.0224  0.0014
                                           -0.0015 -0.0004  0.0000 -0.0005 -0.0000
                                            0.0184 -0.0099
                ( 49.23%)  -0.7016* C   2 s( 31.17%)p 2.21( 68.79%)d 0.00(  0.03%)
                                           -0.0001  0.5583  0.0020 -0.0071  0.0004
                                           -0.8293 -0.0057  0.0078  0.0025  0.0000
                                           -0.0000  0.0000 -0.0000  0.0063  0.0011
                                           -0.0005  0.0001 -0.0000 -0.0013  0.0000
                                            0.0147 -0.0101
   194. (0.01051) BD*( 1) C   1 - H   8  
                ( 39.47%)   0.6282* C   1 s( 23.23%)p 3.30( 76.71%)d 0.00(  0.06%)
                                           -0.0001  0.4819 -0.0076  0.0003  0.0003
                                           -0.2955  0.0145  0.0020 -0.0011 -0.0000
                                           -0.0000 -0.0000 -0.0000  0.8243  0.0062
                                            0.0032  0.0010  0.0000 -0.0114 -0.0000
                                            0.0014  0.0218
                ( 60.53%)  -0.7780* H   8 s( 99.97%)p 0.00(  0.03%)
                                            0.9998  0.0013  0.0004  0.0000  0.0051
                                            0.0000 -0.0170
   195. (0.00573) BD*( 1) C   1 - H   9  
                ( 39.71%)   0.6302* C   1 s( 23.22%)p 3.30( 76.73%)d 0.00(  0.06%)
                                           -0.0001  0.4818 -0.0046 -0.0010 -0.0001
                                           -0.3285  0.0128 -0.0006 -0.0010 -0.7067
                                           -0.0123 -0.0017  0.0008 -0.3994 -0.0030
                                           -0.0017 -0.0004  0.0110  0.0065  0.0157
                                           -0.0124 -0.0039
                ( 60.29%)  -0.7765* H   9 s( 99.97%)p 0.00(  0.03%)
                                            0.9998  0.0006  0.0005 -0.0000  0.0071
                                            0.0141  0.0095
   196. (0.00573) BD*( 1) C   1 - H  10  
                ( 39.71%)   0.6302* C   1 s( 23.22%)p 3.30( 76.73%)d 0.00(  0.06%)
                                           -0.0001  0.4818 -0.0046 -0.0010 -0.0001
                                           -0.3285  0.0128 -0.0006 -0.0010  0.7067
                                            0.0123  0.0017 -0.0008 -0.3994 -0.0030
                                           -0.0017 -0.0004 -0.0110  0.0065 -0.0157
                                           -0.0124 -0.0039
                ( 60.29%)  -0.7765* H  10 s( 99.97%)p 0.00(  0.03%)
                                            0.9998  0.0006  0.0005 -0.0000  0.0071
                                           -0.0141  0.0095
   197. (0.02441) BD*( 1) C   2 - C   3  
                ( 49.36%)   0.7026* C   2 s( 34.38%)p 1.91( 65.58%)d 0.00(  0.04%)
                                           -0.0000 -0.5864  0.0017 -0.0035  0.0002
                                           -0.3945 -0.0161  0.0061  0.0007  0.7067
                                           -0.0160 -0.0059  0.0013 -0.0062 -0.0002
                                           -0.0001 -0.0000  0.0155 -0.0007  0.0009
                                            0.0075  0.0104
                ( 50.64%)  -0.7116* C   3 s( 36.06%)p 1.77( 63.90%)d 0.00(  0.04%)
                                           -0.0001 -0.6005  0.0059 -0.0061 -0.0009
                                            0.4237 -0.0307 -0.0040  0.0012 -0.6770
                                           -0.0019  0.0122 -0.0003  0.0089 -0.0016
                                           -0.0000  0.0000  0.0137 -0.0000  0.0003
                                            0.0097  0.0116
   198. (0.02441) BD*( 1) C   2 - C   7  
                ( 49.36%)   0.7026* C   2 s( 34.38%)p 1.91( 65.58%)d 0.00(  0.04%)
                                           -0.0000 -0.5864  0.0017 -0.0035  0.0002
                                           -0.3945 -0.0161  0.0061  0.0007 -0.7067
                                            0.0160  0.0059 -0.0013 -0.0053 -0.0002
                                           -0.0001 -0.0000 -0.0155 -0.0006 -0.0009
                                            0.0075  0.0104
                ( 50.64%)  -0.7116* C   7 s( 36.06%)p 1.77( 63.90%)d 0.00(  0.04%)
                                           -0.0001 -0.6005  0.0059 -0.0061 -0.0009
                                            0.4237 -0.0307 -0.0040  0.0012  0.6770
                                            0.0019 -0.0122  0.0003  0.0092 -0.0016
                                           -0.0000  0.0000 -0.0137 -0.0001 -0.0003
                                            0.0097  0.0116
   199. (0.34591) BD*( 2) C   2 - C   7  
                ( 51.17%)   0.7154* C   2 s(  0.01%)p99.99( 99.95%)d 3.78(  0.04%)
                                           -0.0001 -0.0103 -0.0014 -0.0004 -0.0000
                                            0.0007 -0.0008  0.0000 -0.0002  0.0005
                                           -0.0012  0.0005 -0.0002  0.9995  0.0095
                                            0.0184  0.0028 -0.0002  0.0174  0.0101
                                            0.0000  0.0004
                ( 48.83%)  -0.6988* C   7 s(  0.00%)p 1.00( 99.96%)d 0.00(  0.04%)
                                            0.0000  0.0009 -0.0009 -0.0010  0.0001
                                           -0.0050  0.0009  0.0005  0.0004 -0.0095
                                           -0.0002  0.0012 -0.0005  0.9995  0.0136
                                            0.0175 -0.0012  0.0001  0.0010 -0.0201
                                            0.0002 -0.0004
   200. (0.01548) BD*( 1) C   3 - C   4  
                ( 49.83%)   0.7059* C   3 s( 35.57%)p 1.81( 64.38%)d 0.00(  0.04%)
                                            0.0000 -0.5961  0.0183  0.0042  0.0002
                                           -0.8007  0.0189  0.0092 -0.0010  0.0269
                                           -0.0396  0.0042  0.0007 -0.0041  0.0007
                                            0.0000 -0.0001 -0.0025 -0.0002  0.0002
                                           -0.0172  0.0119
                ( 50.17%)  -0.7083* C   4 s( 35.84%)p 1.79( 64.12%)d 0.00(  0.04%)
                                           -0.0000 -0.5985  0.0135  0.0013  0.0000
                                            0.7989 -0.0201  0.0118  0.0009  0.0276
                                           -0.0411 -0.0042  0.0003  0.0023 -0.0001
                                            0.0000 -0.0000  0.0022 -0.0001  0.0000
                                           -0.0166  0.0120
   201. (0.33430) BD*( 2) C   3 - C   4  
                ( 49.31%)   0.7022* C   3 s(  0.00%)p 1.00( 99.96%)d 0.00(  0.04%)
                                            0.0000 -0.0001 -0.0007  0.0006 -0.0002
                                            0.0050 -0.0001 -0.0001 -0.0004 -0.0098
                                           -0.0008  0.0008 -0.0005 -0.9995 -0.0149
                                           -0.0180  0.0023  0.0002 -0.0167 -0.0104
                                           -0.0001  0.0003
                ( 50.69%)  -0.7120* C   4 s(  0.00%)p 1.00( 99.96%)d 0.00(  0.04%)
                                            0.0000  0.0008  0.0002  0.0002  0.0001
                                            0.0036 -0.0001  0.0002  0.0001 -0.0055
                                            0.0002  0.0000  0.0002 -0.9995 -0.0184
                                            0.0171  0.0016  0.0002  0.0175 -0.0105
                                           -0.0000  0.0002
   202. (0.01433) BD*( 1) C   3 - H  11  
                ( 39.84%)   0.6312* C   3 s( 28.37%)p 2.52( 71.59%)d 0.00(  0.04%)
                                           -0.0004  0.5322  0.0204 -0.0015 -0.0006
                                           -0.4203 -0.0129 -0.0003 -0.0001 -0.7341
                                           -0.0108  0.0011 -0.0014  0.0050  0.0001
                                           -0.0002 -0.0001  0.0161 -0.0002  0.0002
                                           -0.0100 -0.0086
                ( 60.16%)  -0.7756* H  11 s( 99.95%)p 0.00(  0.05%)
                                            0.9998  0.0018  0.0011  0.0001  0.0099
                                            0.0192 -0.0004
   203. (0.01635) BD*( 1) C   4 - C   5  
                ( 49.96%)   0.7068* C   4 s( 35.86%)p 1.79( 64.10%)d 0.00(  0.04%)
                                           -0.0000 -0.5987  0.0145  0.0003  0.0001
                                           -0.4243  0.0447 -0.0017 -0.0008 -0.6774
                                           -0.0017 -0.0105 -0.0005  0.0017  0.0002
                                            0.0000 -0.0001 -0.0136  0.0000  0.0001
                                            0.0102  0.0120
                ( 50.04%)  -0.7074* C   5 s( 35.80%)p 1.79( 64.15%)d 0.00(  0.04%)
                                           -0.0000 -0.5982  0.0134  0.0006  0.0001
                                            0.3757  0.0234 -0.0086  0.0001  0.7059
                                           -0.0382 -0.0065  0.0010  0.0021  0.0001
                                           -0.0000 -0.0000 -0.0158 -0.0001 -0.0001
                                            0.0066  0.0121
   204. (0.01361) BD*( 1) C   4 - H  12  
                ( 39.77%)   0.6306* C   4 s( 28.31%)p 2.53( 71.64%)d 0.00(  0.04%)
                                           -0.0004  0.5316  0.0239  0.0014  0.0001
                                            0.4224  0.0087 -0.0001  0.0008 -0.7332
                                           -0.0168  0.0009 -0.0015  0.0060  0.0001
                                           -0.0001 -0.0000 -0.0167  0.0001 -0.0002
                                           -0.0096 -0.0084
                ( 60.23%)  -0.7761* H  12 s( 99.95%)p 0.00(  0.05%)
                                            0.9998  0.0014  0.0010  0.0001 -0.0109
                                            0.0190 -0.0001
   205. (0.01635) BD*( 1) C   5 - C   6  
                ( 50.04%)   0.7074* C   5 s( 35.80%)p 1.79( 64.15%)d 0.00(  0.04%)
                                            0.0000  0.5982 -0.0134 -0.0006 -0.0001
                                           -0.3757 -0.0234  0.0086 -0.0001  0.7059
                                           -0.0382 -0.0065  0.0010 -0.0015 -0.0001
                                            0.0000  0.0000 -0.0158  0.0001 -0.0001
                                           -0.0066 -0.0121
                ( 49.96%)  -0.7068* C   6 s( 35.86%)p 1.79( 64.10%)d 0.00(  0.04%)
                                            0.0000  0.5987 -0.0145 -0.0003 -0.0001
                                            0.4243 -0.0447  0.0017  0.0008 -0.6774
                                           -0.0017 -0.0105 -0.0005 -0.0011 -0.0002
                                           -0.0000  0.0001 -0.0136 -0.0000  0.0001
                                           -0.0102 -0.0120
   206. (0.33879) BD*( 2) C   5 - C   6  
                ( 49.28%)   0.7020* C   5 s(  0.00%)p 1.00( 99.96%)d 0.00(  0.04%)
                                            0.0000 -0.0002 -0.0004 -0.0005 -0.0002
                                            0.0045  0.0003  0.0005  0.0000  0.0004
                                            0.0000  0.0001  0.0000 -0.9995 -0.0185
                                           -0.0148  0.0020  0.0001  0.0179 -0.0091
                                           -0.0001  0.0001
                ( 50.72%)  -0.7122* C   6 s(  0.00%)p 1.00( 99.96%)d 0.00(  0.04%)
                                            0.0000  0.0002 -0.0000 -0.0004  0.0000
                                            0.0035  0.0003 -0.0006  0.0001  0.0040
                                           -0.0002 -0.0002 -0.0002 -0.9995 -0.0166
                                            0.0152  0.0021 -0.0001  0.0003  0.0203
                                            0.0001  0.0000
   207. (0.01386) BD*( 1) C   5 - H  13  
                ( 39.74%)   0.6304* C   5 s( 28.40%)p 2.52( 71.55%)d 0.00(  0.04%)
                                            0.0004 -0.5325 -0.0232 -0.0013 -0.0002
                                           -0.8457 -0.0184 -0.0008 -0.0014  0.0000
                                            0.0000  0.0000  0.0000 -0.0037 -0.0001
                                           -0.0000 -0.0000  0.0000 -0.0002 -0.0000
                                           -0.0191  0.0083
                ( 60.26%)  -0.7763* H  13 s( 99.95%)p 0.00(  0.05%)
                                           -0.9998 -0.0015 -0.0010  0.0000  0.0217
                                            0.0000  0.0001
   208. (0.01548) BD*( 1) C   6 - C   7  
                ( 50.17%)   0.7083* C   6 s( 35.84%)p 1.79( 64.12%)d 0.00(  0.04%)
                                            0.0000  0.5985 -0.0135 -0.0013 -0.0000
                                           -0.7989  0.0201 -0.0118 -0.0009  0.0276
                                           -0.0411 -0.0042  0.0003 -0.0026  0.0001
                                           -0.0000  0.0000  0.0022  0.0001  0.0001
                                            0.0166 -0.0120
                ( 49.83%)  -0.7059* C   7 s( 35.57%)p 1.81( 64.38%)d 0.00(  0.04%)
                                           -0.0000  0.5961 -0.0183 -0.0042 -0.0002
                                            0.8007 -0.0189 -0.0092  0.0010  0.0269
                                           -0.0396  0.0042  0.0007  0.0037 -0.0007
                                           -0.0000  0.0001 -0.0025  0.0002  0.0002
                                            0.0172 -0.0119
   209. (0.01361) BD*( 1) C   6 - H  14  
                ( 39.77%)   0.6306* C   6 s( 28.31%)p 2.53( 71.64%)d 0.00(  0.04%)
                                            0.0004 -0.5316 -0.0239 -0.0014 -0.0001
                                           -0.4224 -0.0087  0.0001 -0.0008 -0.7332
                                           -0.0168  0.0009 -0.0015 -0.0045 -0.0001
                                            0.0000  0.0000 -0.0167 -0.0001 -0.0002
                                            0.0096  0.0084
                ( 60.23%)  -0.7761* H  14 s( 99.95%)p 0.00(  0.05%)
                                           -0.9998 -0.0014 -0.0010 -0.0001  0.0109
                                            0.0190  0.0001
   210. (0.01433) BD*( 1) C   7 - H  15  
                ( 39.84%)   0.6312* C   7 s( 28.37%)p 2.52( 71.59%)d 0.00(  0.04%)
                                            0.0004 -0.5322 -0.0204  0.0015  0.0006
                                            0.4203  0.0129  0.0003  0.0001 -0.7342
                                           -0.0108  0.0011 -0.0014 -0.0044 -0.0001
                                            0.0002  0.0001  0.0161  0.0002  0.0002
                                            0.0100  0.0086
                ( 60.16%)  -0.7756* H  15 s( 99.95%)p 0.00(  0.05%)
                                           -0.9998 -0.0018 -0.0011 -0.0001 -0.0099
                                            0.0192  0.0004


 NHO Directionality and "Bond Bending" (deviations from line of nuclear centers)

         [Thresholds for printing:  angular deviation  >  1.0 degree]
                                    hybrid p-character > 25.0%
                                    orbital occupancy  >  0.10e

                                Line of Centers        Hybrid 1              Hybrid 2
                                ---------------  -------------------   ------------------
                NBO               Theta   Phi    Theta   Phi    Dev    Theta   Phi    Dev
 ========================================================================================
     7. BD (   2) C   2 - C   7    89.4   59.5   180.0    0.0  90.6    179.5   70.5  89.9
     8. BD (   1) C   3 - C   4    89.8    0.0     --     --    --      90.2  178.7   1.3
     9. BD (   2) C   3 - C   4    89.8    0.0     0.6  113.1  90.0    179.6  306.6  90.0
    11. BD (   1) C   4 - C   5    90.0   60.0    90.1   61.0   1.1      --     --    --
    13. BD (   1) C   5 - C   6    90.0  120.0     --     --    --      90.1  299.0   1.1
    14. BD (   2) C   5 - C   6    90.0  120.0     0.3  186.6  89.9      0.3  225.9  89.9
    16. BD (   1) C   6 - C   7    90.2  180.0    90.2  181.3   1.3      --     --    --
   199. BD*(   2) C   2 - C   7    89.4   59.5   180.0    0.0  90.6    179.5   70.5  89.9
   201. BD*(   2) C   3 - C   4    89.8    0.0     0.6  113.1  90.0    179.6  306.6  90.0
   206. BD*(   2) C   5 - C   6    90.0  120.0     0.3  186.6  89.9      0.3  225.9  89.9


 Second Order Perturbation Theory Analysis of Fock Matrix in NBO Basis

     Threshold for printing:   0.50 kcal/mol
                                                                              E(2)  E(j)-E(i) F(i,j)
         Donor NBO (i)                     Acceptor NBO (j)                 kcal/mol   a.u.    a.u. 
 ===================================================================================================

 within unit  1
   1. BD (   1) C   1 - C   2        / 60. RY*(   1) C   3                    1.56    1.74    0.047
   1. BD (   1) C   1 - C   2        /128. RY*(   1) C   7                    1.56    1.73    0.047
   1. BD (   1) C   1 - C   2        /194. BD*(   1) C   1 - H   8            0.57    1.03    0.022
   1. BD (   1) C   1 - C   2        /195. BD*(   1) C   1 - H   9            0.52    1.03    0.021
   1. BD (   1) C   1 - C   2        /196. BD*(   1) C   1 - H  10            0.52    1.03    0.021
   1. BD (   1) C   1 - C   2        /197. BD*(   1) C   2 - C   3            1.87    1.21    0.043
   1. BD (   1) C   1 - C   2        /198. BD*(   1) C   2 - C   7            1.87    1.21    0.043
   1. BD (   1) C   1 - C   2        /200. BD*(   1) C   3 - C   4            2.47    1.21    0.049
   1. BD (   1) C   1 - C   2        /208. BD*(   1) C   6 - C   7            2.47    1.21    0.049
   2. BD (   1) C   1 - H   8        / 45. RY*(   3) C   2                    0.96    1.18    0.030
   2. BD (   1) C   1 - H   8        /197. BD*(   1) C   2 - C   3            0.55    1.08    0.022
   2. BD (   1) C   1 - H   8        /198. BD*(   1) C   2 - C   7            0.55    1.08    0.022
   2. BD (   1) C   1 - H   8        /199. BD*(   2) C   2 - C   7            4.60    0.54    0.049
   3. BD (   1) C   1 - H   9        /198. BD*(   1) C   2 - C   7            3.88    1.08    0.058
   3. BD (   1) C   1 - H   9        /199. BD*(   2) C   2 - C   7            1.05    0.54    0.023
   4. BD (   1) C   1 - H  10        /197. BD*(   1) C   2 - C   3            3.88    1.08    0.058
   4. BD (   1) C   1 - H  10        /199. BD*(   2) C   2 - C   7            0.88    0.54    0.021
   5. BD (   1) C   2 - C   3        / 26. RY*(   1) C   1                    0.92    1.29    0.031
   5. BD (   1) C   2 - C   3        / 77. RY*(   1) C   4                    1.16    1.77    0.041
   5. BD (   1) C   2 - C   3        / 78. RY*(   2) C   4                    1.45    1.97    0.048
   5. BD (   1) C   2 - C   3        /128. RY*(   1) C   7                    0.96    1.79    0.037
   5. BD (   1) C   2 - C   3        /129. RY*(   2) C   7                    0.52    1.80    0.028
   5. BD (   1) C   2 - C   3        /193. BD*(   1) C   1 - C   2            1.71    1.12    0.039
   5. BD (   1) C   2 - C   3        /196. BD*(   1) C   1 - H  10            0.64    1.09    0.024
   5. BD (   1) C   2 - C   3        /198. BD*(   1) C   2 - C   7            3.35    1.27    0.058
   5. BD (   1) C   2 - C   3        /200. BD*(   1) C   3 - C   4            3.06    1.27    0.056
   5. BD (   1) C   2 - C   3        /202. BD*(   1) C   3 - H  11            0.93    1.13    0.029
   5. BD (   1) C   2 - C   3        /204. BD*(   1) C   4 - H  12            2.17    1.13    0.044
   5. BD (   1) C   2 - C   3        /210. BD*(   1) C   7 - H  15            2.51    1.13    0.048
   6. BD (   1) C   2 - C   7        / 26. RY*(   1) C   1                    0.92    1.29    0.031
   6. BD (   1) C   2 - C   7        / 60. RY*(   1) C   3                    0.96    1.79    0.037
   6. BD (   1) C   2 - C   7        / 61. RY*(   2) C   3                    0.53    1.80    0.028
   6. BD (   1) C   2 - C   7        /111. RY*(   1) C   6                    1.16    1.77    0.041
   6. BD (   1) C   2 - C   7        /112. RY*(   2) C   6                    1.45    1.97    0.048
   6. BD (   1) C   2 - C   7        /193. BD*(   1) C   1 - C   2            1.71    1.12    0.039
   6. BD (   1) C   2 - C   7        /195. BD*(   1) C   1 - H   9            0.64    1.09    0.024
   6. BD (   1) C   2 - C   7        /197. BD*(   1) C   2 - C   3            3.35    1.27    0.058
   6. BD (   1) C   2 - C   7        /202. BD*(   1) C   3 - H  11            2.51    1.13    0.048
   6. BD (   1) C   2 - C   7        /208. BD*(   1) C   6 - C   7            3.06    1.27    0.056
   6. BD (   1) C   2 - C   7        /209. BD*(   1) C   6 - H  14            2.17    1.13    0.044
   6. BD (   1) C   2 - C   7        /210. BD*(   1) C   7 - H  15            0.93    1.13    0.029
   7. BD (   2) C   2 - C   7        / 27. RY*(   2) C   1                    0.71    1.27    0.030
   7. BD (   2) C   2 - C   7        / 62. RY*(   3) C   3                    1.47    0.72    0.032
   7. BD (   2) C   2 - C   7        /114. RY*(   4) C   6                    0.82    1.75    0.037
   7. BD (   2) C   2 - C   7        /194. BD*(   1) C   1 - H   8            3.15    0.64    0.044
   7. BD (   2) C   2 - C   7        /195. BD*(   1) C   1 - H   9            1.07    0.64    0.026
   7. BD (   2) C   2 - C   7        /196. BD*(   1) C   1 - H  10            0.52    0.64    0.018
   7. BD (   2) C   2 - C   7        /201. BD*(   2) C   3 - C   4           19.31    0.28    0.066
   7. BD (   2) C   2 - C   7        /206. BD*(   2) C   5 - C   6           21.77    0.28    0.070
   8. BD (   1) C   3 - C   4        / 43. RY*(   1) C   2                    1.07    1.96    0.041
   8. BD (   1) C   3 - C   4        / 44. RY*(   2) C   2                    1.48    1.85    0.047
   8. BD (   1) C   3 - C   4        / 94. RY*(   1) C   5                    0.89    1.80    0.036
   8. BD (   1) C   3 - C   4        / 95. RY*(   2) C   5                    1.42    1.97    0.047
   8. BD (   1) C   3 - C   4        /193. BD*(   1) C   1 - C   2            3.69    1.12    0.058
   8. BD (   1) C   3 - C   4        /197. BD*(   1) C   2 - C   3            3.29    1.27    0.058
   8. BD (   1) C   3 - C   4        /202. BD*(   1) C   3 - H  11            0.93    1.13    0.029
   8. BD (   1) C   3 - C   4        /203. BD*(   1) C   4 - C   5            2.70    1.28    0.052
   8. BD (   1) C   3 - C   4        /204. BD*(   1) C   4 - H  12            0.90    1.14    0.029
   8. BD (   1) C   3 - C   4        /207. BD*(   1) C   5 - H  13            2.40    1.14    0.047
   9. BD (   2) C   3 - C   4        / 96. RY*(   3) C   5                    1.20    0.73    0.029
   9. BD (   2) C   3 - C   4        /199. BD*(   2) C   2 - C   7           21.55    0.29    0.070
   9. BD (   2) C   3 - C   4        /206. BD*(   2) C   5 - C   6           19.68    0.28    0.067
  10. BD (   1) C   3 - H  11        / 43. RY*(   1) C   2                    1.84    1.78    0.051
  10. BD (   1) C   3 - H  11        / 77. RY*(   1) C   4                    1.37    1.59    0.042
  10. BD (   1) C   3 - H  11        /197. BD*(   1) C   2 - C   3            0.85    1.10    0.027
  10. BD (   1) C   3 - H  11        /198. BD*(   1) C   2 - C   7            4.47    1.10    0.063
  10. BD (   1) C   3 - H  11        /200. BD*(   1) C   3 - C   4            0.59    1.09    0.023
  10. BD (   1) C   3 - H  11        /203. BD*(   1) C   4 - C   5            3.68    1.10    0.057
  10. BD (   1) C   3 - H  11        /204. BD*(   1) C   4 - H  12            0.51    0.96    0.020
  11. BD (   1) C   4 - C   5        / 60. RY*(   1) C   3                    0.62    1.80    0.030
  11. BD (   1) C   4 - C   5        / 61. RY*(   2) C   3                    1.89    1.81    0.052
  11. BD (   1) C   4 - C   5        /111. RY*(   1) C   6                    0.92    1.77    0.036
  11. BD (   1) C   4 - C   5        /112. RY*(   2) C   6                    1.48    1.97    0.048
  11. BD (   1) C   4 - C   5        /200. BD*(   1) C   3 - C   4            2.71    1.28    0.053
  11. BD (   1) C   4 - C   5        /202. BD*(   1) C   3 - H  11            2.43    1.13    0.047
  11. BD (   1) C   4 - C   5        /204. BD*(   1) C   4 - H  12            0.91    1.14    0.029
  11. BD (   1) C   4 - C   5        /205. BD*(   1) C   5 - C   6            2.77    1.28    0.053
  11. BD (   1) C   4 - C   5        /207. BD*(   1) C   5 - H  13            0.93    1.14    0.029
  11. BD (   1) C   4 - C   5        /209. BD*(   1) C   6 - H  14            2.41    1.14    0.047
  12. BD (   1) C   4 - H  12        / 60. RY*(   1) C   3                    1.37    1.62    0.042
  12. BD (   1) C   4 - H  12        / 94. RY*(   1) C   5                    1.44    1.63    0.043
  12. BD (   1) C   4 - H  12        /197. BD*(   1) C   2 - C   3            3.59    1.10    0.056
  12. BD (   1) C   4 - H  12        /200. BD*(   1) C   3 - C   4            0.55    1.10    0.022
  12. BD (   1) C   4 - H  12        /203. BD*(   1) C   4 - C   5            0.57    1.10    0.022
  12. BD (   1) C   4 - H  12        /205. BD*(   1) C   5 - C   6            3.75    1.10    0.057
  12. BD (   1) C   4 - H  12        /207. BD*(   1) C   5 - H  13            0.52    0.96    0.020
  13. BD (   1) C   5 - C   6        / 77. RY*(   1) C   4                    0.92    1.77    0.036
  13. BD (   1) C   5 - C   6        / 78. RY*(   2) C   4                    1.48    1.97    0.048
  13. BD (   1) C   5 - C   6        /128. RY*(   1) C   7                    0.62    1.80    0.030
  13. BD (   1) C   5 - C   6        /129. RY*(   2) C   7                    1.89    1.81    0.052
  13. BD (   1) C   5 - C   6        /203. BD*(   1) C   4 - C   5            2.77    1.28    0.053
  13. BD (   1) C   5 - C   6        /204. BD*(   1) C   4 - H  12            2.41    1.14    0.047
  13. BD (   1) C   5 - C   6        /207. BD*(   1) C   5 - H  13            0.93    1.14    0.029
  13. BD (   1) C   5 - C   6        /208. BD*(   1) C   6 - C   7            2.71    1.28    0.053
  13. BD (   1) C   5 - C   6        /209. BD*(   1) C   6 - H  14            0.91    1.14    0.029
  13. BD (   1) C   5 - C   6        /210. BD*(   1) C   7 - H  15            2.43    1.13    0.047
  14. BD (   2) C   5 - C   6        / 79. RY*(   3) C   4                    1.69    0.72    0.034
  14. BD (   2) C   5 - C   6        /130. RY*(   3) C   7                    0.91    0.77    0.026
  14. BD (   2) C   5 - C   6        /131. RY*(   4) C   7                    0.55    1.80    0.031
  14. BD (   2) C   5 - C   6        /199. BD*(   2) C   2 - C   7           18.90    0.29    0.066
  14. BD (   2) C   5 - C   6        /201. BD*(   2) C   3 - C   4           21.14    0.28    0.069
  15. BD (   1) C   5 - H  13        / 77. RY*(   1) C   4                    1.46    1.59    0.043
  15. BD (   1) C   5 - H  13        /111. RY*(   1) C   6                    1.46    1.59    0.043
  15. BD (   1) C   5 - H  13        /200. BD*(   1) C   3 - C   4            3.78    1.09    0.057
  15. BD (   1) C   5 - H  13        /203. BD*(   1) C   4 - C   5            0.58    1.10    0.023
  15. BD (   1) C   5 - H  13        /204. BD*(   1) C   4 - H  12            0.51    0.96    0.020
  15. BD (   1) C   5 - H  13        /205. BD*(   1) C   5 - C   6            0.58    1.10    0.023
  15. BD (   1) C   5 - H  13        /208. BD*(   1) C   6 - C   7            3.78    1.09    0.057
  15. BD (   1) C   5 - H  13        /209. BD*(   1) C   6 - H  14            0.51    0.96    0.020
  16. BD (   1) C   6 - C   7        / 43. RY*(   1) C   2                    1.07    1.96    0.041
  16. BD (   1) C   6 - C   7        / 44. RY*(   2) C   2                    1.48    1.85    0.047
  16. BD (   1) C   6 - C   7        / 94. RY*(   1) C   5                    0.89    1.80    0.036
  16. BD (   1) C   6 - C   7        / 95. RY*(   2) C   5                    1.42    1.97    0.047
  16. BD (   1) C   6 - C   7        /193. BD*(   1) C   1 - C   2            3.69    1.12    0.058
  16. BD (   1) C   6 - C   7        /198. BD*(   1) C   2 - C   7            3.29    1.27    0.058
  16. BD (   1) C   6 - C   7        /205. BD*(   1) C   5 - C   6            2.70    1.28    0.052
  16. BD (   1) C   6 - C   7        /207. BD*(   1) C   5 - H  13            2.40    1.14    0.047
  16. BD (   1) C   6 - C   7        /209. BD*(   1) C   6 - H  14            0.90    1.14    0.029
  16. BD (   1) C   6 - C   7        /210. BD*(   1) C   7 - H  15            0.93    1.13    0.029
  17. BD (   1) C   6 - H  14        / 94. RY*(   1) C   5                    1.44    1.63    0.043
  17. BD (   1) C   6 - H  14        /128. RY*(   1) C   7                    1.37    1.62    0.042
  17. BD (   1) C   6 - H  14        /198. BD*(   1) C   2 - C   7            3.59    1.10    0.056
  17. BD (   1) C   6 - H  14        /203. BD*(   1) C   4 - C   5            3.75    1.10    0.057
  17. BD (   1) C   6 - H  14        /205. BD*(   1) C   5 - C   6            0.57    1.10    0.022
  17. BD (   1) C   6 - H  14        /207. BD*(   1) C   5 - H  13            0.52    0.96    0.020
  17. BD (   1) C   6 - H  14        /208. BD*(   1) C   6 - C   7            0.55    1.10    0.022
  18. BD (   1) C   7 - H  15        / 43. RY*(   1) C   2                    1.84    1.78    0.051
  18. BD (   1) C   7 - H  15        /111. RY*(   1) C   6                    1.37    1.59    0.042
  18. BD (   1) C   7 - H  15        /197. BD*(   1) C   2 - C   3            4.47    1.10    0.063
  18. BD (   1) C   7 - H  15        /198. BD*(   1) C   2 - C   7            0.85    1.10    0.027
  18. BD (   1) C   7 - H  15        /205. BD*(   1) C   5 - C   6            3.68    1.10    0.057
  18. BD (   1) C   7 - H  15        /208. BD*(   1) C   6 - C   7            0.59    1.09    0.023
  18. BD (   1) C   7 - H  15        /209. BD*(   1) C   6 - H  14            0.51    0.96    0.020
  19. CR (   1) C   1                / 43. RY*(   1) C   2                    1.08   11.30    0.099
  19. CR (   1) C   1                / 48. RY*(   6) C   2                    0.52   10.78    0.067
  19. CR (   1) C   1                /197. BD*(   1) C   2 - C   3            0.62   10.61    0.073
  19. CR (   1) C   1                /198. BD*(   1) C   2 - C   7            0.62   10.61    0.073
  20. CR (   1) C   2                / 28. RY*(   3) C   1                    0.78   10.64    0.081
  20. CR (   1) C   2                / 61. RY*(   2) C   3                    1.55   11.15    0.117
  20. CR (   1) C   2                /129. RY*(   2) C   7                    1.55   11.15    0.117
  20. CR (   1) C   2                /200. BD*(   1) C   3 - C   4            0.70   10.62    0.077
  20. CR (   1) C   2                /208. BD*(   1) C   6 - C   7            0.70   10.62    0.077
  21. CR (   1) C   3                / 43. RY*(   1) C   2                    0.56   11.30    0.071
  21. CR (   1) C   3                / 44. RY*(   2) C   2                    1.76   11.19    0.125
  21. CR (   1) C   3                / 78. RY*(   2) C   4                    1.62   11.30    0.121
  21. CR (   1) C   3                /193. BD*(   1) C   1 - C   2            0.85   10.46    0.084
  21. CR (   1) C   3                /198. BD*(   1) C   2 - C   7            0.83   10.61    0.084
  21. CR (   1) C   3                /203. BD*(   1) C   4 - C   5            0.72   10.61    0.078
  22. CR (   1) C   4                / 61. RY*(   2) C   3                    1.12   11.14    0.100
  22. CR (   1) C   4                / 64. RY*(   5) C   3                    0.55   11.11    0.070
  22. CR (   1) C   4                / 95. RY*(   2) C   5                    1.52   11.31    0.117
  22. CR (   1) C   4                /197. BD*(   1) C   2 - C   3            0.71   10.61    0.078
  22. CR (   1) C   4                /205. BD*(   1) C   5 - C   6            0.71   10.61    0.078
  23. CR (   1) C   5                / 78. RY*(   2) C   4                    1.38   11.30    0.112
  23. CR (   1) C   5                / 81. RY*(   5) C   4                    0.53   11.01    0.068
  23. CR (   1) C   5                /112. RY*(   2) C   6                    1.38   11.30    0.112
  23. CR (   1) C   5                /115. RY*(   5) C   6                    0.53   11.01    0.068
  23. CR (   1) C   5                /200. BD*(   1) C   3 - C   4            0.72   10.61    0.078
  23. CR (   1) C   5                /208. BD*(   1) C   6 - C   7            0.72   10.61    0.078
  24. CR (   1) C   6                / 95. RY*(   2) C   5                    1.52   11.31    0.117
  24. CR (   1) C   6                /129. RY*(   2) C   7                    1.12   11.14    0.100
  24. CR (   1) C   6                /132. RY*(   5) C   7                    0.58   11.08    0.072
  24. CR (   1) C   6                /198. BD*(   1) C   2 - C   7            0.71   10.61    0.078
  24. CR (   1) C   6                /203. BD*(   1) C   4 - C   5            0.71   10.61    0.078
  25. CR (   1) C   7                / 43. RY*(   1) C   2                    0.56   11.30    0.071
  25. CR (   1) C   7                / 44. RY*(   2) C   2                    1.76   11.19    0.125
  25. CR (   1) C   7                /112. RY*(   2) C   6                    1.62   11.30    0.121
  25. CR (   1) C   7                /193. BD*(   1) C   1 - C   2            0.85   10.46    0.084
  25. CR (   1) C   7                /197. BD*(   1) C   2 - C   3            0.83   10.61    0.084
  25. CR (   1) C   7                /205. BD*(   1) C   5 - C   6            0.72   10.61    0.078
 199. BD*(   2) C   2 - C   7        / 62. RY*(   3) C   3                    0.58    0.43    0.034
 199. BD*(   2) C   2 - C   7        /130. RY*(   3) C   7                    3.40    0.48    0.087
 199. BD*(   2) C   2 - C   7        /138. RY*(  11) C   7                    0.56    0.40    0.032
 199. BD*(   2) C   2 - C   7        /194. BD*(   1) C   1 - H   8            1.65    0.36    0.052
 199. BD*(   2) C   2 - C   7        /196. BD*(   1) C   1 - H  10            0.63    0.36    0.032
 201. BD*(   2) C   3 - C   4        / 62. RY*(   3) C   3                    2.83    0.44    0.077
 201. BD*(   2) C   3 - C   4        / 70. RY*(  11) C   3                    0.50    0.40    0.031
 201. BD*(   2) C   3 - C   4        / 79. RY*(   3) C   4                    2.25    0.44    0.069
 201. BD*(   2) C   3 - C   4        / 87. RY*(  11) C   4                    0.56    0.39    0.033
 206. BD*(   2) C   5 - C   6        / 79. RY*(   3) C   4                    0.51    0.44    0.032
 206. BD*(   2) C   5 - C   6        / 96. RY*(   3) C   5                    3.09    0.45    0.081
 206. BD*(   2) C   5 - C   6        /104. RY*(  11) C   5                    0.53    0.35    0.030
 206. BD*(   2) C   5 - C   6        /113. RY*(   3) C   6                    2.58    0.60    0.085
 206. BD*(   2) C   5 - C   6        /121. RY*(  11) C   6                    0.78    0.39    0.038


 Natural Bond Orbitals (Summary):

                                                            Principal Delocalizations
           NBO                        Occupancy    Energy   (geminal,vicinal,remote)
 ====================================================================================
 Molecular unit  1  (C7H8)
     1. BD (   1) C   1 - C   2          1.98236    -0.62950  200(v),208(v),197(g),198(g)
                                                    60(v),128(v),194(g),195(g)
                                                    196(g)
     2. BD (   1) C   1 - H   8          1.97530    -0.49949  199(v),45(v),198(v),197(v)
     3. BD (   1) C   1 - H   9          1.98635    -0.49956  198(v),199(v)
     4. BD (   1) C   1 - H  10          1.98635    -0.49956  197(v),199(v)
     5. BD (   1) C   2 - C   3          1.97392    -0.68901  198(g),200(g),210(v),204(v)
                                                    193(g),78(v),77(v),128(v)
                                                    26(v),202(g),196(v),129(v)
     6. BD (   1) C   2 - C   7          1.97392    -0.68901  197(g),208(g),202(v),209(v)
                                                    193(g),112(v),111(v),60(v)
                                                    26(v),210(g),195(v),61(v)
     7. BD (   2) C   2 - C   7          1.64772    -0.24401  206(v),201(v),194(v),62(v)
                                                    195(v),114(v),27(v),196(v)
     8. BD (   1) C   3 - C   4          1.97846    -0.69095  193(v),197(g),203(g),207(v)
                                                    44(v),95(v),43(v),202(g)
                                                    204(g),94(v)
     9. BD (   2) C   3 - C   4          1.67140    -0.24703  199(v),206(v),96(v)
    10. BD (   1) C   3 - H  11          1.98014    -0.51219  198(v),203(v),43(v),77(v)
                                                    197(g),200(g),204(v)
    11. BD (   1) C   4 - C   5          1.97944    -0.69373  205(g),200(g),202(v),209(v)
                                                    61(v),112(v),207(g),111(v)
                                                    204(g),60(v)
    12. BD (   1) C   4 - H  12          1.98072    -0.51307  205(v),197(v),94(v),60(v)
                                                    203(g),200(g),207(v)
    13. BD (   1) C   5 - C   6          1.97944    -0.69373  203(g),208(g),210(v),204(v)
                                                    129(v),78(v),207(g),77(v)
                                                    209(g),128(v)
    14. BD (   2) C   5 - C   6          1.66738    -0.24707  201(v),199(v),79(v),130(v)
                                                    131(v)
    15. BD (   1) C   5 - H  13          1.98017    -0.51155  200(v),208(v),77(v),111(v)
                                                    203(g),205(g),204(v),209(v)
    16. BD (   1) C   6 - C   7          1.97846    -0.69095  193(v),198(g),205(g),207(v)
                                                    44(v),95(v),43(v),210(g)
                                                    209(g),94(v)
    17. BD (   1) C   6 - H  14          1.98072    -0.51307  203(v),198(v),94(v),128(v)
                                                    205(g),208(g),207(v)
    18. BD (   1) C   7 - H  15          1.98014    -0.51219  197(v),205(v),43(v),111(v)
                                                    198(g),208(g),209(v)
    19. CR (   1) C   1                  1.99928   -10.02364  43(v),197(v),198(v),48(v)
    20. CR (   1) C   2                  1.99906   -10.03787  129(v),61(v),28(v),200(v)
                                                    208(v)
    21. CR (   1) C   3                  1.99905   -10.02487  44(v),78(v),193(v),198(v)
                                                    203(v),43(v)
    22. CR (   1) C   4                  1.99916   -10.02950  95(v),61(v),197(v),205(v)
                                                    64(v)
    23. CR (   1) C   5                  1.99915   -10.02698  78(v),112(v),200(v),208(v)
                                                    81(v),115(v)
    24. CR (   1) C   6                  1.99916   -10.02950  95(v),129(v),198(v),203(v)
                                                    132(v)
    25. CR (   1) C   7                  1.99905   -10.02487  44(v),112(v),193(v),197(v)
                                                    205(v),43(v)
    26. RY*(   1) C   1                  0.00373     0.60180   
    27. RY*(   2) C   1                  0.00087     1.03007   
    28. RY*(   3) C   1                  0.00040     0.60038   
    29. RY*(   4) C   1                  0.00021     2.21166   
    30. RY*(   5) C   1                  0.00009     0.54564   
    31. RY*(   6) C   1                  0.00008     1.59608   
    32. RY*(   7) C   1                  0.00002     1.37144   
    33. RY*(   8) C   1                  0.00001     1.92032   
    34. RY*(   9) C   1                  0.00000     3.07201   
    35. RY*(  10) C   1                  0.00000     1.55710   
    36. RY*(  11) C   1                  0.00000     0.40149   
    37. RY*(  12) C   1                  0.00000     2.95535   
    38. RY*(  13) C   1                  0.00000     1.82215   
    39. RY*(  14) C   1                  0.00000     0.95364   
    40. RY*(  15) C   1                  0.00001     2.01643   
    41. RY*(  16) C   1                  0.00000     1.06143   
    42. RY*(  17) C   1                  0.00000    23.13183   
    43. RY*(   1) C   2                  0.00671     1.27220   
    44. RY*(   2) C   2                  0.00280     1.16056   
    45. RY*(   3) C   2                  0.00158     0.67942   
    46. RY*(   4) C   2                  0.00063     1.68215   
    47. RY*(   5) C   2                  0.00040     2.01723   
    48. RY*(   6) C   2                  0.00039     0.76024   
    49. RY*(   7) C   2                  0.00027     1.38573   
    50. RY*(   8) C   2                  0.00015     2.59284   
    51. RY*(   9) C   2                  0.00010     3.26544   
    52. RY*(  10) C   2                  0.00008     2.00647   
    53. RY*(  11) C   2                  0.00007     2.15787   
    54. RY*(  12) C   2                  0.00003     1.99112   
    55. RY*(  13) C   2                  0.00001     1.47329   
    56. RY*(  14) C   2                  0.00000     1.29089   
    57. RY*(  15) C   2                  0.00000     0.76996   
    58. RY*(  16) C   2                  0.00000     2.50790   
    59. RY*(  17) C   2                  0.00000    21.42980   
    60. RY*(   1) C   3                  0.00598     1.10550   
    61. RY*(   2) C   3                  0.00218     1.11253   
    62. RY*(   3) C   3                  0.00089     0.47425   
    63. RY*(   4) C   3                  0.00060     1.58304   
    64. RY*(   5) C   3                  0.00048     1.07666   
    65. RY*(   6) C   3                  0.00019     1.49872   
    66. RY*(   7) C   3                  0.00011     2.48735   
    67. RY*(   8) C   3                  0.00011     2.93764   
    68. RY*(   9) C   3                  0.00004     1.51941   
    69. RY*(  10) C   3                  0.00005     1.97457   
    70. RY*(  11) C   3                  0.00000     0.43461   
    71. RY*(  12) C   3                  0.00001     1.71458   
    72. RY*(  13) C   3                  0.00000    20.67989   
    73. RY*(  14) C   3                  0.00001     2.60250   
    74. RY*(  15) C   3                  0.00000     2.69936   
    75. RY*(  16) C   3                  0.00000     2.64575   
    76. RY*(  17) C   3                  0.00001     1.11783   
    77. RY*(   1) C   4                  0.00636     1.07786   
    78. RY*(   2) C   4                  0.00229     1.27774   
    79. RY*(   3) C   4                  0.00078     0.47543   
    80. RY*(   4) C   4                  0.00062     1.66045   
    81. RY*(   5) C   4                  0.00042     0.98439   
    82. RY*(   6) C   4                  0.00025     1.03412   
    83. RY*(   7) C   4                  0.00011     2.50753   
    84. RY*(   8) C   4                  0.00008     2.58254   
    85. RY*(   9) C   4                  0.00004     1.89260   
    86. RY*(  10) C   4                  0.00002     1.81463   
    87. RY*(  11) C   4                  0.00000     0.42648   
    88. RY*(  12) C   4                  0.00000     2.75180   
    89. RY*(  13) C   4                  0.00001     1.64549   
    90. RY*(  14) C   4                  0.00000    21.62458   
    91. RY*(  15) C   4                  0.00000     1.48899   
    92. RY*(  16) C   4                  0.00000     2.56706   
    93. RY*(  17) C   4                  0.00000     1.56841   
    94. RY*(   1) C   5                  0.00607     1.11350   
    95. RY*(   2) C   5                  0.00216     1.28250   
    96. RY*(   3) C   5                  0.00096     0.48547   
    97. RY*(   4) C   5                  0.00056     1.66471   
    98. RY*(   5) C   5                  0.00039     0.83551   
    99. RY*(   6) C   5                  0.00029     1.19294   
   100. RY*(   7) C   5                  0.00012     2.54253   
   101. RY*(   8) C   5                  0.00007     2.99754   
   102. RY*(   9) C   5                  0.00003     0.78218   
   103. RY*(  10) C   5                  0.00003     1.87997   
   104. RY*(  11) C   5                  0.00000     0.38559   
   105. RY*(  12) C   5                  0.00000     2.75889   
   106. RY*(  13) C   5                  0.00000     2.72652   
   107. RY*(  14) C   5                  0.00000     1.51218   
   108. RY*(  15) C   5                  0.00001     1.69678   
   109. RY*(  16) C   5                  0.00000    22.06008   
   110. RY*(  17) C   5                  0.00000     1.52279   
   111. RY*(   1) C   6                  0.00636     1.07786   
   112. RY*(   2) C   6                  0.00229     1.27777   
   113. RY*(   3) C   6                  0.00084     0.63432   
   114. RY*(   4) C   6                  0.00059     1.50126   
   115. RY*(   5) C   6                  0.00042     0.98447   
   116. RY*(   6) C   6                  0.00025     1.03427   
   117. RY*(   7) C   6                  0.00011     2.50774   
   118. RY*(   8) C   6                  0.00008     2.58256   
   119. RY*(   9) C   6                  0.00004     1.89254   
   120. RY*(  10) C   6                  0.00002     1.81454   
   121. RY*(  11) C   6                  0.00000     0.42654   
   122. RY*(  12) C   6                  0.00000     2.75236   
   123. RY*(  13) C   6                  0.00001     1.64630   
   124. RY*(  14) C   6                  0.00000    21.62433   
   125. RY*(  15) C   6                  0.00000     1.48828   
   126. RY*(  16) C   6                  0.00000     2.56661   
   127. RY*(  17) C   6                  0.00000     1.56821   
   128. RY*(   1) C   7                  0.00598     1.10548   
   129. RY*(   2) C   7                  0.00219     1.11244   
   130. RY*(   3) C   7                  0.00092     0.52388   
   131. RY*(   4) C   7                  0.00058     1.55763   
   132. RY*(   5) C   7                  0.00049     1.05055   
   133. RY*(   6) C   7                  0.00019     1.50160   
   134. RY*(   7) C   7                  0.00011     2.49013   
   135. RY*(   8) C   7                  0.00011     2.93464   
   136. RY*(   9) C   7                  0.00004     1.51905   
   137. RY*(  10) C   7                  0.00005     1.97356   
   138. RY*(  11) C   7                  0.00000     0.43478   
   139. RY*(  12) C   7                  0.00001     1.71740   
   140. RY*(  13) C   7                  0.00000    20.67792   
   141. RY*(  14) C   7                  0.00001     2.60337   
   142. RY*(  15) C   7                  0.00000     2.69892   
   143. RY*(  16) C   7                  0.00000     2.64571   
   144. RY*(  17) C   7                  0.00001     1.11696   
   145. RY*(   1) H   8                  0.00103     0.67988   
   146. RY*(   2) H   8                  0.00018     1.85770   
   147. RY*(   3) H   8                  0.00014     1.79385   
   148. RY*(   4) H   8                  0.00011     1.03163   
   149. RY*(   5) H   8                  0.00006     2.13712   
   150. RY*(   6) H   8                  0.00002     1.72943   
   151. RY*(   1) H   9                  0.00097     0.65756   
   152. RY*(   2) H   9                  0.00017     1.89209   
   153. RY*(   3) H   9                  0.00012     1.78590   
   154. RY*(   4) H   9                  0.00010     0.92079   
   155. RY*(   5) H   9                  0.00005     1.47201   
   156. RY*(   6) H   9                  0.00002     2.43360   
   157. RY*(   1) H  10                  0.00097     0.65756   
   158. RY*(   2) H  10                  0.00017     1.89209   
   159. RY*(   3) H  10                  0.00012     1.78590   
   160. RY*(   4) H  10                  0.00010     0.92079   
   161. RY*(   5) H  10                  0.00005     1.47201   
   162. RY*(   6) H  10                  0.00002     2.43360   
   163. RY*(   1) H  11                  0.00086     0.77268   
   164. RY*(   2) H  11                  0.00021     2.03345   
   165. RY*(   3) H  11                  0.00020     1.60140   
   166. RY*(   4) H  11                  0.00013     1.74524   
   167. RY*(   5) H  11                  0.00006     0.66382   
   168. RY*(   6) H  11                  0.00004     2.48929   
   169. RY*(   1) H  12                  0.00083     0.63602   
   170. RY*(   2) H  12                  0.00020     2.33549   
   171. RY*(   3) H  12                  0.00020     1.59538   
   172. RY*(   4) H  12                  0.00012     1.94828   
   173. RY*(   5) H  12                  0.00003     2.15605   
   174. RY*(   6) H  12                  0.00002     0.56866   
   175. RY*(   1) H  13                  0.00083     0.68843   
   176. RY*(   2) H  13                  0.00021     1.62484   
   177. RY*(   3) H  13                  0.00019     2.26412   
   178. RY*(   4) H  13                  0.00012     1.97335   
   179. RY*(   5) H  13                  0.00003     0.21600   
   180. RY*(   6) H  13                  0.00003     2.47604   
   181. RY*(   1) H  14                  0.00083     0.63602   
   182. RY*(   2) H  14                  0.00020     2.33549   
   183. RY*(   3) H  14                  0.00020     1.59538   
   184. RY*(   4) H  14                  0.00012     1.94828   
   185. RY*(   5) H  14                  0.00003     2.15605   
   186. RY*(   6) H  14                  0.00002     0.56866   
   187. RY*(   1) H  15                  0.00086     0.77269   
   188. RY*(   2) H  15                  0.00021     2.03345   
   189. RY*(   3) H  15                  0.00020     1.60140   
   190. RY*(   4) H  15                  0.00013     1.74524   
   191. RY*(   5) H  15                  0.00006     0.66382   
   192. RY*(   6) H  15                  0.00004     2.48929   
   193. BD*(   1) C   1 - C   2          0.01619     0.43286   
   194. BD*(   1) C   1 - H   8          0.01051     0.40090   
   195. BD*(   1) C   1 - H   9          0.00573     0.40026   
   196. BD*(   1) C   1 - H  10          0.00573     0.40026   
   197. BD*(   1) C   2 - C   3          0.02441     0.58339   
   198. BD*(   1) C   2 - C   7          0.02441     0.58339   
   199. BD*(   2) C   2 - C   7          0.34591     0.03943  206(v),201(v),130(g),194(v)
                                                    196(v),62(v),138(g)
   200. BD*(   1) C   3 - C   4          0.01548     0.58198   
   201. BD*(   2) C   3 - C   4          0.33430     0.03369  206(v),199(v),62(g),79(g)
                                                    87(g),70(g)
   202. BD*(   1) C   3 - H  11          0.01433     0.44012   
   203. BD*(   1) C   4 - C   5          0.01635     0.58468   
   204. BD*(   1) C   4 - H  12          0.01361     0.44503   
   205. BD*(   1) C   5 - C   6          0.01635     0.58468   
   206. BD*(   2) C   5 - C   6          0.33879     0.03449  201(v),199(v),96(g),113(g)
                                                    121(g),104(g),79(v)
   207. BD*(   1) C   5 - H  13          0.01386     0.44629   
   208. BD*(   1) C   6 - C   7          0.01548     0.58198   
   209. BD*(   1) C   6 - H  14          0.01361     0.44503   
   210. BD*(   1) C   7 - H  15          0.01433     0.44012   
       -------------------------------
              Total Lewis   48.67629  ( 97.3526%)
        Valence non-Lewis    1.23938  (  2.4788%)
        Rydberg non-Lewis    0.08432  (  0.1686%)
       -------------------------------
            Total unit  1   50.00000  (100.0000%)
           Charge unit  1    0.00000
 Calling FoFJK, ICntrl=      2127 FMM=F ISym2X=0 I1Cent= 0 IOpClX= 0 NMat=1 NMatS=1 NMatT=0.
 ***** Axes restored to original set *****
 -------------------------------------------------------------------
 Center     Atomic                   Forces (Hartrees/Bohr)
 Number     Number              X              Y              Z
 -------------------------------------------------------------------
      1        6           0.003682169   -0.000682741   -0.004698706
      2        6          -0.002009937    0.000331942    0.002185142
      3        6          -0.004737811   -0.001441624   -0.000869015
      4        6           0.001205689    0.000739851    0.000465145
      5        6          -0.003405302    0.000174795    0.000088430
      6        6           0.001134003   -0.000736740    0.000623504
      7        6          -0.004586691    0.001672009   -0.001202946
      8        1           0.003116386   -0.000236324   -0.000793432
      9        1           0.000679074   -0.000311942    0.002907156
     10        1           0.000735648    0.000853464    0.002782152
     11        1           0.000453418   -0.002201470   -0.000336638
     12        1           0.000745997   -0.001245060    0.000042034
     13        1           0.001466496   -0.000091344   -0.000188088
     14        1           0.000862212    0.001148525   -0.000214668
     15        1           0.000658649    0.002026660   -0.000790071
 -------------------------------------------------------------------
 Cartesian Forces:  Max     0.004737811 RMS     0.001866766

 GradGradGradGradGradGradGradGradGradGradGradGradGradGradGradGradGradGrad
 Berny optimization.
 FormGI is forming the generalized inverse of G from B-inverse, IUseBI=4.
 Internal  Forces:  Max     0.008223759 RMS     0.001644662
 Search for a local minimum.
 Step number   1 out of a maximum of   79
 All quantities printed in internal units (Hartrees-Bohrs-Radians)
 Mixed Optimization -- RFO/linear search
 Second derivative matrix not updated -- first step.
 ITU=  0
     Eigenvalues ---    0.00768   0.01558   0.02092   0.02111   0.02116
     Eigenvalues ---    0.02137   0.02155   0.02158   0.02166   0.02173
     Eigenvalues ---    0.07307   0.07328   0.16000   0.16000   0.16000
     Eigenvalues ---    0.16000   0.16000   0.16000   0.16000   0.16000
     Eigenvalues ---    0.21999   0.22000   0.23467   0.24971   0.32397
     Eigenvalues ---    0.34231   0.34231   0.34319   0.35097   0.35097
     Eigenvalues ---    0.35193   0.35193   0.35207   0.41883   0.42012
     Eigenvalues ---    0.45710   0.46190   0.46294   0.46626
 RFO step:  Lambda=-9.16626095D-04 EMin= 7.68409753D-03
 Linear search not attempted -- first point.
 Iteration  1 RMS(Cart)=  0.01602816 RMS(Int)=  0.00013024
 Iteration  2 RMS(Cart)=  0.00013717 RMS(Int)=  0.00007432
 Iteration  3 RMS(Cart)=  0.00000001 RMS(Int)=  0.00007432
 Variable       Old X    -DE/DX   Delta X   Delta X   Delta X     New X
                                 (Linear)    (Quad)   (Total)
    R1        2.83424   0.00822   0.00000   0.02531   0.02531   2.85955
    R2        2.06794   0.00028   0.00000   0.00081   0.00081   2.06875
    R3        2.06942  -0.00156   0.00000  -0.00456  -0.00456   2.06486
    R4        2.06942  -0.00156   0.00000  -0.00456  -0.00456   2.06486
    R5        2.64634  -0.00111   0.00000  -0.00267  -0.00268   2.64366
    R6        2.64634  -0.00111   0.00000  -0.00267  -0.00268   2.64366
    R7        2.63801  -0.00100   0.00000  -0.00215  -0.00215   2.63585
    R8        2.05517  -0.00159   0.00000  -0.00451  -0.00451   2.05066
    R9        2.63353  -0.00044   0.00000  -0.00070  -0.00070   2.63284
   R10        2.05362  -0.00145   0.00000  -0.00410  -0.00410   2.04952
   R11        2.63353  -0.00044   0.00000  -0.00070  -0.00070   2.63284
   R12        2.05340  -0.00147   0.00000  -0.00417  -0.00417   2.04923
   R13        2.63801  -0.00100   0.00000  -0.00215  -0.00215   2.63585
   R14        2.05362  -0.00145   0.00000  -0.00410  -0.00410   2.04952
   R15        2.05517  -0.00159   0.00000  -0.00451  -0.00451   2.05066
    A1        1.91973   0.00338   0.00000   0.01702   0.01699   1.93672
    A2        1.93555   0.00126   0.00000   0.00985   0.00975   1.94530
    A3        1.93555   0.00126   0.00000   0.00985   0.00975   1.94530
    A4        1.90023  -0.00310   0.00000  -0.02308  -0.02311   1.87712
    A5        1.90023  -0.00310   0.00000  -0.02308  -0.02311   1.87712
    A6        1.87139   0.00003   0.00000   0.00786   0.00770   1.87909
    A7        2.10200   0.00192   0.00000   0.00865   0.00853   2.11053
    A8        2.10200   0.00192   0.00000   0.00865   0.00853   2.11053
    A9        2.07822  -0.00382   0.00000  -0.01601  -0.01620   2.06202
   A10        2.10192   0.00258   0.00000   0.01079   0.01075   2.11267
   A11        2.09991  -0.00287   0.00000  -0.01520  -0.01518   2.08473
   A12        2.08135   0.00029   0.00000   0.00441   0.00443   2.08578
   A13        2.09555   0.00038   0.00000   0.00190   0.00185   2.09741
   A14        2.09336  -0.00029   0.00000  -0.00156  -0.00155   2.09181
   A15        2.09426  -0.00009   0.00000  -0.00032  -0.00031   2.09395
   A16        2.09300  -0.00210   0.00000  -0.00881  -0.00885   2.08415
   A17        2.09509   0.00105   0.00000   0.00443   0.00442   2.09950
   A18        2.09509   0.00105   0.00000   0.00443   0.00442   2.09950
   A19        2.09555   0.00038   0.00000   0.00190   0.00185   2.09741
   A20        2.09426  -0.00009   0.00000  -0.00032  -0.00031   2.09395
   A21        2.09336  -0.00029   0.00000  -0.00156  -0.00155   2.09181
   A22        2.10192   0.00258   0.00000   0.01079   0.01075   2.11267
   A23        2.09991  -0.00287   0.00000  -0.01520  -0.01518   2.08473
   A24        2.08135   0.00029   0.00000   0.00441   0.00443   2.08578
    D1        1.54685   0.00022   0.00000   0.01558   0.01569   1.56254
    D2       -1.54686  -0.00022   0.00000  -0.01558  -0.01569  -1.56254
    D3       -0.55613   0.00106   0.00000   0.02689   0.02705  -0.52908
    D4        2.63335   0.00062   0.00000  -0.00427  -0.00432   2.62902
    D5       -2.63335  -0.00062   0.00000   0.00427   0.00432  -2.62902
    D6        0.55613  -0.00106   0.00000  -0.02689  -0.02705   0.52908
    D7       -3.11516   0.00003   0.00000  -0.00118  -0.00108  -3.11624
    D8        0.02733   0.00003   0.00000  -0.00194  -0.00187   0.02546
    D9       -0.02080   0.00062   0.00000   0.03023   0.03009   0.00929
   D10        3.12169   0.00062   0.00000   0.02946   0.02930  -3.13220
   D11        3.11516  -0.00003   0.00000   0.00118   0.00108   3.11624
   D12       -0.02733  -0.00003   0.00000   0.00194   0.00187  -0.02546
   D13        0.02080  -0.00062   0.00000  -0.03023  -0.03009  -0.00929
   D14       -3.12169  -0.00062   0.00000  -0.02946  -0.02930   3.13220
   D15        0.00875  -0.00025   0.00000  -0.01323  -0.01334  -0.00459
   D16       -3.13593  -0.00007   0.00000  -0.00445  -0.00452  -3.14044
   D17       -3.13373  -0.00025   0.00000  -0.01249  -0.01255   3.13690
   D18        0.00478  -0.00007   0.00000  -0.00370  -0.00373   0.00105
   D19        0.00358  -0.00007   0.00000  -0.00391  -0.00396  -0.00038
   D20        3.14064   0.00017   0.00000   0.00776   0.00777  -3.13478
   D21       -3.13492  -0.00025   0.00000  -0.01270  -0.01279   3.13547
   D22        0.00213  -0.00002   0.00000  -0.00104  -0.00105   0.00107
   D23       -0.00358   0.00007   0.00000   0.00391   0.00396   0.00038
   D24        3.13492   0.00025   0.00000   0.01270   0.01279  -3.13547
   D25       -3.14064  -0.00017   0.00000  -0.00776  -0.00777   3.13478
   D26       -0.00213   0.00002   0.00000   0.00104   0.00105  -0.00107
   D27       -0.00875   0.00025   0.00000   0.01323   0.01334   0.00459
   D28        3.13373   0.00025   0.00000   0.01249   0.01255  -3.13690
   D29        3.13593   0.00007   0.00000   0.00445   0.00452   3.14044
   D30       -0.00478   0.00007   0.00000   0.00370   0.00373  -0.00105
         Item               Value     Threshold  Converged?
 Maximum Force            0.008224     0.000450     NO 
 RMS     Force            0.001645     0.000300     NO 
 Maximum Displacement     0.067990     0.001800     NO 
 RMS     Displacement     0.016014     0.001200     NO 
 Predicted change in Energy=-4.634953D-04
 GradGradGradGradGradGradGradGradGradGradGradGradGradGradGradGradGradGrad

                          Input orientation:                          
 ---------------------------------------------------------------------
 Center     Atomic      Atomic             Coordinates (Angstroms)
 Number     Number       Type             X           Y           Z
 ---------------------------------------------------------------------
      1          6           0        2.230987   -0.108966   -0.006281
      2          6           0        0.719539   -0.036681   -0.016357
      3          6           0        0.059275    1.190546   -0.139110
      4          6           0       -1.333507    1.263315   -0.118559
      5          6           0       -2.093322    0.103788    0.020310
      6          6           0       -1.449493   -1.126176    0.137700
      7          6           0       -0.056427   -1.193107    0.116523
      8          1           0        2.620678   -0.018596    1.012748
      9          1           0        2.673528    0.694001   -0.600709
     10          1           0        2.588480   -1.058114   -0.412804
     11          1           0        0.640382    2.100004   -0.252181
     12          1           0       -1.825355    2.224976   -0.216361
     13          1           0       -3.176357    0.157418    0.030186
     14          1           0       -2.032141   -2.035143    0.240511
     15          1           0        0.433733   -2.157268    0.204386
 ---------------------------------------------------------------------
                    Distance matrix (angstroms):
                    1          2          3          4          5
     1  C    0.000000
     2  C    1.513209   0.000000
     3  C    2.534306   1.398965   0.000000
     4  C    3.821174   2.432166   1.394833   0.000000
     5  C    4.329621   2.816605   2.416637   1.393236   0.000000
     6  C    3.821174   2.432166   2.778526   2.405990   1.393236
     7  C    2.534306   1.398965   2.400112   2.778526   2.416637
     8  H    1.094736   2.161877   3.057709   4.307984   4.818891
     9  H    1.092677   2.166434   2.700731   4.075895   4.843230
    10  H    1.092678   2.166434   3.395329   4.567012   4.843230
    11  H    2.733137   2.151116   1.085165   2.148055   3.395919
    12  H    4.684584   3.410510   2.151242   1.084560   2.151106
    13  H    5.414024   3.901006   3.400784   2.154352   1.084407
    14  H    4.684584   3.410510   3.863057   3.390700   2.151106
    15  H    2.733137   2.151116   3.386158   3.863654   3.395919
                    6          7          8          9         10
     6  C    0.000000
     7  C    1.394833   0.000000
     8  H    4.307984   3.057709   0.000000
     9  H    4.567011   3.395329   1.764605   0.000000
    10  H    4.075894   2.700731   1.764605   1.764213   0.000000
    11  H    3.863654   3.386158   3.163872   2.496398   3.714108
    12  H    3.390700   3.863057   5.129476   4.767762   5.504472
    13  H    2.154352   3.400784   5.882348   5.908224   5.908224
    14  H    1.084560   2.151242   5.129477   5.504471   4.767762
    15  H    2.148055   1.085165   3.163873   3.714107   2.496397
                   11         12         13         14         15
    11  H    0.000000
    12  H    2.469161   0.000000
    13  H    4.291954   2.482094   0.000000
    14  H    4.948188   4.289535   2.482094   0.000000
    15  H    4.286668   4.948188   4.291954   2.469161   0.000000
 Stoichiometry    C7H8
 Framework group  C1[X(C7H8)]
 Deg. of freedom    39
 Full point group                 C1      NOp   1
 Largest Abelian subgroup         C1      NOp   1
 Largest concise Abelian subgroup C1      NOp   1
                         Standard orientation:                         
 ---------------------------------------------------------------------
 Center     Atomic      Atomic             Coordinates (Angstroms)
 Number     Number       Type             X           Y           Z
 ---------------------------------------------------------------------
      1          6           0       -2.426150   -0.000000    0.010054
      2          6           0       -0.913073    0.000000   -0.009928
      3          6           0       -0.194069   -1.200056   -0.009515
      4          6           0        1.200711   -1.202995    0.002391
      5          6           0        1.903471    0.000000    0.008619
      6          6           0        1.200711    1.202995    0.002391
      7          6           0       -0.194069    1.200056   -0.009515
      8          1           0       -2.804323   -0.000001    1.037396
      9          1           0       -2.832508   -0.882106   -0.490651
     10          1           0       -2.832508    0.882107   -0.490650
     11          1           0       -0.730469   -2.143334   -0.018700
     12          1           0        1.738609   -2.144767    0.001409
     13          1           0        2.987874    0.000000    0.011493
     14          1           0        1.738609    2.144767    0.001409
     15          1           0       -0.730469    2.143334   -0.018700
 ---------------------------------------------------------------------
 Rotational constants (GHZ):           5.5553051           2.5101627           1.7477912
 Standard basis: 6-311++G(d,p) (5D, 7F)
 There are   217 symmetry adapted cartesian basis functions of A   symmetry.
 There are   210 symmetry adapted basis functions of A   symmetry.
   210 basis functions,   324 primitive gaussians,   217 cartesian basis functions
    25 alpha electrons       25 beta electrons
       nuclear repulsion energy       268.9604289907 Hartrees.
 NAtoms=   15 NActive=   15 NUniq=   15 SFac= 1.00D+00 NAtFMM=   60 NAOKFM=F Big=F
 Integral buffers will be    131072 words long.
 Raffenetti 2 integral format.
 Two-electron integral symmetry is turned on.
 One-electron integrals computed using PRISM.
 NBasis=   210 RedAO= T EigKep=  1.10D-06  NBF=   210
 NBsUse=   210 1.00D-06 EigRej= -1.00D+00 NBFU=   210
 Initial guess from the checkpoint file:  "CC1=CC=CC=C1.chk"
 B after Tr=    -0.000000   -0.000000    0.000000
         Rot=    1.000000   -0.000000    0.000168    0.000000 Ang=   0.02 deg.
 ExpMin= 3.60D-02 ExpMax= 4.56D+03 ExpMxC= 6.82D+02 IAcc=3 IRadAn=         5 AccDes= 0.00D+00
 Harris functional with IExCor=  402 and IRadAn=       5 diagonalized for initial guess.
 HarFok:  IExCor=  402 AccDes= 0.00D+00 IRadAn=         5 IDoV= 1 UseB2=F ITyADJ=14
 ICtDFT=  3500011 ScaDFX=  1.000000  1.000000  1.000000  1.000000
 FoFCou: FMM=F IPFlag=           0 FMFlag=      100000 FMFlg1=           0
         NFxFlg=           0 DoJE=T BraDBF=F KetDBF=T FulRan=T
         wScrn=  0.000000 ICntrl=       500 IOpCl=  0 I1Cent=   200000004 NGrid=           0
         NMat0=    1 NMatS0=      1 NMatT0=    0 NMatD0=    1 NMtDS0=    0 NMtDT0=    0
 Petite list used in FoFCou.
 Requested convergence on RMS density matrix=1.00D-08 within 128 cycles.
 Requested convergence on MAX density matrix=1.00D-06.
 Requested convergence on             energy=1.00D-06.
 No special actions if energy rises.
 SCF Done:  E(RB3LYP) =  -271.638856351     A.U. after   11 cycles
            NFock= 11  Conv=0.34D-08     -V/T= 2.0048
 Calling FoFJK, ICntrl=      2127 FMM=F ISym2X=0 I1Cent= 0 IOpClX= 0 NMat=1 NMatS=1 NMatT=0.
 ***** Axes restored to original set *****
 -------------------------------------------------------------------
 Center     Atomic                   Forces (Hartrees/Bohr)
 Number     Number              X              Y              Z
 -------------------------------------------------------------------
      1        6          -0.001388581   -0.000047352   -0.001069788
      2        6           0.001512968   -0.000130825   -0.000535128
      3        6          -0.000964259    0.000386183    0.000344665
      4        6           0.000820460    0.000176693   -0.000199773
      5        6          -0.000431706    0.000012682   -0.000077172
      6        6           0.000797681   -0.000292697   -0.000149434
      7        6          -0.000993228   -0.000210380    0.000408643
      8        1           0.000271409    0.000022841    0.000335736
      9        1          -0.000282520    0.000397441    0.000387705
     10        1          -0.000315290   -0.000277486    0.000460085
     11        1           0.000209078    0.000210260   -0.000030750
     12        1           0.000217471    0.000123423   -0.000032676
     13        1           0.000154552    0.000008040    0.000144901
     14        1           0.000204308   -0.000147785   -0.000003592
     15        1           0.000187657   -0.000231037    0.000016579
 -------------------------------------------------------------------
 Cartesian Forces:  Max     0.001512968 RMS     0.000495690

 GradGradGradGradGradGradGradGradGradGradGradGradGradGradGradGradGradGrad
 Berny optimization.
 Using GEDIIS/GDIIS optimizer.
 FormGI is forming the generalized inverse of G from B-inverse, IUseBI=4.
 Internal  Forces:  Max     0.001716786 RMS     0.000321212
 Search for a local minimum.
 Step number   2 out of a maximum of   79
 All quantities printed in internal units (Hartrees-Bohrs-Radians)
 Mixed Optimization -- En-DIIS/RFO-DIIS
 Update second derivatives using D2CorX and points    1    2
 DE= -4.30D-04 DEPred=-4.63D-04 R= 9.27D-01
 TightC=F SS=  1.41D+00  RLast= 1.02D-01 DXNew= 5.0454D-01 3.0631D-01
 Trust test= 9.27D-01 RLast= 1.02D-01 DXMaxT set to 3.06D-01
 ITU=  1  0
 Use linear search instead of GDIIS.
     Eigenvalues ---    0.00768   0.01577   0.02108   0.02111   0.02117
     Eigenvalues ---    0.02137   0.02157   0.02158   0.02166   0.02184
     Eigenvalues ---    0.06873   0.07214   0.15191   0.16000   0.16000
     Eigenvalues ---    0.16000   0.16000   0.16000   0.16000   0.16414
     Eigenvalues ---    0.22000   0.22000   0.23719   0.24996   0.34109
     Eigenvalues ---    0.34120   0.34231   0.34652   0.35097   0.35113
     Eigenvalues ---    0.35193   0.35194   0.36030   0.41825   0.42034
     Eigenvalues ---    0.45714   0.46074   0.46625   0.46876
 RFO step:  Lambda=-2.35683182D-05 EMin= 7.68409753D-03
 Quartic linear search produced a step of -0.05640.
 Iteration  1 RMS(Cart)=  0.00210450 RMS(Int)=  0.00000424
 Iteration  2 RMS(Cart)=  0.00000255 RMS(Int)=  0.00000367
 Iteration  3 RMS(Cart)=  0.00000000 RMS(Int)=  0.00000367
 Variable       Old X    -DE/DX   Delta X   Delta X   Delta X     New X
                                 (Linear)    (Quad)   (Total)
    R1        2.85955  -0.00172  -0.00143  -0.00292  -0.00435   2.85520
    R2        2.06875   0.00041  -0.00005   0.00120   0.00115   2.06990
    R3        2.06486  -0.00003   0.00026  -0.00047  -0.00021   2.06465
    R4        2.06486  -0.00003   0.00026  -0.00047  -0.00021   2.06465
    R5        2.64366   0.00024   0.00015   0.00027   0.00042   2.64408
    R6        2.64366   0.00024   0.00015   0.00027   0.00042   2.64408
    R7        2.63585  -0.00089   0.00012  -0.00198  -0.00186   2.63399
    R8        2.05066   0.00029   0.00025   0.00041   0.00067   2.05133
    R9        2.63284   0.00055   0.00004   0.00107   0.00111   2.63394
   R10        2.04952   0.00001   0.00023  -0.00030  -0.00007   2.04945
   R11        2.63284   0.00055   0.00004   0.00107   0.00111   2.63394
   R12        2.04923  -0.00015   0.00024  -0.00075  -0.00052   2.04872
   R13        2.63585  -0.00089   0.00012  -0.00198  -0.00186   2.63399
   R14        2.04952   0.00001   0.00023  -0.00030  -0.00007   2.04945
   R15        2.05066   0.00029   0.00025   0.00041   0.00067   2.05133
    A1        1.93672   0.00018  -0.00096   0.00139   0.00043   1.93715
    A2        1.94530  -0.00032  -0.00055  -0.00057  -0.00111   1.94419
    A3        1.94530  -0.00032  -0.00055  -0.00057  -0.00111   1.94419
    A4        1.87712  -0.00010   0.00130  -0.00344  -0.00213   1.87499
    A5        1.87712  -0.00010   0.00130  -0.00344  -0.00213   1.87499
    A6        1.87909   0.00068  -0.00043   0.00656   0.00613   1.88522
    A7        2.11053  -0.00018  -0.00048   0.00002  -0.00045   2.11007
    A8        2.11053  -0.00018  -0.00048   0.00002  -0.00045   2.11007
    A9        2.06202   0.00035   0.00091  -0.00007   0.00085   2.06286
   A10        2.11267  -0.00015  -0.00061   0.00024  -0.00037   2.11230
   A11        2.08473   0.00001   0.00086  -0.00130  -0.00045   2.08428
   A12        2.08578   0.00014  -0.00025   0.00107   0.00082   2.08660
   A13        2.09741  -0.00005  -0.00010   0.00000  -0.00010   2.09731
   A14        2.09181  -0.00023   0.00009  -0.00157  -0.00148   2.09033
   A15        2.09395   0.00028   0.00002   0.00157   0.00159   2.09554
   A16        2.08415   0.00005   0.00050  -0.00038   0.00012   2.08427
   A17        2.09950  -0.00003  -0.00025   0.00020  -0.00005   2.09945
   A18        2.09950  -0.00003  -0.00025   0.00020  -0.00005   2.09945
   A19        2.09741  -0.00005  -0.00010   0.00000  -0.00010   2.09731
   A20        2.09395   0.00028   0.00002   0.00157   0.00159   2.09554
   A21        2.09181  -0.00023   0.00009  -0.00157  -0.00148   2.09033
   A22        2.11267  -0.00015  -0.00061   0.00024  -0.00037   2.11230
   A23        2.08473   0.00001   0.00086  -0.00130  -0.00045   2.08428
   A24        2.08578   0.00014  -0.00025   0.00107   0.00082   2.08660
    D1        1.56254  -0.00004  -0.00088  -0.00108  -0.00197   1.56057
    D2       -1.56254   0.00004   0.00088   0.00108   0.00197  -1.56057
    D3       -0.52908   0.00018  -0.00153   0.00271   0.00118  -0.52791
    D4        2.62902   0.00025   0.00024   0.00487   0.00512   2.63414
    D5       -2.62902  -0.00025  -0.00024  -0.00487  -0.00512  -2.63414
    D6        0.52908  -0.00018   0.00153  -0.00271  -0.00118   0.52790
    D7       -3.11624  -0.00002   0.00006  -0.00054  -0.00048  -3.11672
    D8        0.02546   0.00003   0.00011   0.00196   0.00206   0.02752
    D9        0.00929  -0.00010  -0.00170  -0.00264  -0.00433   0.00496
   D10       -3.13220  -0.00005  -0.00165  -0.00014  -0.00179  -3.13399
   D11        3.11624   0.00002  -0.00006   0.00054   0.00048   3.11672
   D12       -0.02546  -0.00003  -0.00011  -0.00196  -0.00206  -0.02752
   D13       -0.00929   0.00010   0.00170   0.00264   0.00433  -0.00496
   D14        3.13220   0.00005   0.00165   0.00014   0.00179   3.13399
   D15       -0.00459   0.00007   0.00075   0.00205   0.00281  -0.00178
   D16       -3.14044   0.00003   0.00025   0.00093   0.00119  -3.13925
   D17        3.13690   0.00001   0.00071  -0.00045   0.00026   3.13717
   D18        0.00105  -0.00003   0.00021  -0.00157  -0.00135  -0.00031
   D19       -0.00038  -0.00003   0.00022  -0.00138  -0.00115  -0.00153
   D20       -3.13478  -0.00008  -0.00044  -0.00310  -0.00354  -3.13832
   D21        3.13547   0.00001   0.00072  -0.00026   0.00046   3.13594
   D22        0.00107  -0.00005   0.00006  -0.00199  -0.00193  -0.00086
   D23        0.00038   0.00003  -0.00022   0.00138   0.00115   0.00153
   D24       -3.13547  -0.00001  -0.00072   0.00026  -0.00046  -3.13594
   D25        3.13478   0.00008   0.00044   0.00310   0.00354   3.13832
   D26       -0.00107   0.00005  -0.00006   0.00199   0.00193   0.00086
   D27        0.00459  -0.00007  -0.00075  -0.00205  -0.00281   0.00178
   D28       -3.13690  -0.00001  -0.00071   0.00045  -0.00026  -3.13717
   D29        3.14044  -0.00003  -0.00025  -0.00093  -0.00119   3.13925
   D30       -0.00105   0.00003  -0.00021   0.00157   0.00135   0.00031
         Item               Value     Threshold  Converged?
 Maximum Force            0.001717     0.000450     NO 
 RMS     Force            0.000321     0.000300     NO 
 Maximum Displacement     0.006865     0.001800     NO 
 RMS     Displacement     0.002105     0.001200     NO 
 Predicted change in Energy=-1.329946D-05
 GradGradGradGradGradGradGradGradGradGradGradGradGradGradGradGradGradGrad

                          Input orientation:                          
 ---------------------------------------------------------------------
 Center     Atomic      Atomic             Coordinates (Angstroms)
 Number     Number       Type             X           Y           Z
 ---------------------------------------------------------------------
      1          6           0        2.228427   -0.108972   -0.007498
      2          6           0        0.719280   -0.036858   -0.018129
      3          6           0        0.059464    1.191063   -0.138846
      4          6           0       -1.332354    1.263721   -0.119397
      5          6           0       -2.092415    0.103677    0.019683
      6          6           0       -1.448392   -1.126858    0.136978
      7          6           0       -0.056287   -1.193572    0.116892
      8          1           0        2.618388   -0.018556    1.012079
      9          1           0        2.670077    0.696207   -0.599388
     10          1           0        2.584848   -1.059649   -0.411081
     11          1           0        0.641550    2.100331   -0.251795
     12          1           0       -1.822700    2.226153   -0.216756
     13          1           0       -3.175139    0.157555    0.032014
     14          1           0       -2.029615   -2.036625    0.240401
     15          1           0        0.434869   -2.157616    0.204844
 ---------------------------------------------------------------------
                    Distance matrix (angstroms):
                    1          2          3          4          5
     1  C    0.000000
     2  C    1.510907   0.000000
     3  C    2.532142   1.399185   0.000000
     4  C    3.817848   2.431247   1.393848   0.000000
     5  C    4.326157   2.815459   2.416221   1.393822   0.000000
     6  C    3.817848   2.431247   2.778933   2.407086   1.393822
     7  C    2.532142   1.399185   2.401100   2.778933   2.416221
     8  H    1.095345   2.160619   3.055470   4.304977   4.815751
     9  H    1.092567   2.163529   2.696717   4.070862   4.838975
    10  H    1.092567   2.163529   3.393727   4.563726   4.838975
    11  H    2.731096   2.151330   1.085518   2.147962   3.396306
    12  H    4.680622   3.409154   2.149423   1.084524   2.152569
    13  H    5.410280   3.899591   3.399998   2.154620   1.084134
    14  H    4.680622   3.409154   3.863425   3.392331   2.152569
    15  H    2.731096   2.151330   3.387138   3.864421   3.396306
                    6          7          8          9         10
     6  C    0.000000
     7  C    1.393848   0.000000
     8  H    4.304978   3.055471   0.000000
     9  H    4.563726   3.393727   1.763628   0.000000
    10  H    4.070861   2.696717   1.763628   1.767981   0.000000
    11  H    3.864421   3.387138   3.161479   2.491447   3.713120
    12  H    3.392331   3.863425   5.125623   4.761532   5.500975
    13  H    2.154620   3.399998   5.878477   5.903843   5.903843
    14  H    1.084524   2.149423   5.125624   5.500975   4.761531
    15  H    2.147962   1.085518   3.161480   3.713119   2.491446
                   11         12         13         14         15
    11  H    0.000000
    12  H    2.467708   0.000000
    13  H    4.292090   2.483964   0.000000
    14  H    4.948918   4.292212   2.483964   0.000000
    15  H    4.287348   4.948918   4.292090   2.467708   0.000000
 Stoichiometry    C7H8
 Framework group  C1[X(C7H8)]
 Deg. of freedom    39
 Full point group                 C1      NOp   1
 Largest Abelian subgroup         C1      NOp   1
 Largest concise Abelian subgroup C1      NOp   1
                         Standard orientation:                         
 ---------------------------------------------------------------------
 Center     Atomic      Atomic             Coordinates (Angstroms)
 Number     Number       Type             X           Y           Z
 ---------------------------------------------------------------------
      1          6           0       -2.423529    0.000000    0.009376
      2          6           0       -0.912763    0.000000   -0.011215
      3          6           0       -0.194158   -1.200550   -0.008730
      4          6           0        1.199646   -1.203543    0.002018
      5          6           0        1.902628   -0.000000    0.008367
      6          6           0        1.199646    1.203543    0.002018
      7          6           0       -0.194158    1.200550   -0.008730
      8          1           0       -2.801921   -0.000001    1.037287
      9          1           0       -2.828893   -0.883990   -0.488564
     10          1           0       -2.828893    0.883991   -0.488562
     11          1           0       -0.731546   -2.143674   -0.017779
     12          1           0        1.736085   -2.146106    0.001553
     13          1           0        2.986749   -0.000000    0.013666
     14          1           0        1.736085    2.146106    0.001553
     15          1           0       -0.731546    2.143674   -0.017779
 ---------------------------------------------------------------------
 Rotational constants (GHZ):           5.5506266           2.5143960           1.7493219
 Standard basis: 6-311++G(d,p) (5D, 7F)
 There are   217 symmetry adapted cartesian basis functions of A   symmetry.
 There are   210 symmetry adapted basis functions of A   symmetry.
   210 basis functions,   324 primitive gaussians,   217 cartesian basis functions
    25 alpha electrons       25 beta electrons
       nuclear repulsion energy       269.0289351778 Hartrees.
 NAtoms=   15 NActive=   15 NUniq=   15 SFac= 1.00D+00 NAtFMM=   60 NAOKFM=F Big=F
 Integral buffers will be    131072 words long.
 Raffenetti 2 integral format.
 Two-electron integral symmetry is turned on.
 One-electron integrals computed using PRISM.
 NBasis=   210 RedAO= T EigKep=  1.10D-06  NBF=   210
 NBsUse=   210 1.00D-06 EigRej= -1.00D+00 NBFU=   210
 Initial guess from the checkpoint file:  "CC1=CC=CC=C1.chk"
 B after Tr=    -0.000000   -0.000000    0.000000
         Rot=    1.000000   -0.000000    0.000008    0.000000 Ang=   0.00 deg.
 Requested convergence on RMS density matrix=1.00D-08 within 128 cycles.
 Requested convergence on MAX density matrix=1.00D-06.
 Requested convergence on             energy=1.00D-06.
 No special actions if energy rises.
 SCF Done:  E(RB3LYP) =  -271.638871213     A.U. after    9 cycles
            NFock=  9  Conv=0.69D-08     -V/T= 2.0048
 Calling FoFJK, ICntrl=      2127 FMM=F ISym2X=0 I1Cent= 0 IOpClX= 0 NMat=1 NMatS=1 NMatT=0.
 ***** Axes restored to original set *****
 -------------------------------------------------------------------
 Center     Atomic                   Forces (Hartrees/Bohr)
 Number     Number              X              Y              Z
 -------------------------------------------------------------------
      1        6          -0.000427373   -0.000015382   -0.000336789
      2        6           0.000580434   -0.000021313    0.000063970
      3        6          -0.000155596    0.000083155   -0.000044062
      4        6           0.000044327   -0.000083900    0.000039153
      5        6          -0.000045070   -0.000001421   -0.000033662
      6        6           0.000052560    0.000085644    0.000020971
      7        6          -0.000163291   -0.000075305   -0.000027069
      8        1           0.000079309    0.000010216    0.000131136
      9        1          -0.000007181    0.000064379    0.000083133
     10        1          -0.000012461   -0.000044338    0.000094793
     11        1           0.000056426    0.000032387   -0.000001077
     12        1          -0.000015881    0.000039101   -0.000006089
     13        1          -0.000019641    0.000001711    0.000007057
     14        1          -0.000019614   -0.000037801    0.000002157
     15        1           0.000053052   -0.000037132    0.000006379
 -------------------------------------------------------------------
 Cartesian Forces:  Max     0.000580434 RMS     0.000132202

 GradGradGradGradGradGradGradGradGradGradGradGradGradGradGradGradGradGrad
 Berny optimization.
 Using GEDIIS/GDIIS optimizer.
 FormGI is forming the generalized inverse of G from B-inverse, IUseBI=4.
 Internal  Forces:  Max     0.000368181 RMS     0.000058631
 Search for a local minimum.
 Step number   3 out of a maximum of   79
 All quantities printed in internal units (Hartrees-Bohrs-Radians)
 Mixed Optimization -- En-DIIS/RFO-DIIS
 Swapping is turned off.
 Update second derivatives using D2CorX and points    1    2    3
 DE= -1.49D-05 DEPred=-1.33D-05 R= 1.12D+00
 TightC=F SS=  1.41D+00  RLast= 1.63D-02 DXNew= 5.1516D-01 4.9016D-02
 Trust test= 1.12D+00 RLast= 1.63D-02 DXMaxT set to 3.06D-01
 ITU=  1  1  0
     Eigenvalues ---    0.00768   0.01589   0.02108   0.02111   0.02129
     Eigenvalues ---    0.02136   0.02157   0.02158   0.02166   0.02213
     Eigenvalues ---    0.06293   0.07228   0.14951   0.16000   0.16000
     Eigenvalues ---    0.16000   0.16000   0.16000   0.16005   0.16581
     Eigenvalues ---    0.22000   0.22011   0.23865   0.24995   0.32120
     Eigenvalues ---    0.34107   0.34231   0.34251   0.35097   0.35138
     Eigenvalues ---    0.35193   0.35196   0.35230   0.41829   0.42351
     Eigenvalues ---    0.45713   0.46140   0.46625   0.47450
 En-DIIS/RFO-DIIS/Sim-DIIS IScMMF=       -3 using points:     3    2
 RFO step:  Lambda=-1.17341186D-06.
 DidBck=F Rises=F RFO-DIIS coefs:    1.07243   -0.07243
 Iteration  1 RMS(Cart)=  0.00034092 RMS(Int)=  0.00000017
 Iteration  2 RMS(Cart)=  0.00000014 RMS(Int)=  0.00000010
 Variable       Old X    -DE/DX   Delta X   Delta X   Delta X     New X
                                 (Linear)    (Quad)   (Total)
    R1        2.85520  -0.00037  -0.00032  -0.00099  -0.00130   2.85390
    R2        2.06990   0.00015   0.00008   0.00045   0.00054   2.07044
    R3        2.06465  -0.00000  -0.00002  -0.00001  -0.00003   2.06463
    R4        2.06465  -0.00000  -0.00002  -0.00001  -0.00003   2.06463
    R5        2.64408   0.00012   0.00003   0.00029   0.00032   2.64440
    R6        2.64408   0.00012   0.00003   0.00029   0.00032   2.64440
    R7        2.63399   0.00000  -0.00013   0.00008  -0.00006   2.63394
    R8        2.05133   0.00006   0.00005   0.00014   0.00019   2.05152
    R9        2.63394   0.00001   0.00008  -0.00005   0.00003   2.63397
   R10        2.04945   0.00004  -0.00000   0.00012   0.00012   2.04957
   R11        2.63394   0.00001   0.00008  -0.00005   0.00003   2.63397
   R12        2.04872   0.00002  -0.00004   0.00007   0.00003   2.04875
   R13        2.63399   0.00000  -0.00013   0.00008  -0.00006   2.63394
   R14        2.04945   0.00004  -0.00000   0.00012   0.00012   2.04957
   R15        2.05133   0.00006   0.00005   0.00014   0.00019   2.05152
    A1        1.93715   0.00001   0.00003  -0.00018  -0.00015   1.93700
    A2        1.94419  -0.00000  -0.00008   0.00023   0.00015   1.94434
    A3        1.94419  -0.00000  -0.00008   0.00023   0.00015   1.94434
    A4        1.87499  -0.00004  -0.00015  -0.00060  -0.00076   1.87423
    A5        1.87499  -0.00004  -0.00015  -0.00060  -0.00076   1.87423
    A6        1.88522   0.00008   0.00044   0.00088   0.00133   1.88655
    A7        2.11007   0.00003  -0.00003   0.00018   0.00015   2.11022
    A8        2.11007   0.00003  -0.00003   0.00018   0.00015   2.11022
    A9        2.06286  -0.00006   0.00006  -0.00035  -0.00029   2.06257
   A10        2.11230   0.00000  -0.00003   0.00010   0.00007   2.11238
   A11        2.08428  -0.00003  -0.00003  -0.00028  -0.00032   2.08396
   A12        2.08660   0.00003   0.00006   0.00019   0.00024   2.08685
   A13        2.09731   0.00004  -0.00001   0.00019   0.00018   2.09749
   A14        2.09033  -0.00002  -0.00011  -0.00005  -0.00016   2.09017
   A15        2.09554  -0.00002   0.00012  -0.00013  -0.00002   2.09552
   A16        2.08427  -0.00002   0.00001  -0.00022  -0.00021   2.08406
   A17        2.09945   0.00001  -0.00000   0.00011   0.00011   2.09956
   A18        2.09945   0.00001  -0.00000   0.00011   0.00011   2.09956
   A19        2.09731   0.00004  -0.00001   0.00019   0.00018   2.09749
   A20        2.09554  -0.00002   0.00012  -0.00013  -0.00002   2.09552
   A21        2.09033  -0.00002  -0.00011  -0.00005  -0.00016   2.09017
   A22        2.11230   0.00000  -0.00003   0.00010   0.00007   2.11238
   A23        2.08428  -0.00003  -0.00003  -0.00028  -0.00032   2.08396
   A24        2.08660   0.00003   0.00006   0.00019   0.00024   2.08685
    D1        1.56057   0.00000  -0.00014   0.00036   0.00021   1.56078
    D2       -1.56057  -0.00000   0.00014  -0.00036  -0.00021  -1.56078
    D3       -0.52791   0.00005   0.00009   0.00108   0.00117  -0.52674
    D4        2.63414   0.00005   0.00037   0.00037   0.00074   2.63488
    D5       -2.63414  -0.00005  -0.00037  -0.00037  -0.00074  -2.63488
    D6        0.52790  -0.00005  -0.00009  -0.00108  -0.00117   0.52674
    D7       -3.11672   0.00000  -0.00003   0.00017   0.00014  -3.11658
    D8        0.02752  -0.00000   0.00015  -0.00038  -0.00023   0.02728
    D9        0.00496   0.00001  -0.00031   0.00087   0.00055   0.00552
   D10       -3.13399   0.00000  -0.00013   0.00032   0.00019  -3.13380
   D11        3.11672  -0.00000   0.00003  -0.00017  -0.00014   3.11658
   D12       -0.02752   0.00000  -0.00015   0.00038   0.00023  -0.02728
   D13       -0.00496  -0.00001   0.00031  -0.00087  -0.00055  -0.00552
   D14        3.13399  -0.00000   0.00013  -0.00032  -0.00019   3.13380
   D15       -0.00178  -0.00001   0.00020  -0.00065  -0.00045  -0.00223
   D16       -3.13925  -0.00000   0.00009  -0.00028  -0.00020  -3.13945
   D17        3.13717  -0.00000   0.00002  -0.00010  -0.00008   3.13709
   D18       -0.00031   0.00000  -0.00010   0.00027   0.00017  -0.00013
   D19       -0.00153   0.00001  -0.00008   0.00041   0.00033  -0.00120
   D20       -3.13832  -0.00000  -0.00026   0.00017  -0.00009  -3.13841
   D21        3.13594   0.00000   0.00003   0.00004   0.00007   3.13601
   D22       -0.00086  -0.00001  -0.00014  -0.00021  -0.00035  -0.00120
   D23        0.00153  -0.00001   0.00008  -0.00041  -0.00033   0.00120
   D24       -3.13594  -0.00000  -0.00003  -0.00004  -0.00007  -3.13601
   D25        3.13832   0.00000   0.00026  -0.00017   0.00009   3.13841
   D26        0.00086   0.00001   0.00014   0.00021   0.00035   0.00120
   D27        0.00178   0.00001  -0.00020   0.00065   0.00045   0.00223
   D28       -3.13717   0.00000  -0.00002   0.00010   0.00008  -3.13709
   D29        3.13925   0.00000  -0.00009   0.00028   0.00020   3.13945
   D30        0.00031  -0.00000   0.00010  -0.00027  -0.00017   0.00013
         Item               Value     Threshold  Converged?
 Maximum Force            0.000368     0.000450     YES
 RMS     Force            0.000059     0.000300     YES
 Maximum Displacement     0.001074     0.001800     YES
 RMS     Displacement     0.000341     0.001200     YES
 Predicted change in Energy=-5.867367D-07
 Optimization completed.
    -- Stationary point found.
                           ----------------------------
                           !   Optimized Parameters   !
                           ! (Angstroms and Degrees)  !
 --------------------------                            --------------------------
 ! Name  Definition              Value          Derivative Info.                !
 --------------------------------------------------------------------------------
 ! R1    R(1,2)                  1.5109         -DE/DX =   -0.0004              !
 ! R2    R(1,8)                  1.0953         -DE/DX =    0.0002              !
 ! R3    R(1,9)                  1.0926         -DE/DX =    0.0                 !
 ! R4    R(1,10)                 1.0926         -DE/DX =    0.0                 !
 ! R5    R(2,3)                  1.3992         -DE/DX =    0.0001              !
 ! R6    R(2,7)                  1.3992         -DE/DX =    0.0001              !
 ! R7    R(3,4)                  1.3938         -DE/DX =    0.0                 !
 ! R8    R(3,11)                 1.0855         -DE/DX =    0.0001              !
 ! R9    R(4,5)                  1.3938         -DE/DX =    0.0                 !
 ! R10   R(4,12)                 1.0845         -DE/DX =    0.0                 !
 ! R11   R(5,6)                  1.3938         -DE/DX =    0.0                 !
 ! R12   R(5,13)                 1.0841         -DE/DX =    0.0                 !
 ! R13   R(6,7)                  1.3938         -DE/DX =    0.0                 !
 ! R14   R(6,14)                 1.0845         -DE/DX =    0.0                 !
 ! R15   R(7,15)                 1.0855         -DE/DX =    0.0001              !
 ! A1    A(2,1,8)              110.9904         -DE/DX =    0.0                 !
 ! A2    A(2,1,9)              111.3937         -DE/DX =    0.0                 !
 ! A3    A(2,1,10)             111.3937         -DE/DX =    0.0                 !
 ! A4    A(8,1,9)              107.429          -DE/DX =    0.0                 !
 ! A5    A(8,1,10)             107.429          -DE/DX =    0.0                 !
 ! A6    A(9,1,10)             108.0152         -DE/DX =    0.0001              !
 ! A7    A(1,2,3)              120.8983         -DE/DX =    0.0                 !
 ! A8    A(1,2,7)              120.8983         -DE/DX =    0.0                 !
 ! A9    A(3,2,7)              118.1933         -DE/DX =   -0.0001              !
 ! A10   A(2,3,4)              121.026          -DE/DX =    0.0                 !
 ! A11   A(2,3,11)             119.4204         -DE/DX =    0.0                 !
 ! A12   A(4,3,11)             119.5534         -DE/DX =    0.0                 !
 ! A13   A(3,4,5)              120.1669         -DE/DX =    0.0                 !
 ! A14   A(3,4,12)             119.7673         -DE/DX =    0.0                 !
 ! A15   A(5,4,12)             120.0654         -DE/DX =    0.0                 !
 ! A16   A(4,5,6)              119.4201         -DE/DX =    0.0                 !
 ! A17   A(4,5,13)             120.2897         -DE/DX =    0.0                 !
 ! A18   A(6,5,13)             120.2897         -DE/DX =    0.0                 !
 ! A19   A(5,6,7)              120.1669         -DE/DX =    0.0                 !
 ! A20   A(5,6,14)             120.0654         -DE/DX =    0.0                 !
 ! A21   A(7,6,14)             119.7673         -DE/DX =    0.0                 !
 ! A22   A(2,7,6)              121.026          -DE/DX =    0.0                 !
 ! A23   A(2,7,15)             119.4204         -DE/DX =    0.0                 !
 ! A24   A(6,7,15)             119.5534         -DE/DX =    0.0                 !
 ! D1    D(8,1,2,3)             89.414          -DE/DX =    0.0                 !
 ! D2    D(8,1,2,7)            -89.4141         -DE/DX =    0.0                 !
 ! D3    D(9,1,2,3)            -30.2467         -DE/DX =    0.0001              !
 ! D4    D(9,1,2,7)            150.9251         -DE/DX =    0.0                 !
 ! D5    D(10,1,2,3)          -150.9252         -DE/DX =    0.0                 !
 ! D6    D(10,1,2,7)            30.2466         -DE/DX =   -0.0001              !
 ! D7    D(1,2,3,4)           -178.5747         -DE/DX =    0.0                 !
 ! D8    D(1,2,3,11)             1.5766         -DE/DX =    0.0                 !
 ! D9    D(7,2,3,4)              0.2844         -DE/DX =    0.0                 !
 ! D10   D(7,2,3,11)          -179.5642         -DE/DX =    0.0                 !
 ! D11   D(1,2,7,6)            178.5747         -DE/DX =    0.0                 !
 ! D12   D(1,2,7,15)            -1.5766         -DE/DX =    0.0                 !
 ! D13   D(3,2,7,6)             -0.2844         -DE/DX =    0.0                 !
 ! D14   D(3,2,7,15)           179.5642         -DE/DX =    0.0                 !
 ! D15   D(2,3,4,5)             -0.102          -DE/DX =    0.0                 !
 ! D16   D(2,3,4,12)          -179.866          -DE/DX =    0.0                 !
 ! D17   D(11,3,4,5)           179.7465         -DE/DX =    0.0                 !
 ! D18   D(11,3,4,12)           -0.0175         -DE/DX =    0.0                 !
 ! D19   D(3,4,5,6)             -0.0875         -DE/DX =    0.0                 !
 ! D20   D(3,4,5,13)          -179.8125         -DE/DX =    0.0                 !
 ! D21   D(12,4,5,6)           179.6759         -DE/DX =    0.0                 !
 ! D22   D(12,4,5,13)           -0.0491         -DE/DX =    0.0                 !
 ! D23   D(4,5,6,7)              0.0875         -DE/DX =    0.0                 !
 ! D24   D(4,5,6,14)          -179.6759         -DE/DX =    0.0                 !
 ! D25   D(13,5,6,7)           179.8125         -DE/DX =    0.0                 !
 ! D26   D(13,5,6,14)            0.0491         -DE/DX =    0.0                 !
 ! D27   D(5,6,7,2)              0.102          -DE/DX =    0.0                 !
 ! D28   D(5,6,7,15)          -179.7465         -DE/DX =    0.0                 !
 ! D29   D(14,6,7,2)           179.866          -DE/DX =    0.0                 !
 ! D30   D(14,6,7,15)            0.0175         -DE/DX =    0.0                 !
 --------------------------------------------------------------------------------
 GradGradGradGradGradGradGradGradGradGradGradGradGradGradGradGradGradGrad

                          Input orientation:                          
 ---------------------------------------------------------------------
 Center     Atomic      Atomic             Coordinates (Angstroms)
 Number     Number       Type             X           Y           Z
 ---------------------------------------------------------------------
      1          6           0        2.228427   -0.108972   -0.007498
      2          6           0        0.719280   -0.036858   -0.018129
      3          6           0        0.059464    1.191063   -0.138846
      4          6           0       -1.332354    1.263721   -0.119397
      5          6           0       -2.092415    0.103677    0.019683
      6          6           0       -1.448392   -1.126858    0.136978
      7          6           0       -0.056287   -1.193572    0.116892
      8          1           0        2.618388   -0.018556    1.012079
      9          1           0        2.670077    0.696207   -0.599388
     10          1           0        2.584848   -1.059649   -0.411081
     11          1           0        0.641550    2.100331   -0.251795
     12          1           0       -1.822700    2.226153   -0.216756
     13          1           0       -3.175139    0.157555    0.032014
     14          1           0       -2.029615   -2.036625    0.240401
     15          1           0        0.434869   -2.157616    0.204844
 ---------------------------------------------------------------------
                    Distance matrix (angstroms):
                    1          2          3          4          5
     1  C    0.000000
     2  C    1.510907   0.000000
     3  C    2.532142   1.399185   0.000000
     4  C    3.817848   2.431247   1.393848   0.000000
     5  C    4.326157   2.815459   2.416221   1.393822   0.000000
     6  C    3.817848   2.431247   2.778933   2.407086   1.393822
     7  C    2.532142   1.399185   2.401100   2.778933   2.416221
     8  H    1.095345   2.160619   3.055470   4.304977   4.815751
     9  H    1.092567   2.163529   2.696717   4.070862   4.838975
    10  H    1.092567   2.163529   3.393727   4.563726   4.838975
    11  H    2.731096   2.151330   1.085518   2.147962   3.396306
    12  H    4.680622   3.409154   2.149423   1.084524   2.152569
    13  H    5.410280   3.899591   3.399998   2.154620   1.084134
    14  H    4.680622   3.409154   3.863425   3.392331   2.152569
    15  H    2.731096   2.151330   3.387138   3.864421   3.396306
                    6          7          8          9         10
     6  C    0.000000
     7  C    1.393848   0.000000
     8  H    4.304978   3.055471   0.000000
     9  H    4.563726   3.393727   1.763628   0.000000
    10  H    4.070861   2.696717   1.763628   1.767981   0.000000
    11  H    3.864421   3.387138   3.161479   2.491447   3.713120
    12  H    3.392331   3.863425   5.125623   4.761532   5.500975
    13  H    2.154620   3.399998   5.878477   5.903843   5.903843
    14  H    1.084524   2.149423   5.125624   5.500975   4.761531
    15  H    2.147962   1.085518   3.161480   3.713119   2.491446
                   11         12         13         14         15
    11  H    0.000000
    12  H    2.467708   0.000000
    13  H    4.292090   2.483964   0.000000
    14  H    4.948918   4.292212   2.483964   0.000000
    15  H    4.287348   4.948918   4.292090   2.467708   0.000000
 Stoichiometry    C7H8
 Framework group  C1[X(C7H8)]
 Deg. of freedom    39
 Full point group                 C1      NOp   1
 Largest Abelian subgroup         C1      NOp   1
 Largest concise Abelian subgroup C1      NOp   1
                         Standard orientation:                         
 ---------------------------------------------------------------------
 Center     Atomic      Atomic             Coordinates (Angstroms)
 Number     Number       Type             X           Y           Z
 ---------------------------------------------------------------------
      1          6           0       -2.423529    0.000000    0.009376
      2          6           0       -0.912763    0.000000   -0.011215
      3          6           0       -0.194158   -1.200550   -0.008730
      4          6           0        1.199646   -1.203543    0.002018
      5          6           0        1.902628   -0.000000    0.008367
      6          6           0        1.199646    1.203543    0.002018
      7          6           0       -0.194158    1.200550   -0.008730
      8          1           0       -2.801921   -0.000001    1.037287
      9          1           0       -2.828893   -0.883990   -0.488564
     10          1           0       -2.828893    0.883991   -0.488562
     11          1           0       -0.731546   -2.143674   -0.017779
     12          1           0        1.736085   -2.146106    0.001553
     13          1           0        2.986749   -0.000000    0.013666
     14          1           0        1.736085    2.146106    0.001553
     15          1           0       -0.731546    2.143674   -0.017779
 ---------------------------------------------------------------------
 Rotational constants (GHZ):           5.5506266           2.5143960           1.7493219

 **********************************************************************

            Population analysis using the SCF Density.

 **********************************************************************

 Orbital symmetries:
       Occupied  (A) (A) (A) (A) (A) (A) (A) (A) (A) (A) (A) (A)
                 (A) (A) (A) (A) (A) (A) (A) (A) (A) (A) (A) (A)
                 (A)
       Virtual   (A) (A) (A) (A) (A) (A) (A) (A) (A) (A) (A) (A)
                 (A) (A) (A) (A) (A) (A) (A) (A) (A) (A) (A) (A)
                 (A) (A) (A) (A) (A) (A) (A) (A) (A) (A) (A) (A)
                 (A) (A) (A) (A) (A) (A) (A) (A) (A) (A) (A) (A)
                 (A) (A) (A) (A) (A) (A) (A) (A) (A) (A) (A) (A)
                 (A) (A) (A) (A) (A) (A) (A) (A) (A) (A) (A) (A)
                 (A) (A) (A) (A) (A) (A) (A) (A) (A) (A) (A) (A)
                 (A) (A) (A) (A) (A) (A) (A) (A) (A) (A) (A) (A)
                 (A) (A) (A) (A) (A) (A) (A) (A) (A) (A) (A) (A)
                 (A) (A) (A) (A) (A) (A) (A) (A) (A) (A) (A) (A)
                 (A) (A) (A) (A) (A) (A) (A) (A) (A) (A) (A) (A)
                 (A) (A) (A) (A) (A) (A) (A) (A) (A) (A) (A) (A)
                 (A) (A) (A) (A) (A) (A) (A) (A) (A) (A) (A) (A)
                 (A) (A) (A) (A) (A) (A) (A) (A) (A) (A) (A) (A)
                 (A) (A) (A) (A) (A) (A) (A) (A) (A) (A) (A) (A)
                 (A) (A) (A) (A) (A)
 The electronic state is 1-A.
 Alpha  occ. eigenvalues --  -10.18524 -10.17552 -10.17546 -10.17328 -10.17289
 Alpha  occ. eigenvalues --  -10.17287 -10.16975  -0.86024  -0.77507  -0.74785
 Alpha  occ. eigenvalues --   -0.68889  -0.60839  -0.58759  -0.51515  -0.46438
 Alpha  occ. eigenvalues --   -0.45745  -0.42422  -0.42346  -0.41241  -0.38935
 Alpha  occ. eigenvalues --   -0.35948  -0.34634  -0.34344  -0.25668  -0.24778
 Alpha virt. eigenvalues --   -0.01600  -0.01378  -0.00733   0.00523   0.00989
 Alpha virt. eigenvalues --    0.02828   0.03242   0.03549   0.05441   0.05788
 Alpha virt. eigenvalues --    0.06353   0.07388   0.08256   0.08874   0.10826
 Alpha virt. eigenvalues --    0.11191   0.11248   0.11991   0.12069   0.12203
 Alpha virt. eigenvalues --    0.12475   0.12522   0.13623   0.13880   0.14451
 Alpha virt. eigenvalues --    0.15233   0.15834   0.16795   0.17040   0.17548
 Alpha virt. eigenvalues --    0.18010   0.18401   0.18733   0.19845   0.21298
 Alpha virt. eigenvalues --    0.21487   0.23588   0.24521   0.24655   0.25900
 Alpha virt. eigenvalues --    0.26055   0.27250   0.28403   0.28435   0.29976
 Alpha virt. eigenvalues --    0.30850   0.31375   0.32464   0.35792   0.35891
 Alpha virt. eigenvalues --    0.37199   0.37268   0.46731   0.47163   0.49951
 Alpha virt. eigenvalues --    0.51756   0.53505   0.54122   0.54455   0.55508
 Alpha virt. eigenvalues --    0.56341   0.56939   0.58536   0.59795   0.60479
 Alpha virt. eigenvalues --    0.63215   0.63641   0.65255   0.65752   0.66251
 Alpha virt. eigenvalues --    0.68496   0.69629   0.72309   0.73097   0.76207
 Alpha virt. eigenvalues --    0.76665   0.78705   0.81501   0.84592   0.85345
 Alpha virt. eigenvalues --    0.87252   0.88383   0.88663   0.89707   0.90787
 Alpha virt. eigenvalues --    0.91967   0.95438   0.98427   1.01308   1.01859
 Alpha virt. eigenvalues --    1.03980   1.06630   1.08344   1.13086   1.14096
 Alpha virt. eigenvalues --    1.32881   1.35586   1.37191   1.38639   1.46917
 Alpha virt. eigenvalues --    1.48580   1.52632   1.52860   1.53446   1.56326
 Alpha virt. eigenvalues --    1.56870   1.58045   1.60124   1.61112   1.63164
 Alpha virt. eigenvalues --    1.65254   1.68074   1.69236   1.73469   1.74778
 Alpha virt. eigenvalues --    1.77619   1.80491   1.83864   1.84154   1.88550
 Alpha virt. eigenvalues --    1.92265   1.93024   1.94017   1.95109   1.95751
 Alpha virt. eigenvalues --    2.01090   2.02112   2.05656   2.06757   2.08317
 Alpha virt. eigenvalues --    2.17811   2.22259   2.23415   2.32979   2.37483
 Alpha virt. eigenvalues --    2.40776   2.43608   2.44860   2.45487   2.46456
 Alpha virt. eigenvalues --    2.54453   2.55588   2.59959   2.60615   2.64335
 Alpha virt. eigenvalues --    2.66604   2.68094   2.70098   2.71635   2.72619
 Alpha virt. eigenvalues --    2.75915   2.75916   2.78508   2.80567   2.82907
 Alpha virt. eigenvalues --    2.86343   2.90243   2.92846   2.93698   2.95187
 Alpha virt. eigenvalues --    2.96561   3.09138   3.15549   3.21854   3.34461
 Alpha virt. eigenvalues --    3.37607   3.49006   3.52120   3.62421   3.69457
 Alpha virt. eigenvalues --    3.80506   3.82413   3.99723   4.04560   4.14761
 Alpha virt. eigenvalues --    4.15519   4.33099   4.84537  23.59105  23.92513
 Alpha virt. eigenvalues --   23.97161  23.98776  24.08621  24.09961  24.19884
          Condensed to atoms (all electrons):
               1          2          3          4          5          6
     1  C    6.803725  -0.496015  -0.541840   0.042858   0.033275   0.042858
     2  C   -0.496015   8.712295  -2.463424   1.498306  -1.563181   1.498305
     3  C   -0.541840  -2.463424   9.343526  -1.277581   1.298243  -1.517234
     4  C    0.042858   1.498306  -1.277581   6.247328  -0.507476   0.927646
     5  C    0.033275  -1.563181   1.298243  -0.507476   6.156829  -0.507476
     6  C    0.042858   1.498305  -1.517234   0.927646  -0.507476   6.247328
     7  C   -0.541839  -2.463427   1.850024  -1.517235   1.298244  -1.277582
     8  H    0.386875   0.072137  -0.073313   0.026380  -0.013025   0.026380
     9  H    0.402496  -0.077523   0.094781   0.033627  -0.008302  -0.002578
    10  H    0.402496  -0.077523  -0.088556  -0.002578  -0.008302   0.033627
    11  H   -0.001303  -0.056036   0.387463  -0.039051   0.014171  -0.005194
    12  H    0.007602   0.056667  -0.102271   0.416925  -0.048892   0.013637
    13  H   -0.001685   0.022248  -0.020051  -0.004715   0.360677  -0.004715
    14  H    0.007602   0.056667  -0.029568   0.013637  -0.048892   0.416925
    15  H   -0.001303  -0.056036   0.044212  -0.005194   0.014171  -0.039051
               7          8          9         10         11         12
     1  C   -0.541839   0.386875   0.402496   0.402496  -0.001303   0.007602
     2  C   -2.463427   0.072137  -0.077523  -0.077523  -0.056036   0.056667
     3  C    1.850024  -0.073313   0.094781  -0.088556   0.387463  -0.102271
     4  C   -1.517235   0.026380   0.033627  -0.002578  -0.039051   0.416925
     5  C    1.298244  -0.013025  -0.008302  -0.008302   0.014171  -0.048892
     6  C   -1.277582   0.026380  -0.002578   0.033627  -0.005194   0.013637
     7  C    9.343529  -0.073313  -0.088556   0.094781   0.044212  -0.029568
     8  H   -0.073313   0.565439  -0.039030  -0.039030  -0.001664   0.000403
     9  H   -0.088556  -0.039030   0.568453  -0.025421  -0.000496   0.000804
    10  H    0.094781  -0.039030  -0.025421   0.568453   0.001048   0.000386
    11  H    0.044212  -0.001664  -0.000496   0.001048   0.539580  -0.014821
    12  H   -0.029568   0.000403   0.000804   0.000386  -0.014821   0.545163
    13  H   -0.020051  -0.000079  -0.000290  -0.000290  -0.001304  -0.009409
    14  H   -0.102271   0.000403   0.000386   0.000804   0.000574  -0.001181
    15  H    0.387463  -0.001664   0.001048  -0.000496  -0.002252   0.000574
              13         14         15
     1  C   -0.001685   0.007602  -0.001303
     2  C    0.022248   0.056667  -0.056036
     3  C   -0.020051  -0.029568   0.044212
     4  C   -0.004715   0.013637  -0.005194
     5  C    0.360677  -0.048892   0.014171
     6  C   -0.004715   0.416925  -0.039051
     7  C   -0.020051  -0.102271   0.387463
     8  H   -0.000079   0.000403  -0.001664
     9  H   -0.000290   0.000386   0.001048
    10  H   -0.000290   0.000804  -0.000496
    11  H   -0.001304   0.000574  -0.002252
    12  H   -0.009409  -0.001181   0.000574
    13  H    0.538905  -0.009409  -0.001304
    14  H   -0.009409   0.545163  -0.014821
    15  H   -0.001304  -0.014821   0.539580
 Mulliken charges:
               1
     1  C   -0.545800
     2  C    1.336539
     3  C   -0.904409
     4  C    0.147124
     5  C   -0.470061
     6  C    0.147125
     7  C   -0.904410
     8  H    0.163103
     9  H    0.140602
    10  H    0.140602
    11  H    0.135074
    12  H    0.163984
    13  H    0.151472
    14  H    0.163984
    15  H    0.135074
 Sum of Mulliken charges =  -0.00000
 Mulliken charges with hydrogens summed into heavy atoms:
               1
     1  C   -0.101495
     2  C    1.336539
     3  C   -0.769335
     4  C    0.311108
     5  C   -0.318590
     6  C    0.311108
     7  C   -0.769336
 Electronic spatial extent (au):  <R**2>=            720.1169
 Charge=             -0.0000 electrons
 Dipole moment (field-independent basis, Debye):
    X=             -0.4001    Y=             -0.0000    Z=              0.0339  Tot=              0.4015
 Quadrupole moment (field-independent basis, Debye-Ang):
   XX=            -38.7068   YY=            -39.1020   ZZ=            -46.5768
   XY=              0.0000   XZ=             -0.0301   YZ=              0.0000
 Traceless Quadrupole moment (field-independent basis, Debye-Ang):
   XX=              2.7551   YY=              2.3599   ZZ=             -5.1150
   XY=              0.0000   XZ=             -0.0301   YZ=              0.0000
 Octapole moment (field-independent basis, Debye-Ang**2):
  XXX=              4.0931  YYY=              0.0000  ZZZ=              0.7152  XYY=              0.9776
  XXY=             -0.0000  XXZ=              0.1083  XZZ=             -4.0494  YZZ=             -0.0000
  YYZ=             -0.6414  XYZ=             -0.0000
 Hexadecapole moment (field-independent basis, Debye-Ang**3):
 XXXX=           -619.7832 YYYY=           -292.3159 ZZZZ=            -63.2521 XXXY=             -0.0000
 XXXZ=              0.2988 YYYX=             -0.0000 YYYZ=              0.0000 ZZZX=             -1.9534
 ZZZY=             -0.0000 XXYY=           -149.0581 XXZZ=           -122.7489 YYZZ=            -70.0030
 XXYZ=              0.0000 YYXZ=              1.8031 ZZXY=              0.0000
 N-N= 2.690289351778D+02 E-N=-1.167529720626D+03  KE= 2.703347812027D+02
 ******************************Gaussian NBO Version 3.1******************************
             N A T U R A L   A T O M I C   O R B I T A L   A N D
          N A T U R A L   B O N D   O R B I T A L   A N A L Y S I S
 ******************************Gaussian NBO Version 3.1******************************
       /RESON  / : Allow strongly delocalized NBO set

 Analyzing the SCF density

 Job title: CC1=CC=CC=C1                                                    

 Storage needed:    133260 in NPA,    177277 in NBO (1258289925 available)
 GSVD:  LWork=        8730 too small for GESVD, short by       60831 words or       60831 for optimal perf.


 NATURAL POPULATIONS:  Natural atomic orbital occupancies 
                                                          
   NAO  Atom  No  lang   Type(AO)    Occupancy      Energy
 ----------------------------------------------------------
     1    C    1  S      Cor( 1S)     1.99928     -10.02559
     2    C    1  S      Val( 2S)     1.07607      -0.23971
     3    C    1  S      Ryd( 4S)     0.00055       0.79224
     4    C    1  S      Ryd( 3S)     0.00008       0.73265
     5    C    1  S      Ryd( 5S)     0.00000      23.24117
     6    C    1  px     Val( 2p)     1.07733      -0.08351
     7    C    1  px     Ryd( 4p)     0.00108       0.47062
     8    C    1  px     Ryd( 3p)     0.00014       0.45529
     9    C    1  px     Ryd( 5p)     0.00008       2.93178
    10    C    1  py     Val( 2p)     1.21643      -0.09399
    11    C    1  py     Ryd( 4p)     0.00375       0.51779
    12    C    1  py     Ryd( 3p)     0.00008       0.45693
    13    C    1  py     Ryd( 5p)     0.00002       2.95549
    14    C    1  pz     Val( 2p)     1.20939      -0.09466
    15    C    1  pz     Ryd( 4p)     0.00046       0.50045
    16    C    1  pz     Ryd( 3p)     0.00004       0.44277
    17    C    1  pz     Ryd( 5p)     0.00004       2.93677
    18    C    1  dxy    Ryd( 3d)     0.00052       2.08921
    19    C    1  dxz    Ryd( 3d)     0.00063       1.93150
    20    C    1  dyz    Ryd( 3d)     0.00058       2.04684
    21    C    1  dx2y2  Ryd( 3d)     0.00075       2.22541
    22    C    1  dz2    Ryd( 3d)     0.00071       2.10529
 
    23    C    2  S      Cor( 1S)     1.99904     -10.03910
    24    C    2  S      Val( 2S)     0.89236      -0.13787
    25    C    2  S      Ryd( 4S)     0.00067       0.73971
    26    C    2  S      Ryd( 3S)     0.00011       0.56086
    27    C    2  S      Ryd( 5S)     0.00001      23.34380
    28    C    2  px     Val( 2p)     1.05687      -0.05243
    29    C    2  px     Ryd( 4p)     0.00639       1.21729
    30    C    2  px     Ryd( 3p)     0.00023       0.80310
    31    C    2  px     Ryd( 5p)     0.00008       3.02185
    32    C    2  py     Val( 2p)     1.08563      -0.04644
    33    C    2  py     Ryd( 4p)     0.00326       0.87951
    34    C    2  py     Ryd( 3p)     0.00028       0.73276
    35    C    2  py     Ryd( 5p)     0.00012       2.96902
    36    C    2  pz     Val( 2p)     0.98112      -0.09757
    37    C    2  pz     Ryd( 3p)     0.00140       0.57347
    38    C    2  pz     Ryd( 4p)     0.00038       0.67546
    39    C    2  pz     Ryd( 5p)     0.00002       2.40063
    40    C    2  dxy    Ryd( 3d)     0.00087       2.61205
    41    C    2  dxz    Ryd( 3d)     0.00063       1.67686
    42    C    2  dyz    Ryd( 3d)     0.00052       1.67414
    43    C    2  dx2y2  Ryd( 3d)     0.00071       2.47832
    44    C    2  dz2    Ryd( 3d)     0.00036       2.08870
 
    45    C    3  S      Cor( 1S)     1.99904     -10.02340
    46    C    3  S      Val( 2S)     0.94166      -0.14830
    47    C    3  S      Ryd( 4S)     0.00128       0.89718
    48    C    3  S      Ryd( 3S)     0.00011       0.56984
    49    C    3  S      Ryd( 5S)     0.00001      23.16118
    50    C    3  px     Val( 2p)     1.09383      -0.04575
    51    C    3  px     Ryd( 4p)     0.00479       0.89822
    52    C    3  px     Ryd( 3p)     0.00031       0.42688
    53    C    3  px     Ryd( 5p)     0.00011       3.16108
    54    C    3  py     Val( 2p)     1.14341      -0.04520
    55    C    3  py     Ryd( 4p)     0.00552       0.99579
    56    C    3  py     Ryd( 3p)     0.00025       0.43669
    57    C    3  py     Ryd( 5p)     0.00007       3.13969
    58    C    3  pz     Val( 2p)     1.01004      -0.10580
    59    C    3  pz     Ryd( 4p)     0.00106       0.51373
    60    C    3  pz     Ryd( 3p)     0.00039       0.29269
    61    C    3  pz     Ryd( 5p)     0.00001       2.72530
    62    C    3  dxy    Ryd( 3d)     0.00080       2.51769
    63    C    3  dxz    Ryd( 3d)     0.00046       1.66454
    64    C    3  dyz    Ryd( 3d)     0.00042       1.63768
    65    C    3  dx2y2  Ryd( 3d)     0.00073       2.56998
    66    C    3  dz2    Ryd( 3d)     0.00038       2.07134
 
    67    C    4  S      Cor( 1S)     1.99915     -10.02855
    68    C    4  S      Val( 2S)     0.95057      -0.15864
    69    C    4  S      Ryd( 3S)     0.00148       0.78532
    70    C    4  S      Ryd( 4S)     0.00009       1.12921
    71    C    4  S      Ryd( 5S)     0.00000      22.63246
    72    C    4  px     Val( 2p)     1.08829      -0.04220
    73    C    4  px     Ryd( 4p)     0.00507       0.85036
    74    C    4  px     Ryd( 3p)     0.00036       0.39497
    75    C    4  px     Ryd( 5p)     0.00013       3.09762
    76    C    4  py     Val( 2p)     1.14512      -0.04534
    77    C    4  py     Ryd( 4p)     0.00665       1.00219
    78    C    4  py     Ryd( 3p)     0.00022       0.45703
    79    C    4  py     Ryd( 5p)     0.00008       3.10277
    80    C    4  pz     Val( 2p)     0.99427      -0.10554
    81    C    4  pz     Ryd( 4p)     0.00109       0.51439
    82    C    4  pz     Ryd( 3p)     0.00033       0.30440
    83    C    4  pz     Ryd( 5p)     0.00001       2.69382
    84    C    4  dxy    Ryd( 3d)     0.00079       2.51612
    85    C    4  dxz    Ryd( 3d)     0.00048       1.66306
    86    C    4  dyz    Ryd( 3d)     0.00039       1.63029
    87    C    4  dx2y2  Ryd( 3d)     0.00069       2.56839
    88    C    4  dz2    Ryd( 3d)     0.00039       2.06598
 
    89    C    5  S      Cor( 1S)     1.99915     -10.02687
    90    C    5  S      Val( 2S)     0.95134      -0.15786
    91    C    5  S      Ryd( 3S)     0.00131       0.85239
    92    C    5  S      Ryd( 4S)     0.00007       1.18174
    93    C    5  S      Ryd( 5S)     0.00000      22.57226
    94    C    5  px     Val( 2p)     1.17132      -0.04516
    95    C    5  px     Ryd( 4p)     0.00664       1.07706
    96    C    5  px     Ryd( 3p)     0.00017       0.49254
    97    C    5  px     Ryd( 5p)     0.00005       3.08239
    98    C    5  py     Val( 2p)     1.06330      -0.04371
    99    C    5  py     Ryd( 4p)     0.00463       0.76912
   100    C    5  py     Ryd( 3p)     0.00053       0.37382
   101    C    5  py     Ryd( 5p)     0.00015       3.08343
   102    C    5  pz     Val( 2p)     1.01003      -0.10546
   103    C    5  pz     Ryd( 4p)     0.00133       0.51382
   104    C    5  pz     Ryd( 3p)     0.00027       0.30440
   105    C    5  pz     Ryd( 5p)     0.00002       2.69382
   106    C    5  dxy    Ryd( 3d)     0.00066       2.59857
   107    C    5  dxz    Ryd( 3d)     0.00037       1.61729
   108    C    5  dyz    Ryd( 3d)     0.00048       1.67712
   109    C    5  dx2y2  Ryd( 3d)     0.00085       2.48930
   110    C    5  dz2    Ryd( 3d)     0.00039       2.07721
 
   111    C    6  S      Cor( 1S)     1.99915     -10.02855
   112    C    6  S      Val( 2S)     0.95057      -0.15864
   113    C    6  S      Ryd( 3S)     0.00148       0.78532
   114    C    6  S      Ryd( 4S)     0.00009       1.12921
   115    C    6  S      Ryd( 5S)     0.00000      22.63246
   116    C    6  px     Val( 2p)     1.08829      -0.04220
   117    C    6  px     Ryd( 4p)     0.00507       0.85036
   118    C    6  px     Ryd( 3p)     0.00036       0.39497
   119    C    6  px     Ryd( 5p)     0.00013       3.09762
   120    C    6  py     Val( 2p)     1.14512      -0.04534
   121    C    6  py     Ryd( 4p)     0.00665       1.00219
   122    C    6  py     Ryd( 3p)     0.00022       0.45703
   123    C    6  py     Ryd( 5p)     0.00008       3.10277
   124    C    6  pz     Val( 2p)     0.99427      -0.10554
   125    C    6  pz     Ryd( 4p)     0.00109       0.51439
   126    C    6  pz     Ryd( 3p)     0.00033       0.30440
   127    C    6  pz     Ryd( 5p)     0.00001       2.69382
   128    C    6  dxy    Ryd( 3d)     0.00079       2.51612
   129    C    6  dxz    Ryd( 3d)     0.00048       1.66306
   130    C    6  dyz    Ryd( 3d)     0.00039       1.63029
   131    C    6  dx2y2  Ryd( 3d)     0.00069       2.56839
   132    C    6  dz2    Ryd( 3d)     0.00039       2.06598
 
   133    C    7  S      Cor( 1S)     1.99904     -10.02340
   134    C    7  S      Val( 2S)     0.94166      -0.14830
   135    C    7  S      Ryd( 4S)     0.00128       0.89718
   136    C    7  S      Ryd( 3S)     0.00011       0.56984
   137    C    7  S      Ryd( 5S)     0.00001      23.16118
   138    C    7  px     Val( 2p)     1.09383      -0.04575
   139    C    7  px     Ryd( 4p)     0.00479       0.89822
   140    C    7  px     Ryd( 3p)     0.00031       0.42688
   141    C    7  px     Ryd( 5p)     0.00011       3.16108
   142    C    7  py     Val( 2p)     1.14341      -0.04520
   143    C    7  py     Ryd( 4p)     0.00552       0.99579
   144    C    7  py     Ryd( 3p)     0.00025       0.43669
   145    C    7  py     Ryd( 5p)     0.00007       3.13969
   146    C    7  pz     Val( 2p)     1.01004      -0.10580
   147    C    7  pz     Ryd( 4p)     0.00106       0.51373
   148    C    7  pz     Ryd( 3p)     0.00039       0.29269
   149    C    7  pz     Ryd( 5p)     0.00001       2.72530
   150    C    7  dxy    Ryd( 3d)     0.00080       2.51769
   151    C    7  dxz    Ryd( 3d)     0.00046       1.66454
   152    C    7  dyz    Ryd( 3d)     0.00042       1.63768
   153    C    7  dx2y2  Ryd( 3d)     0.00073       2.56998
   154    C    7  dz2    Ryd( 3d)     0.00038       2.07134
 
   155    H    8  S      Val( 1S)     0.78631       0.03638
   156    H    8  S      Ryd( 2S)     0.00090       0.49988
   157    H    8  S      Ryd( 4S)     0.00012       1.95270
   158    H    8  S      Ryd( 3S)     0.00006       0.57380
   159    H    8  px     Ryd( 2p)     0.00021       1.85078
   160    H    8  py     Ryd( 2p)     0.00014       1.79789
   161    H    8  pz     Ryd( 2p)     0.00030       2.55231
 
   162    H    9  S      Val( 1S)     0.79183       0.03599
   163    H    9  S      Ryd( 3S)     0.00090       0.56015
   164    H    9  S      Ryd( 4S)     0.00013       1.98652
   165    H    9  S      Ryd( 2S)     0.00007       0.45051
   166    H    9  px     Ryd( 2p)     0.00017       1.85298
   167    H    9  py     Ryd( 2p)     0.00023       2.35252
   168    H    9  pz     Ryd( 2p)     0.00016       1.95488
 
   169    H   10  S      Val( 1S)     0.79183       0.03599
   170    H   10  S      Ryd( 3S)     0.00090       0.56015
   171    H   10  S      Ryd( 4S)     0.00013       1.98652
   172    H   10  S      Ryd( 2S)     0.00007       0.45051
   173    H   10  px     Ryd( 2p)     0.00017       1.85298
   174    H   10  py     Ryd( 2p)     0.00023       2.35252
   175    H   10  pz     Ryd( 2p)     0.00016       1.95488
 
   176    H   11  S      Val( 1S)     0.79844       0.05116
   177    H   11  S      Ryd( 3S)     0.00087       0.76097
   178    H   11  S      Ryd( 4S)     0.00018       1.88409
   179    H   11  S      Ryd( 2S)     0.00007       0.34862
   180    H   11  px     Ryd( 2p)     0.00019       2.17518
   181    H   11  py     Ryd( 2p)     0.00038       2.54519
   182    H   11  pz     Ryd( 2p)     0.00020       1.60447
 
   183    H   12  S      Val( 1S)     0.79563       0.05453
   184    H   12  S      Ryd( 3S)     0.00083       0.60170
   185    H   12  S      Ryd( 4S)     0.00018       2.18210
   186    H   12  S      Ryd( 2S)     0.00002       0.19248
   187    H   12  px     Ryd( 2p)     0.00020       2.15161
   188    H   12  py     Ryd( 2p)     0.00037       2.52493
   189    H   12  pz     Ryd( 2p)     0.00020       1.59735
 
   190    H   13  S      Val( 1S)     0.79482       0.05564
   191    H   13  S      Ryd( 3S)     0.00080       0.65947
   192    H   13  S      Ryd( 4S)     0.00018       2.09723
   193    H   13  S      Ryd( 2S)     0.00003       0.21284
   194    H   13  px     Ryd( 2p)     0.00045       2.70792
   195    H   13  py     Ryd( 2p)     0.00012       1.97381
   196    H   13  pz     Ryd( 2p)     0.00020       1.59841
 
   197    H   14  S      Val( 1S)     0.79563       0.05453
   198    H   14  S      Ryd( 3S)     0.00083       0.60170
   199    H   14  S      Ryd( 4S)     0.00018       2.18210
   200    H   14  S      Ryd( 2S)     0.00002       0.19248
   201    H   14  px     Ryd( 2p)     0.00020       2.15161
   202    H   14  py     Ryd( 2p)     0.00037       2.52493
   203    H   14  pz     Ryd( 2p)     0.00020       1.59735
 
   204    H   15  S      Val( 1S)     0.79844       0.05116
   205    H   15  S      Ryd( 3S)     0.00087       0.76097
   206    H   15  S      Ryd( 4S)     0.00018       1.88409
   207    H   15  S      Ryd( 2S)     0.00007       0.34862
   208    H   15  px     Ryd( 2p)     0.00019       2.17518
   209    H   15  py     Ryd( 2p)     0.00038       2.54519
   210    H   15  pz     Ryd( 2p)     0.00020       1.60447

 WARNING:  Population inversion found on atom  C    1
           Population inversion found on atom  C    2
           Population inversion found on atom  C    3
           Population inversion found on atom  C    4
           Population inversion found on atom  C    5
           Population inversion found on atom  C    6
           Population inversion found on atom  C    7
           Population inversion found on atom  H    8
           Population inversion found on atom  H    9
           Population inversion found on atom  H   10
           Population inversion found on atom  H   11
           Population inversion found on atom  H   12
           Population inversion found on atom  H   13
           Population inversion found on atom  H   14
           Population inversion found on atom  H   15


 Summary of Natural Population Analysis:                  
                                                          
                                       Natural Population 
                Natural  -----------------------------------------------
    Atom  No    Charge         Core      Valence    Rydberg      Total
 -----------------------------------------------------------------------
      C    1   -0.58802      1.99928     4.57921    0.00953     6.58802
      C    2   -0.03108      1.99904     4.01598    0.01605     6.03108
      C    3   -0.20468      1.99904     4.18894    0.01670     6.20468
      C    4   -0.19566      1.99915     4.17826    0.01825     6.19566
      C    5   -0.21305      1.99915     4.19599    0.01791     6.21305
      C    6   -0.19566      1.99915     4.17826    0.01825     6.19566
      C    7   -0.20468      1.99904     4.18894    0.01670     6.20468
      H    8    0.21196      0.00000     0.78631    0.00173     0.78804
      H    9    0.20651      0.00000     0.79183    0.00166     0.79349
      H   10    0.20651      0.00000     0.79183    0.00166     0.79349
      H   11    0.19967      0.00000     0.79844    0.00189     0.80033
      H   12    0.20256      0.00000     0.79563    0.00181     0.79744
      H   13    0.20340      0.00000     0.79482    0.00178     0.79660
      H   14    0.20256      0.00000     0.79563    0.00181     0.79744
      H   15    0.19967      0.00000     0.79844    0.00189     0.80033
 =======================================================================
   * Total *   -0.00000     13.99387    35.87853    0.12760    50.00000

                                 Natural Population      
 --------------------------------------------------------
   Core                      13.99387 ( 99.9562% of  14)
   Valence                   35.87853 ( 99.6626% of  36)
   Natural Minimal Basis     49.87240 ( 99.7448% of  50)
   Natural Rydberg Basis      0.12760 (  0.2552% of  50)
 --------------------------------------------------------

    Atom  No          Natural Electron Configuration
 ----------------------------------------------------------------------------
      C    1      [core]2S( 1.08)2p( 3.50)4p( 0.01)
      C    2      [core]2S( 0.89)2p( 3.12)4p( 0.01)
      C    3      [core]2S( 0.94)2p( 3.25)4p( 0.01)
      C    4      [core]2S( 0.95)2p( 3.23)4p( 0.01)
      C    5      [core]2S( 0.95)2p( 3.24)4p( 0.01)
      C    6      [core]2S( 0.95)2p( 3.23)4p( 0.01)
      C    7      [core]2S( 0.94)2p( 3.25)4p( 0.01)
      H    8            1S( 0.79)
      H    9            1S( 0.79)
      H   10            1S( 0.79)
      H   11            1S( 0.80)
      H   12            1S( 0.80)
      H   13            1S( 0.79)
      H   14            1S( 0.80)
      H   15            1S( 0.80)


 NATURAL BOND ORBITAL ANALYSIS:

                       Occupancies       Lewis Structure    Low   High
           Occ.    -------------------  -----------------   occ   occ
  Cycle   Thresh.   Lewis   Non-Lewis     CR  BD  3C  LP    (L)   (NL)   Dev
 =============================================================================
   1(1)    1.90    46.72451   3.27549      7  15   0   3     3      3    0.44
   2(2)    1.90    46.72451   3.27549      7  15   0   3     3      3    0.44
   3(1)    1.80    46.72451   3.27549      7  15   0   3     3      3    0.44
   4(2)    1.80    46.72451   3.27549      7  15   0   3     3      3    0.44
   5(1)    1.70    46.72451   3.27549      7  15   0   3     3      3    0.44
   6(2)    1.70    46.72451   3.27549      7  15   0   3     3      3    0.44
   7(1)    1.60    48.67794   1.32206      7  18   0   0     0      3    0.44
   8(2)    1.60    48.04706   1.95294      7  17   0   1     1      3    0.43
   9(3)    1.60    48.67794   1.32206      7  18   0   0     0      3    0.44
  10(4)    1.60    48.04706   1.95294      7  17   0   1     1      3    0.43
  11(5)    1.60    48.67794   1.32206      7  18   0   0     0      3    0.44
  12(6)    1.60    48.04706   1.95294      7  17   0   1     1      3    0.43
  13(7)    1.60    48.67794   1.32206      7  18   0   0     0      3    0.44
  14(8)    1.60    48.04706   1.95294      7  17   0   1     1      3    0.43
  15(9)    1.60    48.67794   1.32206      7  18   0   0     0      3    0.44
  16(1)    1.50    48.67794   1.32206      7  18   0   0     0      3    0.44
  17(2)    1.50    48.04706   1.95294      7  17   0   1     1      3    0.43
  18(3)    1.50    48.67794   1.32206      7  18   0   0     0      3    0.44
  19(4)    1.50    48.04706   1.95294      7  17   0   1     1      3    0.43
  20(5)    1.50    48.67794   1.32206      7  18   0   0     0      3    0.44
  21(6)    1.50    48.04706   1.95294      7  17   0   1     1      3    0.43
  22(7)    1.50    48.67794   1.32206      7  18   0   0     0      3    0.44
  23(8)    1.50    48.04706   1.95294      7  17   0   1     1      3    0.43
  24(9)    1.50    48.67794   1.32206      7  18   0   0     0      3    0.44
  25(1)    1.60    48.67794   1.32206      7  18   0   0     0      3    0.44
 -----------------------------------------------------------------------------

 Structure accepted: RESONANCE keyword permits strongly delocalized structure

 --------------------------------------------------------
   Core                     13.99388 ( 99.956% of  14)
   Valence Lewis            34.68406 ( 96.345% of  36)
  ==================       ============================
   Total Lewis              48.67794 ( 97.356% of  50)
  -----------------------------------------------------
   Valence non-Lewis         1.23821 (  2.476% of  50)
   Rydberg non-Lewis         0.08385 (  0.168% of  50)
  ==================       ============================
   Total non-Lewis           1.32206 (  2.644% of  50)
 --------------------------------------------------------


       (Occupancy)   Bond orbital/ Coefficients/ Hybrids
 ---------------------------------------------------------------------------------
     1. (1.98277) BD ( 1) C   1 - C   2  
                ( 49.17%)   0.7012* C   1 s( 30.33%)p 2.30( 69.63%)d 0.00(  0.04%)
                                            0.0003  0.5504  0.0182  0.0024 -0.0001
                                            0.8341 -0.0127 -0.0091 -0.0003  0.0000
                                           -0.0000  0.0000  0.0000 -0.0152  0.0012
                                           -0.0014 -0.0003  0.0000 -0.0002 -0.0000
                                            0.0182 -0.0099
                ( 50.83%)   0.7129* C   2 s( 31.22%)p 2.20( 68.75%)d 0.00(  0.03%)
                                           -0.0001  0.5587  0.0027 -0.0069  0.0004
                                           -0.8291 -0.0065  0.0075  0.0029  0.0000
                                           -0.0000  0.0000 -0.0000  0.0043  0.0007
                                           -0.0004  0.0002 -0.0000 -0.0010  0.0000
                                            0.0145 -0.0097
     2. (1.97621) BD ( 1) C   1 - H   8  
                ( 60.52%)   0.7779* C   1 s( 22.92%)p 3.36( 77.02%)d 0.00(  0.06%)
                                            0.0001 -0.4787  0.0077 -0.0002 -0.0002
                                            0.3002 -0.0138 -0.0023  0.0009  0.0000
                                            0.0000  0.0000 -0.0000 -0.8245 -0.0065
                                           -0.0035 -0.0009 -0.0000  0.0128  0.0000
                                           -0.0015 -0.0211
                ( 39.48%)   0.6283* H   8 s( 99.97%)p 0.00(  0.03%)
                                           -0.9998 -0.0013 -0.0004 -0.0000 -0.0054
                                           -0.0000  0.0168
     3. (1.98672) BD ( 1) C   1 - H   9  
                ( 60.30%)   0.7765* C   1 s( 23.39%)p 3.27( 76.55%)d 0.00(  0.06%)
                                            0.0001 -0.4836  0.0045  0.0010  0.0000
                                            0.3259 -0.0126  0.0006  0.0009  0.7067
                                            0.0118  0.0016 -0.0008  0.3994  0.0025
                                            0.0021  0.0005 -0.0117 -0.0064 -0.0153
                                            0.0123  0.0043
                ( 39.70%)   0.6301* H   9 s( 99.97%)p 0.00(  0.03%)
                                           -0.9998 -0.0006 -0.0005  0.0000 -0.0074
                                           -0.0142 -0.0092
     4. (1.98672) BD ( 1) C   1 - H  10  
                ( 60.30%)   0.7765* C   1 s( 23.39%)p 3.27( 76.55%)d 0.00(  0.06%)
                                            0.0001 -0.4836  0.0045  0.0010  0.0000
                                            0.3259 -0.0126  0.0006  0.0009 -0.7067
                                           -0.0118 -0.0016  0.0008  0.3994  0.0025
                                            0.0021  0.0005  0.0117 -0.0064  0.0153
                                            0.0123  0.0043
                ( 39.70%)   0.6301* H  10 s( 99.97%)p 0.00(  0.03%)
                                           -0.9998 -0.0006 -0.0005  0.0000 -0.0074
                                            0.0142 -0.0092
     5. (1.97423) BD ( 1) C   2 - C   3  
                ( 50.59%)   0.7112* C   2 s( 34.36%)p 1.91( 65.60%)d 0.00(  0.04%)
                                            0.0000  0.5862 -0.0020  0.0034 -0.0002
                                            0.3948  0.0165 -0.0060 -0.0007 -0.7067
                                            0.0169  0.0060 -0.0016  0.0038  0.0003
                                            0.0002  0.0000 -0.0159  0.0004 -0.0005
                                           -0.0070 -0.0105
                ( 49.41%)   0.7030* C   3 s( 36.04%)p 1.77( 63.91%)d 0.00(  0.04%)
                                            0.0001  0.6003 -0.0058  0.0059  0.0009
                                           -0.4267  0.0307  0.0041 -0.0011  0.6752
                                            0.0019 -0.0120  0.0004  0.0007  0.0013
                                           -0.0001 -0.0001 -0.0139 -0.0001  0.0002
                                           -0.0093 -0.0117
     6. (1.97423) BD ( 1) C   2 - C   7  
                ( 50.59%)   0.7112* C   2 s( 34.36%)p 1.91( 65.60%)d 0.00(  0.04%)
                                            0.0000  0.5862 -0.0020  0.0034 -0.0002
                                            0.3948  0.0165 -0.0060 -0.0007  0.7067
                                           -0.0169 -0.0060  0.0016  0.0033  0.0003
                                            0.0002  0.0000  0.0159  0.0004  0.0005
                                           -0.0070 -0.0105
                ( 49.41%)   0.7030* C   7 s( 36.04%)p 1.77( 63.91%)d 0.00(  0.04%)
                                            0.0001  0.6003 -0.0058  0.0059  0.0009
                                           -0.4267  0.0307  0.0041 -0.0011 -0.6752
                                           -0.0019  0.0120 -0.0004  0.0008  0.0013
                                           -0.0001 -0.0001  0.0139 -0.0001 -0.0002
                                           -0.0093 -0.0117
     7. (1.64720) BD ( 2) C   2 - C   7  
                ( 48.88%)   0.6991* C   2 s(  0.00%)p 1.00( 99.95%)d 0.00(  0.04%)
                                           -0.0000 -0.0066 -0.0013 -0.0001 -0.0000
                                            0.0007 -0.0006 -0.0003 -0.0000  0.0003
                                           -0.0011  0.0006 -0.0003  0.9995  0.0098
                                            0.0183  0.0027 -0.0002  0.0181  0.0100
                                           -0.0003 -0.0002
                ( 51.12%)   0.7150* C   7 s(  0.00%)p 1.00( 99.96%)d 0.00(  0.04%)
                                           -0.0000 -0.0018 -0.0004 -0.0007  0.0000
                                           -0.0059  0.0001  0.0004  0.0004  0.0034
                                            0.0002  0.0014 -0.0003  0.9995  0.0136
                                            0.0173 -0.0013  0.0001  0.0008 -0.0202
                                            0.0003  0.0001
     8. (1.97832) BD ( 1) C   3 - C   4  
                ( 50.19%)   0.7085* C   3 s( 35.85%)p 1.79( 64.11%)d 0.00(  0.04%)
                                           -0.0000  0.5984 -0.0182 -0.0041 -0.0002
                                            0.7990 -0.0187 -0.0092  0.0010 -0.0264
                                            0.0398 -0.0043 -0.0008  0.0062 -0.0004
                                           -0.0002  0.0001  0.0025  0.0004 -0.0001
                                            0.0171 -0.0119
                ( 49.81%)   0.7057* C   4 s( 35.85%)p 1.79( 64.11%)d 0.00(  0.04%)
                                            0.0000  0.5986 -0.0136 -0.0012 -0.0000
                                           -0.7989  0.0203 -0.0116 -0.0009 -0.0235
                                            0.0406  0.0042 -0.0003 -0.0056  0.0004
                                           -0.0000 -0.0000 -0.0023  0.0003 -0.0000
                                            0.0167 -0.0120
     9. (1.67224) BD ( 2) C   3 - C   4  
                ( 50.59%)   0.7112* C   3 s(  0.00%)p 1.00( 99.96%)d 0.00(  0.04%)
                                            0.0000 -0.0013  0.0009 -0.0003  0.0002
                                           -0.0070 -0.0004 -0.0000  0.0003 -0.0044
                                            0.0002 -0.0011  0.0003  0.9995  0.0149
                                            0.0179 -0.0023 -0.0003  0.0166  0.0104
                                            0.0001  0.0001
                ( 49.41%)   0.7029* C   4 s(  0.00%)p 1.00( 99.96%)d 0.00(  0.04%)
                                            0.0000  0.0003  0.0000 -0.0002 -0.0000
                                           -0.0067  0.0000 -0.0000 -0.0001 -0.0040
                                           -0.0003  0.0002 -0.0001  0.9994  0.0185
                                           -0.0170 -0.0016  0.0000 -0.0175  0.0104
                                            0.0002 -0.0003
    10. (1.97991) BD ( 1) C   3 - H  11  
                ( 60.10%)   0.7752* C   3 s( 28.11%)p 2.56( 71.85%)d 0.00(  0.04%)
                                            0.0004 -0.5298 -0.0204  0.0014  0.0006
                                            0.4204  0.0131  0.0003  0.0000  0.7358
                                            0.0106 -0.0010  0.0015  0.0055 -0.0002
                                            0.0001  0.0001 -0.0163 -0.0001 -0.0005
                                            0.0097  0.0086
                ( 39.90%)   0.6317* H  11 s( 99.95%)p 0.00(  0.05%)
                                           -0.9998 -0.0018 -0.0011 -0.0001 -0.0101
                                           -0.0189  0.0000
    11. (1.97934) BD ( 1) C   4 - C   5  
                ( 50.06%)   0.7075* C   4 s( 35.84%)p 1.79( 64.12%)d 0.00(  0.04%)
                                            0.0000  0.5985 -0.0144 -0.0004 -0.0001
                                            0.4277 -0.0445  0.0018  0.0008  0.6754
                                            0.0021  0.0106  0.0004  0.0054 -0.0003
                                           -0.0000  0.0000  0.0137  0.0001  0.0002
                                           -0.0100 -0.0119
                ( 49.94%)   0.7067* C   5 s( 35.69%)p 1.80( 64.27%)d 0.00(  0.04%)
                                            0.0000  0.5972 -0.0133 -0.0006 -0.0001
                                           -0.3772 -0.0235  0.0087 -0.0001 -0.7059
                                            0.0382  0.0065 -0.0010 -0.0021 -0.0001
                                            0.0001  0.0000  0.0159  0.0001  0.0001
                                           -0.0065 -0.0121
    12. (1.98059) BD ( 1) C   4 - H  12  
                ( 60.22%)   0.7760* C   4 s( 28.32%)p 2.53( 71.64%)d 0.00(  0.04%)
                                            0.0004 -0.5316 -0.0239 -0.0015 -0.0001
                                           -0.4189 -0.0085  0.0001 -0.0009  0.7352
                                            0.0166 -0.0009  0.0015  0.0003  0.0000
                                           -0.0000  0.0000  0.0166  0.0001 -0.0000
                                            0.0099  0.0085
                ( 39.78%)   0.6307* H  12 s( 99.95%)p 0.00(  0.05%)
                                           -0.9998 -0.0014 -0.0010 -0.0001  0.0108
                                           -0.0190 -0.0000
    13. (1.97934) BD ( 1) C   5 - C   6  
                ( 49.94%)   0.7067* C   5 s( 35.69%)p 1.80( 64.27%)d 0.00(  0.04%)
                                            0.0000  0.5972 -0.0133 -0.0006 -0.0001
                                           -0.3772 -0.0235  0.0087 -0.0001  0.7059
                                           -0.0382 -0.0065  0.0010 -0.0011 -0.0001
                                            0.0001  0.0000 -0.0159  0.0001 -0.0001
                                           -0.0065 -0.0121
                ( 50.06%)   0.7075* C   6 s( 35.84%)p 1.79( 64.12%)d 0.00(  0.04%)
                                            0.0000  0.5985 -0.0144 -0.0004 -0.0001
                                            0.4277 -0.0445  0.0018  0.0008 -0.6754
                                           -0.0021 -0.0106 -0.0004  0.0061 -0.0002
                                           -0.0000  0.0000 -0.0137  0.0001 -0.0002
                                           -0.0100 -0.0119
    14. (1.66701) BD ( 2) C   5 - C   6  
                ( 50.60%)   0.7113* C   5 s(  0.00%)p 1.00( 99.96%)d 0.00(  0.04%)
                                            0.0000 -0.0006  0.0004  0.0005  0.0001
                                           -0.0052 -0.0001 -0.0004  0.0001 -0.0007
                                            0.0001 -0.0001 -0.0001  0.9995  0.0188
                                            0.0148 -0.0020 -0.0001 -0.0180  0.0092
                                            0.0000 -0.0003
                ( 49.40%)   0.7029* C   6 s(  0.00%)p 1.00( 99.96%)d 0.00(  0.04%)
                                           -0.0000 -0.0004  0.0003  0.0003  0.0001
                                           -0.0078 -0.0002  0.0006 -0.0001  0.0038
                                            0.0002  0.0000  0.0001  0.9995  0.0168
                                           -0.0151 -0.0021  0.0000 -0.0004 -0.0202
                                            0.0001  0.0000
    15. (1.98041) BD ( 1) C   5 - H  13  
                ( 60.26%)   0.7763* C   5 s( 28.63%)p 2.49( 71.33%)d 0.00(  0.04%)
                                           -0.0004  0.5346  0.0228  0.0013  0.0003
                                            0.8444  0.0179  0.0008  0.0015 -0.0000
                                            0.0000 -0.0000 -0.0000  0.0047  0.0001
                                            0.0000 -0.0000 -0.0000  0.0001  0.0000
                                            0.0191 -0.0083
                ( 39.74%)   0.6304* H  13 s( 99.95%)p 0.00(  0.05%)
                                            0.9998  0.0014  0.0010 -0.0001 -0.0217
                                            0.0000 -0.0001
    16. (1.97832) BD ( 1) C   6 - C   7  
                ( 49.81%)   0.7057* C   6 s( 35.85%)p 1.79( 64.11%)d 0.00(  0.04%)
                                            0.0000  0.5986 -0.0136 -0.0012 -0.0000
                                           -0.7989  0.0203 -0.0116 -0.0009  0.0235
                                           -0.0406 -0.0042  0.0003 -0.0060  0.0004
                                           -0.0000 -0.0000  0.0023  0.0003  0.0000
                                            0.0167 -0.0120
                ( 50.19%)   0.7085* C   7 s( 35.85%)p 1.79( 64.11%)d 0.00(  0.04%)
                                           -0.0000  0.5984 -0.0182 -0.0041 -0.0002
                                            0.7990 -0.0187 -0.0092  0.0010  0.0264
                                           -0.0398  0.0043  0.0008  0.0057 -0.0004
                                           -0.0002  0.0001 -0.0025  0.0004  0.0001
                                            0.0171 -0.0119
    17. (1.98059) BD ( 1) C   6 - H  14  
                ( 60.22%)   0.7760* C   6 s( 28.32%)p 2.53( 71.64%)d 0.00(  0.04%)
                                           -0.0004  0.5316  0.0239  0.0015  0.0001
                                            0.4189  0.0085 -0.0001  0.0009  0.7352
                                            0.0166 -0.0009  0.0015  0.0007 -0.0000
                                            0.0000 -0.0000  0.0166 -0.0001 -0.0000
                                           -0.0099 -0.0085
                ( 39.78%)   0.6307* H  14 s( 99.95%)p 0.00(  0.05%)
                                            0.9998  0.0014  0.0010  0.0001 -0.0108
                                           -0.0190  0.0000
    18. (1.97991) BD ( 1) C   7 - H  15  
                ( 60.10%)   0.7752* C   7 s( 28.11%)p 2.56( 71.85%)d 0.00(  0.04%)
                                           -0.0004  0.5298  0.0204 -0.0014 -0.0006
                                           -0.4204 -0.0131 -0.0003 -0.0000  0.7358
                                            0.0106 -0.0010  0.0015 -0.0040  0.0002
                                           -0.0001 -0.0001 -0.0163  0.0001 -0.0006
                                           -0.0097 -0.0086
                ( 39.90%)   0.6317* H  15 s( 99.95%)p 0.00(  0.05%)
                                            0.9998  0.0018  0.0011  0.0001  0.0101
                                           -0.0189 -0.0000
    19. (1.99928) CR ( 1) C   1           s(100.00%)p 0.00(  0.00%)
                                            1.0000 -0.0001 -0.0000 -0.0000  0.0000
                                           -0.0004  0.0000  0.0000 -0.0000 -0.0000
                                           -0.0000 -0.0000 -0.0000  0.0000 -0.0000
                                            0.0000  0.0000 -0.0000  0.0000  0.0000
                                           -0.0000  0.0000
    20. (1.99905) CR ( 1) C   2           s(100.00%)p 0.00(  0.00%)
                                            1.0000  0.0000  0.0000 -0.0000  0.0000
                                           -0.0001 -0.0000  0.0000  0.0000  0.0000
                                           -0.0000  0.0000 -0.0000  0.0000  0.0000
                                            0.0000  0.0000 -0.0000  0.0000  0.0000
                                            0.0000 -0.0000
    21. (1.99905) CR ( 1) C   3           s(100.00%)p 0.00(  0.00%)
                                            1.0000  0.0002  0.0000 -0.0000 -0.0000
                                           -0.0001 -0.0000 -0.0000  0.0000 -0.0004
                                           -0.0000  0.0000 -0.0000 -0.0000 -0.0000
                                           -0.0000  0.0000  0.0000 -0.0000 -0.0000
                                           -0.0000 -0.0000
    22. (1.99916) CR ( 1) C   4           s(100.00%)p 0.00(  0.00%)
                                            1.0000  0.0002  0.0000  0.0000  0.0000
                                            0.0002  0.0000  0.0000  0.0000 -0.0003
                                           -0.0000 -0.0000 -0.0000 -0.0000 -0.0000
                                            0.0000  0.0000 -0.0000  0.0000 -0.0000
                                           -0.0000 -0.0000
    23. (1.99915) CR ( 1) C   5           s(100.00%)p 0.00(  0.00%)
                                            1.0000  0.0002  0.0000  0.0000  0.0000
                                            0.0004  0.0000 -0.0000  0.0000  0.0000
                                           -0.0000  0.0000  0.0000  0.0000  0.0000
                                           -0.0000 -0.0000  0.0000  0.0000 -0.0000
                                            0.0000 -0.0000
    24. (1.99916) CR ( 1) C   6           s(100.00%)p 0.00(  0.00%)
                                            1.0000  0.0002  0.0000  0.0000  0.0000
                                            0.0002  0.0000  0.0000  0.0000  0.0003
                                            0.0000  0.0000  0.0000  0.0000  0.0000
                                           -0.0000 -0.0000  0.0000 -0.0000 -0.0000
                                           -0.0000 -0.0000
    25. (1.99905) CR ( 1) C   7           s(100.00%)p 0.00(  0.00%)
                                            1.0000  0.0002  0.0000 -0.0000 -0.0000
                                           -0.0001 -0.0000 -0.0000  0.0000  0.0004
                                            0.0000 -0.0000  0.0000 -0.0000 -0.0000
                                           -0.0000 -0.0000 -0.0000  0.0000 -0.0000
                                           -0.0000 -0.0000
    26. (0.00369) RY*( 1) C   1           s(  0.00%)p 1.00( 94.61%)d 0.06(  5.39%)
                                            0.0000  0.0000  0.0000 -0.0000 -0.0000
                                           -0.0000 -0.0000 -0.0000  0.0000 -0.0196
                                            0.9714 -0.0367 -0.0289  0.0000  0.0000
                                            0.0000  0.0000 -0.2314 -0.0000  0.0178
                                            0.0000  0.0000
    27. (0.00083) RY*( 2) C   1           s(  0.02%)p99.99( 55.40%)d99.99( 44.58%)
                                           -0.0000  0.0019  0.0053  0.0126 -0.0007
                                           -0.0020 -0.0866 -0.0230  0.0038 -0.0000
                                            0.0000 -0.0000 -0.0000  0.0175 -0.7016
                                            0.0663 -0.2214 -0.0000  0.6633  0.0000
                                           -0.0164 -0.0746
    28. (0.00039) RY*( 3) C   1           s( 14.33%)p 5.64( 80.81%)d 0.34(  4.86%)
                                            0.0000  0.0110 -0.0689  0.3720 -0.0078
                                           -0.0231 -0.8700  0.1642 -0.1346 -0.0000
                                           -0.0000 -0.0000 -0.0000  0.0002  0.0341
                                            0.0469  0.0465  0.0000 -0.0799 -0.0000
                                            0.1418 -0.1486
    29. (0.00020) RY*( 4) C   1           s( 51.29%)p 0.82( 42.11%)d 0.13(  6.61%)
                                            0.0000  0.0030  0.6875 -0.1936  0.0518
                                           -0.0133 -0.2554  0.1797  0.5574  0.0000
                                           -0.0000  0.0000  0.0000 -0.0007  0.0589
                                           -0.0823 -0.0497  0.0000  0.0448 -0.0000
                                           -0.1096  0.2281
    30. (0.00009) RY*( 5) C   1           s(  0.00%)p 1.00( 86.66%)d 0.15( 13.34%)
    31. (0.00008) RY*( 6) C   1           s( 26.53%)p 1.69( 44.83%)d 1.08( 28.64%)
    32. (0.00002) RY*( 7) C   1           s(  1.63%)p27.84( 45.28%)d32.65( 53.09%)
    33. (0.00001) RY*( 8) C   1           s(  9.31%)p 0.31(  2.91%)d 9.43( 87.78%)
    34. (0.00000) RY*( 9) C   1           s(  0.00%)p 1.00(100.00%)d 0.00(  0.00%)
    35. (0.00000) RY*(10) C   1           s( 17.24%)p 4.13( 71.12%)d 0.68( 11.64%)
    36. (0.00000) RY*(11) C   1           s(  2.84%)p33.54( 95.36%)d 0.63(  1.80%)
    37. (0.00000) RY*(12) C   1           s(  0.13%)p99.99( 99.05%)d 6.17(  0.82%)
    38. (0.00000) RY*(13) C   1           s(  0.00%)p 1.00( 17.93%)d 4.58( 82.07%)
    39. (0.00000) RY*(14) C   1           s( 77.72%)p 0.19( 15.01%)d 0.09(  7.27%)
    40. (0.00001) RY*(15) C   1           s(  0.00%)p 1.00(  0.87%)d99.99( 99.13%)
    41. (0.00000) RY*(16) C   1           s(  0.20%)p99.99( 47.45%)d99.99( 52.35%)
    42. (0.00000) RY*(17) C   1           s( 98.73%)p 0.01(  0.84%)d 0.00(  0.42%)
    43. (0.00661) RY*( 1) C   2           s(  3.90%)p23.23( 90.69%)d 1.38(  5.40%)
                                            0.0000 -0.0140  0.1937  0.0361  0.0050
                                           -0.0209  0.9513  0.0105  0.0363  0.0000
                                            0.0001 -0.0000  0.0000  0.0006 -0.0076
                                            0.0065 -0.0020  0.0000  0.0068 -0.0003
                                           -0.2273  0.0481
    44. (0.00295) RY*( 2) C   2           s(  0.00%)p 1.00( 95.00%)d 0.05(  5.00%)
                                            0.0000 -0.0000  0.0004  0.0002  0.0000
                                            0.0000 -0.0001 -0.0001 -0.0001  0.0175
                                            0.9643 -0.1009 -0.0983  0.0012 -0.0007
                                            0.0004  0.0000  0.2235 -0.0015 -0.0034
                                            0.0000  0.0001
    45. (0.00156) RY*( 3) C   2           s(  5.32%)p15.31( 81.38%)d 2.50( 13.31%)
                                            0.0000  0.0022  0.2166  0.0790  0.0039
                                            0.0013 -0.0486 -0.0123 -0.0269 -0.0000
                                           -0.0012 -0.0005  0.0006  0.0158 -0.8972
                                            0.0105 -0.0726 -0.0007 -0.3614 -0.0154
                                            0.0182  0.0439
    46. (0.00062) RY*( 4) C   2           s(  0.03%)p10.09(  0.33%)d99.99( 99.64%)
                                            0.0000  0.0000  0.0175  0.0039  0.0002
                                            0.0002 -0.0033 -0.0016 -0.0019  0.0027
                                            0.0127 -0.0106 -0.0025  0.0102  0.0472
                                            0.0230  0.0099 -0.0765 -0.0632 -0.9933
                                            0.0001  0.0018
    47. (0.00040) RY*( 5) C   2           s(  0.00%)p 1.00( 54.02%)d 0.85( 45.98%)
                                           -0.0000  0.0000  0.0037 -0.0022 -0.0002
                                            0.0000 -0.0009  0.0024 -0.0001  0.0254
                                            0.1809  0.6026 -0.3789 -0.0009 -0.0061
                                           -0.0047 -0.0017 -0.6763  0.0141  0.0477
                                           -0.0009 -0.0010
    48. (0.00039) RY*( 6) C   2           s( 80.62%)p 0.20( 16.09%)d 0.04(  3.29%)
                                           -0.0000  0.0036  0.8918 -0.1031 -0.0149
                                            0.0090 -0.1894  0.2077 -0.0436 -0.0001
                                           -0.0009  0.0009  0.0004 -0.0004  0.2728
                                            0.0632  0.0382  0.0033 -0.1592  0.0403
                                           -0.0679 -0.0358
    49. (0.00027) RY*( 7) C   2           s(  6.02%)p 3.36( 20.21%)d12.26( 73.77%)
                                           -0.0000  0.0003  0.2000 -0.1409 -0.0172
                                            0.0024 -0.0548  0.1456 -0.0204 -0.0002
                                           -0.0010 -0.0130  0.0053 -0.0062 -0.3042
                                           -0.2743 -0.0973  0.0049  0.8491 -0.0733
                                           -0.0671 -0.0823
    50. (0.00014) RY*( 8) C   2           s( 10.91%)p 7.39( 80.57%)d 0.78(  8.52%)
                                            0.0000 -0.0017  0.1856  0.2078 -0.1773
                                           -0.0107 -0.1161 -0.7561  0.4692 -0.0000
                                            0.0000 -0.0002  0.0000 -0.0022  0.0164
                                            0.0063 -0.0055 -0.0000  0.1009 -0.0010
                                           -0.2673 -0.0599
    51. (0.00010) RY*( 9) C   2           s(  8.16%)p 2.50( 20.38%)d 8.76( 71.46%)
                                           -0.0000  0.0095  0.1285  0.1995  0.1587
                                            0.0103  0.0623  0.0613  0.4314  0.0000
                                            0.0001 -0.0013 -0.0000  0.0003  0.0349
                                           -0.0927 -0.0131 -0.0006  0.0950 -0.0035
                                            0.5995  0.5884
    52. (0.00007) RY*(10) C   2           s( 13.55%)p 1.97( 26.64%)d 4.41( 59.81%)
    53. (0.00008) RY*(11) C   2           s(  0.00%)p 1.00( 55.63%)d 0.80( 44.37%)
    54. (0.00004) RY*(12) C   2           s(  0.00%)p 1.00( 95.36%)d 0.05(  4.64%)
    55. (0.00001) RY*(13) C   2           s( 22.88%)p 1.19( 27.19%)d 2.18( 49.93%)
    56. (0.00000) RY*(14) C   2           s( 55.54%)p 0.74( 41.02%)d 0.06(  3.44%)
    57. (0.00000) RY*(15) C   2           s(  0.02%)p99.99( 92.49%)d99.99(  7.49%)
    58. (0.00000) RY*(16) C   2           s(  0.00%)p 1.00( 99.57%)d 0.00(  0.42%)
    59. (0.00000) RY*(17) C   2           s( 93.09%)p 0.04(  3.55%)d 0.04(  3.36%)
    60. (0.00597) RY*( 1) C   3           s(  0.25%)p99.99( 94.38%)d21.54(  5.37%)
                                           -0.0000  0.0145  0.0332  0.0343 -0.0005
                                            0.0159 -0.6147 -0.0079 -0.0139  0.0304
                                           -0.7470  0.0686 -0.0406  0.0002  0.0066
                                           -0.0038  0.0017  0.1943  0.0022  0.0049
                                           -0.1241 -0.0220
    61. (0.00213) RY*( 2) C   3           s(  0.31%)p99.99( 97.73%)d 6.21(  1.96%)
                                           -0.0000 -0.0106  0.0518  0.0066  0.0176
                                           -0.0326 -0.7397  0.2017  0.1300  0.0162
                                            0.5985 -0.1082 -0.0354 -0.0010  0.0026
                                           -0.0039  0.0043 -0.0668  0.0115  0.0027
                                           -0.1123  0.0484
    62. (0.00088) RY*( 3) C   3           s(  1.66%)p53.73( 88.96%)d 5.67(  9.39%)
                                            0.0000  0.0007  0.1268 -0.0183  0.0119
                                            0.0059  0.0247  0.0702 -0.0213  0.0005
                                           -0.0089 -0.0090  0.0085 -0.0117  0.9099
                                            0.2138  0.0973 -0.0117 -0.1792 -0.2447
                                           -0.0389  0.0144
    63. (0.00061) RY*( 4) C   3           s(  5.79%)p 0.16(  0.93%)d16.10( 93.28%)
                                            0.0000  0.0013  0.2389  0.0273  0.0114
                                            0.0052  0.0121 -0.0327 -0.0481  0.0037
                                            0.0012  0.0358  0.0101 -0.0092  0.0004
                                            0.0156 -0.0633 -0.0279  0.8291 -0.4939
                                           -0.0213  0.0106
    64. (0.00047) RY*( 5) C   3           s( 81.23%)p 0.11(  8.96%)d 0.12(  9.81%)
                                           -0.0000  0.0055  0.9009  0.0012  0.0238
                                            0.0253  0.0662  0.1220 -0.2243  0.0119
                                           -0.0226  0.0187  0.0389  0.0028 -0.1237
                                           -0.0394  0.0002 -0.1220 -0.1658  0.1883
                                           -0.1306  0.0572
    65. (0.00019) RY*( 6) C   3           s( 14.92%)p 3.07( 45.87%)d 2.63( 39.21%)
                                            0.0000 -0.0032 -0.2038  0.3206 -0.0697
                                            0.0207  0.1327  0.5668 -0.1374 -0.0202
                                           -0.1371 -0.2594 -0.1161 -0.0008 -0.0218
                                            0.0056 -0.0017 -0.3585  0.0632  0.0157
                                           -0.4430 -0.2512
    66. (0.00011) RY*( 7) C   3           s(  3.51%)p23.85( 83.59%)d 3.68( 12.90%)
                                           -0.0000 -0.0007  0.1440  0.1019 -0.0627
                                            0.0071  0.0689 -0.2686  0.5844 -0.0001
                                           -0.0112  0.2262 -0.5983  0.0020 -0.0462
                                            0.0767 -0.0131 -0.2021 -0.0910 -0.0891
                                           -0.2376 -0.1246
    67. (0.00011) RY*( 8) C   3           s( 17.95%)p 1.16( 20.90%)d 3.41( 61.15%)
                                            0.0000 -0.0107  0.0840  0.3984 -0.1165
                                           -0.0139 -0.1640 -0.2890 -0.1998 -0.0033
                                           -0.0062 -0.2249 -0.0836  0.0006  0.0259
                                           -0.0063  0.0093 -0.2883 -0.0553 -0.0355
                                            0.5536 -0.4666
    68. (0.00004) RY*( 9) C   3           s( 16.58%)p 3.06( 50.81%)d 1.97( 32.61%)
    69. (0.00005) RY*(10) C   3           s(  2.00%)p23.76( 47.57%)d25.19( 50.43%)
    70. (0.00000) RY*(11) C   3           s(  0.01%)p 1.00( 99.75%)d 0.00(  0.25%)
    71. (0.00001) RY*(12) C   3           s(  1.18%)p17.41( 20.57%)d66.22( 78.25%)
    72. (0.00000) RY*(13) C   3           s( 90.39%)p 0.01(  0.66%)d 0.10(  8.95%)
    73. (0.00001) RY*(14) C   3           s(  5.31%)p 7.86( 41.74%)d 9.97( 52.94%)
    74. (0.00000) RY*(15) C   3           s(  0.04%)p99.99( 92.08%)d99.99(  7.88%)
    75. (0.00000) RY*(16) C   3           s(  3.10%)p29.85( 92.50%)d 1.42(  4.40%)
    76. (0.00001) RY*(17) C   3           s( 55.77%)p 0.24( 13.18%)d 0.56( 31.05%)
    77. (0.00635) RY*( 1) C   4           s(  0.73%)p99.99( 94.40%)d 6.71(  4.87%)
                                           -0.0000  0.0183 -0.0308  0.0773  0.0030
                                           -0.0214  0.4438  0.0485  0.0405  0.0309
                                           -0.8585 -0.0419 -0.0536 -0.0002 -0.0026
                                           -0.0010 -0.0005 -0.1901 -0.0005 -0.0017
                                           -0.1094 -0.0250
    78. (0.00228) RY*( 2) C   4           s(  0.88%)p99.99( 98.16%)d 1.08(  0.95%)
                                           -0.0000 -0.0004  0.0901  0.0263  0.0063
                                           -0.0416 -0.8387 -0.1511  0.1880 -0.0215
                                           -0.4406 -0.1124  0.1050 -0.0002 -0.0125
                                           -0.0022  0.0020 -0.0278  0.0033  0.0023
                                            0.0934  0.0003
    79. (0.00079) RY*( 3) C   4           s(  0.04%)p99.99( 87.80%)d99.99( 12.16%)
                                            0.0000 -0.0001  0.0180 -0.0091 -0.0004
                                            0.0004  0.0161 -0.0256 -0.0022  0.0009
                                            0.0078  0.0015  0.0035  0.0151 -0.9028
                                            0.2226 -0.1101 -0.0074 -0.0961  0.3350
                                            0.0074 -0.0031
    80. (0.00062) RY*( 4) C   4           s(  0.17%)p 7.57(  1.28%)d99.99( 98.55%)
                                           -0.0000  0.0005  0.0255  0.0320  0.0044
                                           -0.0011 -0.0036  0.0549  0.0058  0.0003
                                            0.0020 -0.0033 -0.0022  0.0104  0.0807
                                            0.0549 -0.0084  0.0045  0.8908  0.4378
                                           -0.0100  0.0153
    81. (0.00043) RY*( 5) C   4           s( 92.98%)p 0.04(  3.74%)d 0.04(  3.28%)
                                            0.0000  0.0043  0.9599 -0.0895 -0.0180
                                           -0.0071  0.1098  0.0086  0.0476  0.0291
                                           -0.0011 -0.0158 -0.1463 -0.0007  0.0177
                                           -0.0056  0.0073  0.0445 -0.0181 -0.0112
                                            0.1650 -0.0561
    82. (0.00025) RY*( 6) C   4           s(  2.33%)p32.58( 75.94%)d 9.32( 21.73%)
                                            0.0000 -0.0011 -0.0583  0.1386  0.0263
                                            0.0234  0.1194 -0.7178 -0.2705  0.0116
                                            0.0594 -0.3697 -0.1233  0.0003  0.0247
                                           -0.0022  0.0005 -0.2672  0.0394  0.0113
                                            0.3797 -0.0078
    83. (0.00011) RY*( 7) C   4           s( 33.10%)p 0.27(  8.99%)d 1.75( 57.91%)
                                            0.0000 -0.0087 -0.0986  0.5604 -0.0846
                                            0.0060  0.0210  0.1208  0.1488 -0.0103
                                           -0.0179 -0.0146 -0.2275  0.0000 -0.0144
                                           -0.0047 -0.0007  0.4013 -0.0087 -0.0088
                                            0.3013 -0.5720
    84. (0.00008) RY*( 8) C   4           s(  3.37%)p12.49( 42.12%)d16.16( 54.51%)
    85. (0.00004) RY*( 9) C   4           s(  1.93%)p38.61( 74.55%)d12.18( 23.51%)
    86. (0.00002) RY*(10) C   4           s(  6.17%)p 4.02( 24.84%)d11.18( 68.99%)
    87. (0.00001) RY*(11) C   4           s( 38.63%)p 0.63( 24.33%)d 0.96( 37.04%)
    88. (0.00000) RY*(12) C   4           s(  0.97%)p99.67( 96.46%)d 2.66(  2.57%)
    89. (0.00000) RY*(13) C   4           s( 96.63%)p 0.02(  2.22%)d 0.01(  1.15%)
    90. (0.00000) RY*(14) C   4           s(  1.22%)p78.07( 95.12%)d 3.00(  3.66%)
    91. (0.00000) RY*(15) C   4           s(  0.01%)p 1.00( 12.07%)d 7.28( 87.92%)
    92. (0.00000) RY*(16) C   4           s( 20.82%)p 3.42( 71.16%)d 0.39(  8.03%)
    93. (0.00000) RY*(17) C   4           s(  0.01%)p 1.00( 87.00%)d 0.15( 12.99%)
    94. (0.00601) RY*( 1) C   5           s(  1.02%)p91.89( 93.54%)d 5.34(  5.44%)
                                            0.0000 -0.0169  0.0977 -0.0162  0.0092
                                            0.0341 -0.9637  0.0419 -0.0612 -0.0000
                                           -0.0000  0.0000  0.0000  0.0001 -0.0036
                                            0.0010  0.0003  0.0000 -0.0023 -0.0001
                                           -0.2319  0.0252
    95. (0.00216) RY*( 2) C   5           s(  0.00%)p 1.00( 99.18%)d 0.01(  0.82%)
                                           -0.0000  0.0000 -0.0000 -0.0000 -0.0000
                                            0.0000 -0.0000  0.0000 -0.0000  0.0468
                                            0.9397 -0.2533 -0.2057 -0.0001 -0.0005
                                           -0.0001 -0.0001 -0.0907 -0.0002  0.0033
                                           -0.0000 -0.0000
    96. (0.00095) RY*( 3) C   5           s(  0.04%)p99.99( 88.86%)d99.99( 11.09%)
                                           -0.0000  0.0003  0.0127  0.0166  0.0030
                                           -0.0004 -0.0039 -0.0205  0.0026  0.0001
                                            0.0016  0.0014  0.0004 -0.0128  0.9205
                                            0.1589  0.1245  0.0018  0.3151 -0.1077
                                           -0.0002  0.0047
    97. (0.00056) RY*( 4) C   5           s(  0.00%)p 1.00(  1.15%)d86.15( 98.85%)
                                            0.0000  0.0000  0.0018  0.0019  0.0003
                                           -0.0000 -0.0005 -0.0023  0.0004 -0.0013
                                           -0.0133 -0.0279 -0.0004 -0.0106  0.0996
                                            0.0170  0.0135 -0.0236  0.0343  0.9934
                                           -0.0002  0.0004
    98. (0.00039) RY*( 5) C   5           s(  0.00%)p 1.00( 86.02%)d 0.16( 13.98%)
                                           -0.0000  0.0000  0.0000  0.0000  0.0000
                                           -0.0000 -0.0000 -0.0000  0.0000  0.0276
                                            0.2021  0.8572 -0.2896 -0.0002  0.0016
                                            0.0003  0.0002  0.3722  0.0005  0.0354
                                           -0.0000  0.0000
    99. (0.00029) RY*( 6) C   5           s( 93.42%)p 0.06(  5.44%)d 0.01(  1.14%)
                                           -0.0000  0.0036  0.9480 -0.1742 -0.0722
                                           -0.0290  0.1067  0.0699  0.1930 -0.0000
                                           -0.0000 -0.0000  0.0000 -0.0004 -0.0077
                                            0.0014  0.0008  0.0000 -0.0020 -0.0004
                                           -0.0846 -0.0649
   100. (0.00011) RY*( 7) C   5           s( 38.83%)p 0.25(  9.88%)d 1.32( 51.30%)
                                            0.0000 -0.0107 -0.0386  0.6178 -0.0711
                                            0.0080  0.0442  0.0578  0.3055  0.0000
                                            0.0000 -0.0000  0.0000 -0.0002 -0.0065
                                           -0.0040  0.0001  0.0000  0.0012 -0.0002
                                           -0.3801 -0.6070
   101. (0.00007) RY*( 8) C   5           s(  0.00%)p 1.00( 33.18%)d 2.01( 66.82%)
   102. (0.00003) RY*( 9) C   5           s( 17.03%)p 4.52( 77.07%)d 0.35(  5.89%)
   103. (0.00003) RY*(10) C   5           s( 23.61%)p 0.31(  7.20%)d 2.93( 69.19%)
   104. (0.00000) RY*(11) C   5           s(  0.02%)p99.99( 99.97%)d 0.13(  0.00%)
   105. (0.00000) RY*(12) C   5           s(  0.00%)p 1.00( 99.84%)d 0.00(  0.16%)
   106. (0.00000) RY*(13) C   5           s(  6.26%)p13.94( 87.22%)d 1.04(  6.52%)
   107. (0.00000) RY*(14) C   5           s(  0.00%)p 1.00( 10.37%)d 8.65( 89.63%)
   108. (0.00001) RY*(15) C   5           s(  0.00%)p 1.00( 81.57%)d 0.23( 18.43%)
   109. (0.00000) RY*(16) C   5           s( 97.89%)p 0.01(  1.06%)d 0.01(  1.05%)
   110. (0.00000) RY*(17) C   5           s( 21.87%)p 0.85( 18.61%)d 2.72( 59.52%)
   111. (0.00635) RY*( 1) C   6           s(  0.73%)p99.99( 94.40%)d 6.71(  4.87%)
                                           -0.0000  0.0183 -0.0308  0.0773  0.0030
                                           -0.0214  0.4438  0.0486  0.0405 -0.0309
                                            0.8585  0.0419  0.0536 -0.0001 -0.0026
                                           -0.0010 -0.0005  0.1901 -0.0003  0.0017
                                           -0.1095 -0.0250
   112. (0.00228) RY*( 2) C   6           s(  0.88%)p99.99( 98.16%)d 1.08(  0.95%)
                                            0.0000 -0.0004  0.0901  0.0263  0.0063
                                           -0.0416 -0.8387 -0.1511  0.1880  0.0215
                                            0.4406  0.1124 -0.1050 -0.0005 -0.0132
                                           -0.0021  0.0020  0.0278  0.0031 -0.0025
                                            0.0934  0.0003
   113. (0.00084) RY*( 3) C   6           s(  0.05%)p99.99( 76.52%)d99.99( 23.43%)
                                           -0.0000  0.0000  0.0213  0.0010  0.0011
                                            0.0002  0.0146 -0.0095 -0.0014 -0.0009
                                           -0.0084  0.0002 -0.0030  0.0083 -0.8371
                                            0.2291 -0.1074  0.0063  0.1758 -0.4510
                                            0.0037  0.0018
   114. (0.00058) RY*( 4) C   6           s(  0.14%)p89.08( 12.58%)d99.99( 87.28%)
                                           -0.0000  0.0005  0.0167  0.0334  0.0042
                                           -0.0012 -0.0093  0.0628  0.0071  0.0001
                                            0.0006  0.0028  0.0025 -0.0121  0.3474
                                           -0.0141  0.0249 -0.0075  0.8787 -0.3166
                                           -0.0133  0.0157
   115. (0.00043) RY*( 5) C   6           s( 93.01%)p 0.04(  3.73%)d 0.04(  3.26%)
                                           -0.0000  0.0043  0.9601 -0.0894 -0.0180
                                           -0.0071  0.1098  0.0088  0.0476 -0.0291
                                            0.0011  0.0158  0.1463 -0.0004  0.0156
                                           -0.0049  0.0070 -0.0445 -0.0153  0.0088
                                            0.1649 -0.0561
   116. (0.00025) RY*( 6) C   6           s(  2.33%)p32.52( 75.92%)d 9.31( 21.75%)
                                           -0.0000 -0.0011 -0.0582  0.1388  0.0263
                                            0.0234  0.1193 -0.7176 -0.2705 -0.0116
                                           -0.0594  0.3697  0.1234 -0.0002  0.0275
                                           -0.0027  0.0008  0.2671  0.0421 -0.0115
                                            0.3797 -0.0078
   117. (0.00011) RY*( 7) C   6           s( 33.10%)p 0.27(  8.99%)d 1.75( 57.92%)
                                            0.0000 -0.0087 -0.0986  0.5604 -0.0846
                                            0.0060  0.0210  0.1208  0.1488  0.0103
                                            0.0179  0.0145  0.2275  0.0001 -0.0149
                                           -0.0046 -0.0007 -0.4013 -0.0090  0.0087
                                            0.3012 -0.5720
   118. (0.00008) RY*( 8) C   6           s(  3.37%)p12.49( 42.12%)d16.16( 54.51%)
   119. (0.00004) RY*( 9) C   6           s(  1.93%)p38.62( 74.55%)d12.18( 23.52%)
   120. (0.00002) RY*(10) C   6           s(  6.26%)p 3.96( 24.76%)d11.03( 68.98%)
   121. (0.00001) RY*(11) C   6           s( 38.48%)p 0.63( 24.42%)d 0.96( 37.09%)
   122. (0.00000) RY*(12) C   6           s(  1.00%)p96.07( 96.32%)d 2.67(  2.67%)
   123. (0.00000) RY*(13) C   6           s( 96.61%)p 0.02(  2.24%)d 0.01(  1.15%)
   124. (0.00000) RY*(14) C   6           s(  1.16%)p82.14( 95.30%)d 3.05(  3.54%)
   125. (0.00000) RY*(15) C   6           s(  0.01%)p 1.00( 12.08%)d 7.28( 87.91%)
   126. (0.00000) RY*(16) C   6           s( 20.90%)p 3.38( 70.66%)d 0.40(  8.44%)
   127. (0.00000) RY*(17) C   6           s(  0.03%)p99.99( 87.42%)d99.99( 12.55%)
   128. (0.00597) RY*( 1) C   7           s(  0.25%)p99.99( 94.38%)d21.52(  5.37%)
                                           -0.0000  0.0145  0.0333  0.0343 -0.0005
                                            0.0159 -0.6148 -0.0079 -0.0139 -0.0304
                                            0.7470 -0.0686  0.0406  0.0003  0.0067
                                           -0.0037  0.0016 -0.1943  0.0026 -0.0046
                                           -0.1242 -0.0220
   129. (0.00213) RY*( 2) C   7           s(  0.32%)p99.99( 97.72%)d 6.15(  1.96%)
                                           -0.0000 -0.0106  0.0522  0.0067  0.0177
                                           -0.0326 -0.7397  0.2016  0.1299 -0.0162
                                           -0.5985  0.1082  0.0353 -0.0003  0.0053
                                           -0.0032  0.0044  0.0668  0.0140 -0.0002
                                           -0.1123  0.0483
   130. (0.00091) RY*( 3) C   7           s(  2.13%)p39.59( 84.42%)d 6.31( 13.45%)
                                            0.0000  0.0008  0.1450 -0.0115  0.0131
                                            0.0060  0.0269  0.0551 -0.0248 -0.0008
                                            0.0098  0.0023 -0.0097 -0.0082  0.8879
                                            0.2118  0.0795  0.0138  0.0346  0.3627
                                           -0.0369  0.0133
   131. (0.00059) RY*( 4) C   7           s(  2.47%)p 2.42(  5.98%)d37.04( 91.55%)
                                           -0.0000  0.0007  0.1541  0.0306  0.0059
                                            0.0019  0.0016 -0.0643 -0.0318 -0.0028
                                           -0.0038 -0.0319 -0.0073  0.0115 -0.2123
                                           -0.0375 -0.0832  0.0192  0.8572  0.4246
                                            0.0037  0.0001
   132. (0.00047) RY*( 5) C   7           s( 84.09%)p 0.10(  8.55%)d 0.09(  7.36%)
                                            0.0000  0.0056  0.9166  0.0025  0.0249
                                            0.0258  0.0673  0.1225 -0.2267 -0.0122
                                            0.0223 -0.0216 -0.0393 -0.0004 -0.1011
                                           -0.0325 -0.0016  0.1233 -0.1197 -0.1506
                                           -0.1338  0.0588
   133. (0.00019) RY*( 6) C   7           s( 14.95%)p 3.06( 45.77%)d 2.63( 39.28%)
                                            0.0000 -0.0032 -0.2033  0.3214 -0.0699
                                            0.0207  0.1324  0.5656 -0.1379  0.0202
                                            0.1370  0.2599  0.1160 -0.0003 -0.0239
                                            0.0049 -0.0022  0.3591  0.0687 -0.0136
                                           -0.4421 -0.2521
   134. (0.00011) RY*( 7) C   7           s(  3.63%)p22.98( 83.47%)d 3.55( 12.89%)
                                            0.0000 -0.0008  0.1447  0.1064 -0.0638
                                            0.0070  0.0671 -0.2715  0.5822  0.0002
                                            0.0112 -0.2242  0.5991  0.0018 -0.0452
                                            0.0771 -0.0132  0.2050 -0.0896  0.0915
                                           -0.2318 -0.1294
   135. (0.00011) RY*( 8) C   7           s( 17.74%)p 1.18( 20.98%)d 3.45( 61.28%)
                                           -0.0000 -0.0107  0.0826  0.3963 -0.1158
                                           -0.0140 -0.1648 -0.2859 -0.2055  0.0033
                                            0.0061  0.2269  0.0775  0.0003  0.0274
                                           -0.0068  0.0102  0.2855 -0.0637  0.0295
                                            0.5571 -0.4648
   136. (0.00004) RY*( 9) C   7           s( 16.66%)p 3.05( 50.78%)d 1.96( 32.57%)
   137. (0.00005) RY*(10) C   7           s(  1.99%)p23.90( 47.59%)d25.33( 50.42%)
   138. (0.00000) RY*(11) C   7           s(  0.01%)p 1.00( 99.76%)d 0.00(  0.24%)
   139. (0.00001) RY*(12) C   7           s(  1.21%)p17.07( 20.58%)d64.84( 78.21%)
   140. (0.00000) RY*(13) C   7           s( 90.40%)p 0.01(  0.66%)d 0.10(  8.94%)
   141. (0.00001) RY*(14) C   7           s(  5.33%)p 7.82( 41.71%)d 9.93( 52.96%)
   142. (0.00000) RY*(15) C   7           s(  0.04%)p99.99( 92.07%)d99.99(  7.88%)
   143. (0.00000) RY*(16) C   7           s(  3.10%)p29.85( 92.51%)d 1.42(  4.39%)
   144. (0.00001) RY*(17) C   7           s( 55.68%)p 0.24( 13.24%)d 0.56( 31.09%)
   145. (0.00097) RY*( 1) H   8           s( 91.35%)p 0.09(  8.65%)
                                           -0.0030  0.9556  0.0128 -0.0133  0.2938
                                           -0.0000 -0.0140
   146. (0.00017) RY*( 2) H   8           s( 46.52%)p 1.15( 53.48%)
                                            0.0013 -0.2131  0.6143 -0.2060  0.6710
                                            0.0000  0.2907
   147. (0.00014) RY*( 3) H   8           s(  0.00%)p 1.00(100.00%)
                                            0.0000  0.0000  0.0000  0.0000 -0.0000
                                            1.0000  0.0000
   148. (0.00010) RY*( 4) H   8           s( 70.69%)p 0.41( 29.31%)
                                            0.0064  0.1502  0.6357  0.5294 -0.4801
                                           -0.0000  0.2501
   149. (0.00006) RY*( 5) H   8           s( 44.86%)p 1.23( 55.14%)
   150. (0.00002) RY*( 6) H   8           s( 46.61%)p 1.15( 53.39%)
   151. (0.00093) RY*( 1) H   9           s( 96.30%)p 0.04(  3.70%)
                                           -0.0028  0.9813  0.0046 -0.0055  0.1821
                                            0.0621  0.0019
   152. (0.00016) RY*( 2) H   9           s( 58.03%)p 0.72( 41.97%)
                                            0.0006 -0.0964  0.7385 -0.1601  0.5713
                                           -0.2140 -0.2179
   153. (0.00012) RY*( 3) H   9           s(  4.59%)p20.77( 95.41%)
                                            0.0013  0.0294  0.2095 -0.0342 -0.3459
                                            0.5527 -0.7273
   154. (0.00010) RY*( 4) H   9           s( 61.96%)p 0.61( 38.04%)
   155. (0.00005) RY*( 5) H   9           s( 72.52%)p 0.38( 27.48%)
   156. (0.00002) RY*( 6) H   9           s(  6.63%)p14.08( 93.37%)
   157. (0.00093) RY*( 1) H  10           s( 96.30%)p 0.04(  3.70%)
                                           -0.0028  0.9813  0.0046 -0.0055  0.1821
                                           -0.0621  0.0019
   158. (0.00016) RY*( 2) H  10           s( 58.03%)p 0.72( 41.97%)
                                            0.0006 -0.0964  0.7385 -0.1601  0.5713
                                            0.2140 -0.2179
   159. (0.00012) RY*( 3) H  10           s(  4.59%)p20.77( 95.41%)
                                            0.0013  0.0294  0.2095 -0.0342 -0.3459
                                           -0.5527 -0.7273
   160. (0.00010) RY*( 4) H  10           s( 61.96%)p 0.61( 38.04%)
   161. (0.00005) RY*( 5) H  10           s( 72.52%)p 0.38( 27.48%)
   162. (0.00002) RY*( 6) H  10           s(  6.63%)p14.08( 93.37%)
   163. (0.00088) RY*( 1) H  11           s( 99.19%)p 0.01(  0.81%)
                                           -0.0035  0.9959 -0.0029 -0.0012  0.0753
                                            0.0471 -0.0155
   164. (0.00020) RY*( 2) H  11           s( 88.41%)p 0.13( 11.59%)
                                            0.0058  0.0223  0.9396 -0.0281 -0.0484
                                           -0.3369 -0.0000
   165. (0.00020) RY*( 3) H  11           s(  0.06%)p99.99( 99.94%)
                                            0.0000 -0.0158 -0.0002  0.0192  0.0059
                                           -0.0040 -0.9997
   166. (0.00013) RY*( 4) H  11           s( 20.32%)p 3.92( 79.68%)
                                           -0.0006  0.0394  0.1274  0.4306 -0.7799
                                            0.4342  0.0013
   167. (0.00006) RY*( 5) H  11           s( 81.48%)p 0.23( 18.52%)
   168. (0.00004) RY*( 6) H  11           s( 10.58%)p 8.45( 89.42%)
   169. (0.00084) RY*( 1) H  12           s( 98.44%)p 0.02(  1.56%)
                                           -0.0041  0.9921 -0.0063 -0.0005 -0.0614
                                            0.1088  0.0021
   170. (0.00020) RY*( 2) H  12           s( 91.80%)p 0.09(  8.20%)
                                            0.0046  0.0381  0.9574 -0.0050  0.2396
                                           -0.1568 -0.0002
   171. (0.00020) RY*( 3) H  12           s(  0.04%)p99.99( 99.96%)
                                           -0.0001  0.0016 -0.0017  0.0210  0.0142
                                            0.0123 -0.9996
   172. (0.00012) RY*( 4) H  12           s(  3.90%)p24.67( 96.10%)
                                            0.0008  0.0067  0.1229  0.1543 -0.8302
                                           -0.5212 -0.0152
   173. (0.00003) RY*( 5) H  12           s( 16.42%)p 5.09( 83.58%)
   174. (0.00002) RY*( 6) H  12           s( 89.44%)p 0.12( 10.56%)
   175. (0.00081) RY*( 1) H  13           s( 98.71%)p 0.01(  1.29%)
                                           -0.0039  0.9935 -0.0062 -0.0003 -0.1133
                                            0.0000  0.0029
   176. (0.00020) RY*( 2) H  13           s(  0.85%)p99.99( 99.15%)
                                            0.0004 -0.0002  0.0913 -0.0142  0.0187
                                           -0.0000  0.9955
   177. (0.00019) RY*( 3) H  13           s( 91.00%)p 0.10(  9.00%)
                                            0.0052  0.0388  0.9531  0.0036  0.2854
                                            0.0000 -0.0927
   178. (0.00012) RY*( 4) H  13           s(  0.00%)p 1.00(100.00%)
                                            0.0000 -0.0000 -0.0000  0.0000  0.0000
                                            1.0000  0.0000
   179. (0.00003) RY*( 5) H  13           s( 99.98%)p 0.00(  0.02%)
   180. (0.00003) RY*( 6) H  13           s(  9.50%)p 9.52( 90.50%)
   181. (0.00084) RY*( 1) H  14           s( 98.44%)p 0.02(  1.56%)
                                           -0.0041  0.9921 -0.0063 -0.0005 -0.0614
                                           -0.1088  0.0021
   182. (0.00020) RY*( 2) H  14           s( 91.80%)p 0.09(  8.20%)
                                            0.0046  0.0381  0.9574 -0.0050  0.2396
                                            0.1568 -0.0002
   183. (0.00020) RY*( 3) H  14           s(  0.04%)p99.99( 99.96%)
                                           -0.0001  0.0016 -0.0017  0.0210  0.0142
                                           -0.0123 -0.9996
   184. (0.00012) RY*( 4) H  14           s(  3.90%)p24.67( 96.10%)
                                            0.0008  0.0067  0.1229  0.1543 -0.8302
                                            0.5212 -0.0152
   185. (0.00003) RY*( 5) H  14           s( 16.42%)p 5.09( 83.58%)
   186. (0.00002) RY*( 6) H  14           s( 89.44%)p 0.12( 10.56%)
   187. (0.00088) RY*( 1) H  15           s( 99.19%)p 0.01(  0.81%)
                                           -0.0035  0.9959 -0.0029 -0.0012  0.0753
                                           -0.0471 -0.0155
   188. (0.00020) RY*( 2) H  15           s( 88.41%)p 0.13( 11.59%)
                                            0.0058  0.0223  0.9396 -0.0281 -0.0484
                                            0.3369 -0.0000
   189. (0.00020) RY*( 3) H  15           s(  0.06%)p99.99( 99.94%)
                                            0.0000 -0.0158 -0.0002  0.0192  0.0059
                                            0.0040 -0.9997
   190. (0.00013) RY*( 4) H  15           s( 20.32%)p 3.92( 79.68%)
                                           -0.0006  0.0394  0.1274  0.4306 -0.7799
                                           -0.4342  0.0013
   191. (0.00006) RY*( 5) H  15           s( 81.48%)p 0.23( 18.52%)
   192. (0.00004) RY*( 6) H  15           s( 10.58%)p 8.45( 89.42%)
   193. (0.01621) BD*( 1) C   1 - C   2  
                ( 50.83%)   0.7129* C   1 s( 30.33%)p 2.30( 69.63%)d 0.00(  0.04%)
                                            0.0003  0.5504  0.0182  0.0024 -0.0001
                                            0.8341 -0.0127 -0.0091 -0.0003  0.0000
                                           -0.0000  0.0000  0.0000 -0.0152  0.0012
                                           -0.0014 -0.0003  0.0000 -0.0002 -0.0000
                                            0.0182 -0.0099
                ( 49.17%)  -0.7012* C   2 s( 31.22%)p 2.20( 68.75%)d 0.00(  0.03%)
                                           -0.0001  0.5587  0.0027 -0.0069  0.0004
                                           -0.8291 -0.0065  0.0075  0.0029  0.0000
                                           -0.0000  0.0000 -0.0000  0.0043  0.0007
                                           -0.0004  0.0002 -0.0000 -0.0010  0.0000
                                            0.0145 -0.0097
   194. (0.01047) BD*( 1) C   1 - H   8  
                ( 39.48%)   0.6283* C   1 s( 22.92%)p 3.36( 77.02%)d 0.00(  0.06%)
                                           -0.0001  0.4787 -0.0077  0.0002  0.0002
                                           -0.3002  0.0138  0.0023 -0.0009 -0.0000
                                           -0.0000 -0.0000  0.0000  0.8245  0.0065
                                            0.0035  0.0009  0.0000 -0.0128 -0.0000
                                            0.0015  0.0211
                ( 60.52%)  -0.7779* H   8 s( 99.97%)p 0.00(  0.03%)
                                            0.9998  0.0013  0.0004  0.0000  0.0054
                                            0.0000 -0.0168
   195. (0.00546) BD*( 1) C   1 - H   9  
                ( 39.70%)   0.6301* C   1 s( 23.39%)p 3.27( 76.55%)d 0.00(  0.06%)
                                           -0.0001  0.4836 -0.0045 -0.0010 -0.0000
                                           -0.3259  0.0126 -0.0006 -0.0009 -0.7067
                                           -0.0118 -0.0016  0.0008 -0.3994 -0.0025
                                           -0.0021 -0.0005  0.0117  0.0064  0.0153
                                           -0.0123 -0.0043
                ( 60.30%)  -0.7765* H   9 s( 99.97%)p 0.00(  0.03%)
                                            0.9998  0.0006  0.0005 -0.0000  0.0074
                                            0.0142  0.0092
   196. (0.00546) BD*( 1) C   1 - H  10  
                ( 39.70%)   0.6301* C   1 s( 23.39%)p 3.27( 76.55%)d 0.00(  0.06%)
                                           -0.0001  0.4836 -0.0045 -0.0010 -0.0000
                                           -0.3259  0.0126 -0.0006 -0.0009  0.7067
                                            0.0118  0.0016 -0.0008 -0.3994 -0.0025
                                           -0.0021 -0.0005 -0.0117  0.0064 -0.0153
                                           -0.0123 -0.0043
                ( 60.30%)  -0.7765* H  10 s( 99.97%)p 0.00(  0.03%)
                                            0.9998  0.0006  0.0005 -0.0000  0.0074
                                           -0.0142  0.0092
   197. (0.02420) BD*( 1) C   2 - C   3  
                ( 49.41%)   0.7030* C   2 s( 34.36%)p 1.91( 65.60%)d 0.00(  0.04%)
                                           -0.0000 -0.5862  0.0020 -0.0034  0.0002
                                           -0.3948 -0.0165  0.0060  0.0007  0.7067
                                           -0.0169 -0.0060  0.0016 -0.0038 -0.0003
                                           -0.0002 -0.0000  0.0159 -0.0004  0.0005
                                            0.0070  0.0105
                ( 50.59%)  -0.7112* C   3 s( 36.04%)p 1.77( 63.91%)d 0.00(  0.04%)
                                           -0.0001 -0.6003  0.0058 -0.0059 -0.0009
                                            0.4267 -0.0307 -0.0041  0.0011 -0.6752
                                           -0.0019  0.0120 -0.0004 -0.0007 -0.0013
                                            0.0001  0.0001  0.0139  0.0001 -0.0002
                                            0.0093  0.0117
   198. (0.02420) BD*( 1) C   2 - C   7  
                ( 49.41%)   0.7030* C   2 s( 34.36%)p 1.91( 65.60%)d 0.00(  0.04%)
                                           -0.0000 -0.5862  0.0020 -0.0034  0.0002
                                           -0.3948 -0.0165  0.0060  0.0007 -0.7067
                                            0.0169  0.0060 -0.0016 -0.0033 -0.0003
                                           -0.0002 -0.0000 -0.0159 -0.0004 -0.0005
                                            0.0070  0.0105
                ( 50.59%)  -0.7112* C   7 s( 36.04%)p 1.77( 63.91%)d 0.00(  0.04%)
                                           -0.0001 -0.6003  0.0058 -0.0059 -0.0009
                                            0.4267 -0.0307 -0.0041  0.0011  0.6752
                                            0.0019 -0.0120  0.0004 -0.0008 -0.0013
                                            0.0001  0.0001 -0.0139  0.0001  0.0002
                                            0.0093  0.0117
   199. (0.34538) BD*( 2) C   2 - C   7  
                ( 51.12%)   0.7150* C   2 s(  0.00%)p 1.00( 99.95%)d 0.00(  0.04%)
                                           -0.0000 -0.0066 -0.0013 -0.0001 -0.0000
                                            0.0007 -0.0006 -0.0003 -0.0000  0.0003
                                           -0.0011  0.0006 -0.0003  0.9995  0.0098
                                            0.0183  0.0027 -0.0002  0.0181  0.0100
                                           -0.0003 -0.0002
                ( 48.88%)  -0.6991* C   7 s(  0.00%)p 1.00( 99.96%)d 0.00(  0.04%)
                                           -0.0000 -0.0018 -0.0004 -0.0007  0.0000
                                           -0.0059  0.0001  0.0004  0.0004  0.0034
                                            0.0002  0.0014 -0.0003  0.9995  0.0136
                                            0.0173 -0.0013  0.0001  0.0008 -0.0202
                                            0.0003  0.0001
   200. (0.01554) BD*( 1) C   3 - C   4  
                ( 49.81%)   0.7057* C   3 s( 35.85%)p 1.79( 64.11%)d 0.00(  0.04%)
                                            0.0000 -0.5984  0.0182  0.0041  0.0002
                                           -0.7990  0.0187  0.0092 -0.0010  0.0264
                                           -0.0398  0.0043  0.0008 -0.0062  0.0004
                                            0.0002 -0.0001 -0.0025 -0.0004  0.0001
                                           -0.0171  0.0119
                ( 50.19%)  -0.7085* C   4 s( 35.85%)p 1.79( 64.11%)d 0.00(  0.04%)
                                           -0.0000 -0.5986  0.0136  0.0012  0.0000
                                            0.7989 -0.0203  0.0116  0.0009  0.0235
                                           -0.0406 -0.0042  0.0003  0.0056 -0.0004
                                            0.0000  0.0000  0.0023 -0.0003  0.0000
                                           -0.0167  0.0120
   201. (0.33380) BD*( 2) C   3 - C   4  
                ( 49.41%)   0.7029* C   3 s(  0.00%)p 1.00( 99.96%)d 0.00(  0.04%)
                                           -0.0000  0.0013 -0.0009  0.0003 -0.0002
                                            0.0070  0.0004  0.0000 -0.0003  0.0044
                                           -0.0002  0.0011 -0.0003 -0.9995 -0.0149
                                           -0.0179  0.0023  0.0003 -0.0166 -0.0104
                                           -0.0001 -0.0001
                ( 50.59%)  -0.7112* C   4 s(  0.00%)p 1.00( 99.96%)d 0.00(  0.04%)
                                           -0.0000 -0.0003 -0.0000  0.0002  0.0000
                                            0.0067 -0.0000  0.0000  0.0001  0.0040
                                            0.0003 -0.0002  0.0001 -0.9994 -0.0185
                                            0.0170  0.0016 -0.0000  0.0175 -0.0104
                                           -0.0002  0.0003
   202. (0.01458) BD*( 1) C   3 - H  11  
                ( 39.90%)   0.6317* C   3 s( 28.11%)p 2.56( 71.85%)d 0.00(  0.04%)
                                           -0.0004  0.5298  0.0204 -0.0014 -0.0006
                                           -0.4204 -0.0131 -0.0003 -0.0000 -0.7358
                                           -0.0106  0.0010 -0.0015 -0.0055  0.0002
                                           -0.0001 -0.0001  0.0163  0.0001  0.0005
                                           -0.0097 -0.0086
                ( 60.10%)  -0.7752* H  11 s( 99.95%)p 0.00(  0.05%)
                                            0.9998  0.0018  0.0011  0.0001  0.0101
                                            0.0189 -0.0000
   203. (0.01636) BD*( 1) C   4 - C   5  
                ( 49.94%)   0.7067* C   4 s( 35.84%)p 1.79( 64.12%)d 0.00(  0.04%)
                                           -0.0000 -0.5985  0.0144  0.0004  0.0001
                                           -0.4277  0.0445 -0.0018 -0.0008 -0.6754
                                           -0.0021 -0.0106 -0.0004 -0.0054  0.0003
                                            0.0000 -0.0000 -0.0137 -0.0001 -0.0002
                                            0.0100  0.0119
                ( 50.06%)  -0.7075* C   5 s( 35.69%)p 1.80( 64.27%)d 0.00(  0.04%)
                                           -0.0000 -0.5972  0.0133  0.0006  0.0001
                                            0.3772  0.0235 -0.0087  0.0001  0.7059
                                           -0.0382 -0.0065  0.0010  0.0021  0.0001
                                           -0.0001 -0.0000 -0.0159 -0.0001 -0.0001
                                            0.0065  0.0121
   204. (0.01362) BD*( 1) C   4 - H  12  
                ( 39.78%)   0.6307* C   4 s( 28.32%)p 2.53( 71.64%)d 0.00(  0.04%)
                                           -0.0004  0.5316  0.0239  0.0015  0.0001
                                            0.4189  0.0085 -0.0001  0.0009 -0.7352
                                           -0.0166  0.0009 -0.0015 -0.0003 -0.0000
                                            0.0000 -0.0000 -0.0166 -0.0001  0.0000
                                           -0.0099 -0.0085
                ( 60.22%)  -0.7760* H  12 s( 99.95%)p 0.00(  0.05%)
                                            0.9998  0.0014  0.0010  0.0001 -0.0108
                                            0.0190  0.0000
   205. (0.01636) BD*( 1) C   5 - C   6  
                ( 50.06%)   0.7075* C   5 s( 35.69%)p 1.80( 64.27%)d 0.00(  0.04%)
                                            0.0000  0.5972 -0.0133 -0.0006 -0.0001
                                           -0.3772 -0.0235  0.0087 -0.0001  0.7059
                                           -0.0382 -0.0065  0.0010 -0.0011 -0.0001
                                            0.0001  0.0000 -0.0159  0.0001 -0.0001
                                           -0.0065 -0.0121
                ( 49.94%)  -0.7067* C   6 s( 35.84%)p 1.79( 64.12%)d 0.00(  0.04%)
                                            0.0000  0.5985 -0.0144 -0.0004 -0.0001
                                            0.4277 -0.0445  0.0018  0.0008 -0.6754
                                           -0.0021 -0.0106 -0.0004  0.0061 -0.0002
                                           -0.0000  0.0000 -0.0137  0.0001 -0.0002
                                           -0.0100 -0.0119
   206. (0.33912) BD*( 2) C   5 - C   6  
                ( 49.40%)   0.7029* C   5 s(  0.00%)p 1.00( 99.96%)d 0.00(  0.04%)
                                           -0.0000  0.0006 -0.0004 -0.0005 -0.0001
                                            0.0052  0.0001  0.0004 -0.0001  0.0007
                                           -0.0001  0.0001  0.0001 -0.9995 -0.0188
                                           -0.0148  0.0020  0.0001  0.0180 -0.0092
                                           -0.0000  0.0003
                ( 50.60%)  -0.7113* C   6 s(  0.00%)p 1.00( 99.96%)d 0.00(  0.04%)
                                            0.0000  0.0004 -0.0003 -0.0003 -0.0001
                                            0.0078  0.0002 -0.0006  0.0001 -0.0038
                                           -0.0002 -0.0000 -0.0001 -0.9995 -0.0168
                                            0.0151  0.0021 -0.0000  0.0004  0.0202
                                           -0.0001 -0.0000
   207. (0.01374) BD*( 1) C   5 - H  13  
                ( 39.74%)   0.6304* C   5 s( 28.63%)p 2.49( 71.33%)d 0.00(  0.04%)
                                            0.0004 -0.5346 -0.0228 -0.0013 -0.0003
                                           -0.8444 -0.0179 -0.0008 -0.0015  0.0000
                                           -0.0000  0.0000  0.0000 -0.0047 -0.0001
                                           -0.0000  0.0000  0.0000 -0.0001 -0.0000
                                           -0.0191  0.0083
                ( 60.26%)  -0.7763* H  13 s( 99.95%)p 0.00(  0.05%)
                                           -0.9998 -0.0014 -0.0010  0.0001  0.0217
                                           -0.0000  0.0001
   208. (0.01554) BD*( 1) C   6 - C   7  
                ( 50.19%)   0.7085* C   6 s( 35.85%)p 1.79( 64.11%)d 0.00(  0.04%)
                                            0.0000  0.5986 -0.0136 -0.0012 -0.0000
                                           -0.7989  0.0203 -0.0116 -0.0009  0.0235
                                           -0.0406 -0.0042  0.0003 -0.0060  0.0004
                                           -0.0000 -0.0000  0.0023  0.0003  0.0000
                                            0.0167 -0.0120
                ( 49.81%)  -0.7057* C   7 s( 35.85%)p 1.79( 64.11%)d 0.00(  0.04%)
                                           -0.0000  0.5984 -0.0182 -0.0041 -0.0002
                                            0.7990 -0.0187 -0.0092  0.0010  0.0264
                                           -0.0398  0.0043  0.0008  0.0057 -0.0004
                                           -0.0002  0.0001 -0.0025  0.0004  0.0001
                                            0.0171 -0.0119
   209. (0.01362) BD*( 1) C   6 - H  14  
                ( 39.78%)   0.6307* C   6 s( 28.32%)p 2.53( 71.64%)d 0.00(  0.04%)
                                            0.0004 -0.5316 -0.0239 -0.0015 -0.0001
                                           -0.4189 -0.0085  0.0001 -0.0009 -0.7352
                                           -0.0166  0.0009 -0.0015 -0.0007  0.0000
                                           -0.0000  0.0000 -0.0166  0.0001  0.0000
                                            0.0099  0.0085
                ( 60.22%)  -0.7760* H  14 s( 99.95%)p 0.00(  0.05%)
                                           -0.9998 -0.0014 -0.0010 -0.0001  0.0108
                                            0.0190 -0.0000
   210. (0.01458) BD*( 1) C   7 - H  15  
                ( 39.90%)   0.6317* C   7 s( 28.11%)p 2.56( 71.85%)d 0.00(  0.04%)
                                            0.0004 -0.5298 -0.0204  0.0014  0.0006
                                            0.4204  0.0131  0.0003  0.0000 -0.7358
                                           -0.0106  0.0010 -0.0015  0.0040 -0.0002
                                            0.0001  0.0001  0.0163 -0.0001  0.0006
                                            0.0097  0.0086
                ( 60.10%)  -0.7752* H  15 s( 99.95%)p 0.00(  0.05%)
                                           -0.9998 -0.0018 -0.0011 -0.0001 -0.0101
                                            0.0189  0.0000


 NHO Directionality and "Bond Bending" (deviations from line of nuclear centers)

         [Thresholds for printing:  angular deviation  >  1.0 degree]
                                    hybrid p-character > 25.0%
                                    orbital occupancy  >  0.10e

                                Line of Centers        Hybrid 1              Hybrid 2
                                ---------------  -------------------   ------------------
                NBO               Theta   Phi    Theta   Phi    Dev    Theta   Phi    Dev
 ========================================================================================
     2. BD (   1) C   1 - H   8    20.2  180.0    18.8  180.0   1.4      --     --    --
     7. BD (   2) C   2 - C   7    89.9   59.1   180.0    0.0  90.1    179.6  317.0  89.8
     8. BD (   1) C   3 - C   4    89.6  359.9     --     --    --      90.4  178.5   1.4
     9. BD (   2) C   3 - C   4    89.6  359.9   179.5   34.4  90.0      0.5  211.6  90.1
    11. BD (   1) C   4 - C   5    89.7   59.7    89.6   60.7   1.0      --     --    --
    13. BD (   1) C   5 - C   6    90.3  120.3     --     --    --      89.6  299.3   1.0
    14. BD (   2) C   5 - C   6    90.3  120.3   179.7    7.9  89.9    179.5  331.1  89.8
    16. BD (   1) C   6 - C   7    90.4  180.1    90.4  181.5   1.4      --     --    --
   199. BD*(   2) C   2 - C   7    89.9   59.1   180.0    0.0  90.1    179.6  317.0  89.8
   201. BD*(   2) C   3 - C   4    89.6  359.9   179.5   34.4  90.0      0.5  211.6  90.1
   206. BD*(   2) C   5 - C   6    90.3  120.3   179.7    7.9  89.9    179.5  331.1  89.8


 Second Order Perturbation Theory Analysis of Fock Matrix in NBO Basis

     Threshold for printing:   0.50 kcal/mol
                                                                              E(2)  E(j)-E(i) F(i,j)
         Donor NBO (i)                     Acceptor NBO (j)                 kcal/mol   a.u.    a.u. 
 ===================================================================================================

 within unit  1
   1. BD (   1) C   1 - C   2        / 60. RY*(   1) C   3                    1.50    1.74    0.046
   1. BD (   1) C   1 - C   2        /128. RY*(   1) C   7                    1.50    1.74    0.046
   1. BD (   1) C   1 - C   2        /194. BD*(   1) C   1 - H   8            0.55    1.03    0.021
   1. BD (   1) C   1 - C   2        /197. BD*(   1) C   2 - C   3            1.81    1.21    0.042
   1. BD (   1) C   1 - C   2        /198. BD*(   1) C   2 - C   7            1.81    1.21    0.042
   1. BD (   1) C   1 - C   2        /200. BD*(   1) C   3 - C   4            2.49    1.21    0.049
   1. BD (   1) C   1 - C   2        /208. BD*(   1) C   6 - C   7            2.49    1.21    0.049
   2. BD (   1) C   1 - H   8        / 45. RY*(   3) C   2                    0.93    1.18    0.030
   2. BD (   1) C   1 - H   8        /197. BD*(   1) C   2 - C   3            0.54    1.08    0.022
   2. BD (   1) C   1 - H   8        /198. BD*(   1) C   2 - C   7            0.54    1.08    0.022
   2. BD (   1) C   1 - H   8        /199. BD*(   2) C   2 - C   7            4.36    0.54    0.047
   3. BD (   1) C   1 - H   9        /198. BD*(   1) C   2 - C   7            3.73    1.09    0.057
   3. BD (   1) C   1 - H   9        /199. BD*(   2) C   2 - C   7            1.01    0.54    0.023
   4. BD (   1) C   1 - H  10        /197. BD*(   1) C   2 - C   3            3.74    1.09    0.057
   4. BD (   1) C   1 - H  10        /199. BD*(   2) C   2 - C   7            0.86    0.54    0.021
   5. BD (   1) C   2 - C   3        / 26. RY*(   1) C   1                    0.92    1.29    0.031
   5. BD (   1) C   2 - C   3        / 77. RY*(   1) C   4                    1.13    1.77    0.040
   5. BD (   1) C   2 - C   3        / 78. RY*(   2) C   4                    1.48    1.98    0.049
   5. BD (   1) C   2 - C   3        /128. RY*(   1) C   7                    0.96    1.80    0.037
   5. BD (   1) C   2 - C   3        /129. RY*(   2) C   7                    0.55    1.82    0.028
   5. BD (   1) C   2 - C   3        /193. BD*(   1) C   1 - C   2            1.60    1.11    0.038
   5. BD (   1) C   2 - C   3        /196. BD*(   1) C   1 - H  10            0.59    1.09    0.023
   5. BD (   1) C   2 - C   3        /198. BD*(   1) C   2 - C   7            3.28    1.27    0.058
   5. BD (   1) C   2 - C   3        /200. BD*(   1) C   3 - C   4            3.12    1.27    0.056
   5. BD (   1) C   2 - C   3        /202. BD*(   1) C   3 - H  11            0.94    1.13    0.029
   5. BD (   1) C   2 - C   3        /204. BD*(   1) C   4 - H  12            2.10    1.14    0.044
   5. BD (   1) C   2 - C   3        /210. BD*(   1) C   7 - H  15            2.56    1.13    0.048
   6. BD (   1) C   2 - C   7        / 26. RY*(   1) C   1                    0.92    1.29    0.031
   6. BD (   1) C   2 - C   7        / 60. RY*(   1) C   3                    0.96    1.80    0.037
   6. BD (   1) C   2 - C   7        / 61. RY*(   2) C   3                    0.55    1.82    0.028
   6. BD (   1) C   2 - C   7        /111. RY*(   1) C   6                    1.13    1.77    0.040
   6. BD (   1) C   2 - C   7        /112. RY*(   2) C   6                    1.48    1.98    0.049
   6. BD (   1) C   2 - C   7        /193. BD*(   1) C   1 - C   2            1.60    1.11    0.038
   6. BD (   1) C   2 - C   7        /195. BD*(   1) C   1 - H   9            0.59    1.09    0.023
   6. BD (   1) C   2 - C   7        /197. BD*(   1) C   2 - C   3            3.28    1.27    0.058
   6. BD (   1) C   2 - C   7        /202. BD*(   1) C   3 - H  11            2.56    1.13    0.048
   6. BD (   1) C   2 - C   7        /208. BD*(   1) C   6 - C   7            3.12    1.27    0.056
   6. BD (   1) C   2 - C   7        /209. BD*(   1) C   6 - H  14            2.10    1.14    0.044
   6. BD (   1) C   2 - C   7        /210. BD*(   1) C   7 - H  15            0.94    1.13    0.029
   7. BD (   2) C   2 - C   7        / 27. RY*(   2) C   1                    0.68    1.29    0.029
   7. BD (   2) C   2 - C   7        / 62. RY*(   3) C   3                    1.50    0.72    0.032
   7. BD (   2) C   2 - C   7        /114. RY*(   4) C   6                    0.80    1.76    0.037
   7. BD (   2) C   2 - C   7        /194. BD*(   1) C   1 - H   8            3.11    0.64    0.044
   7. BD (   2) C   2 - C   7        /195. BD*(   1) C   1 - H   9            1.01    0.65    0.025
   7. BD (   2) C   2 - C   7        /196. BD*(   1) C   1 - H  10            0.50    0.65    0.018
   7. BD (   2) C   2 - C   7        /201. BD*(   2) C   3 - C   4           19.61    0.28    0.066
   7. BD (   2) C   2 - C   7        /206. BD*(   2) C   5 - C   6           21.82    0.28    0.070
   8. BD (   1) C   3 - C   4        / 43. RY*(   1) C   2                    1.04    1.97    0.041
   8. BD (   1) C   3 - C   4        / 44. RY*(   2) C   2                    1.53    1.84    0.048
   8. BD (   1) C   3 - C   4        / 94. RY*(   1) C   5                    0.88    1.81    0.036
   8. BD (   1) C   3 - C   4        / 95. RY*(   2) C   5                    1.43    1.97    0.048
   8. BD (   1) C   3 - C   4        /193. BD*(   1) C   1 - C   2            3.70    1.11    0.057
   8. BD (   1) C   3 - C   4        /197. BD*(   1) C   2 - C   3            3.40    1.28    0.059
   8. BD (   1) C   3 - C   4        /202. BD*(   1) C   3 - H  11            0.97    1.14    0.030
   8. BD (   1) C   3 - C   4        /203. BD*(   1) C   4 - C   5            2.73    1.28    0.053
   8. BD (   1) C   3 - C   4        /204. BD*(   1) C   4 - H  12            0.93    1.14    0.029
   8. BD (   1) C   3 - C   4        /207. BD*(   1) C   5 - H  13            2.39    1.14    0.047
   9. BD (   2) C   3 - C   4        / 96. RY*(   3) C   5                    1.20    0.73    0.029
   9. BD (   2) C   3 - C   4        /199. BD*(   2) C   2 - C   7           21.22    0.29    0.070
   9. BD (   2) C   3 - C   4        /206. BD*(   2) C   5 - C   6           19.62    0.28    0.067
  10. BD (   1) C   3 - H  11        / 43. RY*(   1) C   2                    1.86    1.79    0.052
  10. BD (   1) C   3 - H  11        / 77. RY*(   1) C   4                    1.39    1.60    0.042
  10. BD (   1) C   3 - H  11        /197. BD*(   1) C   2 - C   3            0.81    1.10    0.027
  10. BD (   1) C   3 - H  11        /198. BD*(   1) C   2 - C   7            4.44    1.10    0.062
  10. BD (   1) C   3 - H  11        /200. BD*(   1) C   3 - C   4            0.62    1.10    0.023
  10. BD (   1) C   3 - H  11        /203. BD*(   1) C   4 - C   5            3.74    1.10    0.057
  10. BD (   1) C   3 - H  11        /204. BD*(   1) C   4 - H  12            0.54    0.96    0.020
  11. BD (   1) C   4 - C   5        / 60. RY*(   1) C   3                    0.66    1.81    0.031
  11. BD (   1) C   4 - C   5        / 61. RY*(   2) C   3                    1.84    1.82    0.052
  11. BD (   1) C   4 - C   5        /111. RY*(   1) C   6                    0.94    1.78    0.037
  11. BD (   1) C   4 - C   5        /112. RY*(   2) C   6                    1.45    1.98    0.048
  11. BD (   1) C   4 - C   5        /200. BD*(   1) C   3 - C   4            2.75    1.28    0.053
  11. BD (   1) C   4 - C   5        /202. BD*(   1) C   3 - H  11            2.45    1.14    0.047
  11. BD (   1) C   4 - C   5        /204. BD*(   1) C   4 - H  12            0.93    1.14    0.029
  11. BD (   1) C   4 - C   5        /205. BD*(   1) C   5 - C   6            2.73    1.28    0.053
  11. BD (   1) C   4 - C   5        /207. BD*(   1) C   5 - H  13            0.94    1.14    0.029
  11. BD (   1) C   4 - C   5        /209. BD*(   1) C   6 - H  14            2.46    1.14    0.047
  12. BD (   1) C   4 - H  12        / 60. RY*(   1) C   3                    1.38    1.63    0.042
  12. BD (   1) C   4 - H  12        / 94. RY*(   1) C   5                    1.44    1.64    0.043
  12. BD (   1) C   4 - H  12        /197. BD*(   1) C   2 - C   3            3.70    1.10    0.057
  12. BD (   1) C   4 - H  12        /200. BD*(   1) C   3 - C   4            0.58    1.10    0.023
  12. BD (   1) C   4 - H  12        /203. BD*(   1) C   4 - C   5            0.57    1.10    0.022
  12. BD (   1) C   4 - H  12        /205. BD*(   1) C   5 - C   6            3.68    1.10    0.057
  12. BD (   1) C   4 - H  12        /207. BD*(   1) C   5 - H  13            0.51    0.96    0.020
  13. BD (   1) C   5 - C   6        / 77. RY*(   1) C   4                    0.94    1.78    0.037
  13. BD (   1) C   5 - C   6        / 78. RY*(   2) C   4                    1.45    1.98    0.048
  13. BD (   1) C   5 - C   6        /128. RY*(   1) C   7                    0.66    1.81    0.031
  13. BD (   1) C   5 - C   6        /129. RY*(   2) C   7                    1.84    1.82    0.052
  13. BD (   1) C   5 - C   6        /203. BD*(   1) C   4 - C   5            2.73    1.28    0.053
  13. BD (   1) C   5 - C   6        /204. BD*(   1) C   4 - H  12            2.46    1.14    0.047
  13. BD (   1) C   5 - C   6        /207. BD*(   1) C   5 - H  13            0.94    1.14    0.029
  13. BD (   1) C   5 - C   6        /208. BD*(   1) C   6 - C   7            2.75    1.28    0.053
  13. BD (   1) C   5 - C   6        /209. BD*(   1) C   6 - H  14            0.93    1.14    0.029
  13. BD (   1) C   5 - C   6        /210. BD*(   1) C   7 - H  15            2.45    1.14    0.047
  14. BD (   2) C   5 - C   6        / 79. RY*(   3) C   4                    1.67    0.72    0.034
  14. BD (   2) C   5 - C   6        /130. RY*(   3) C   7                    0.87    0.78    0.025
  14. BD (   2) C   5 - C   6        /131. RY*(   4) C   7                    0.56    1.84    0.031
  14. BD (   2) C   5 - C   6        /199. BD*(   2) C   2 - C   7           19.24    0.29    0.067
  14. BD (   2) C   5 - C   6        /201. BD*(   2) C   3 - C   4           21.01    0.28    0.069
  15. BD (   1) C   5 - H  13        / 77. RY*(   1) C   4                    1.47    1.60    0.043
  15. BD (   1) C   5 - H  13        /111. RY*(   1) C   6                    1.47    1.60    0.043
  15. BD (   1) C   5 - H  13        /200. BD*(   1) C   3 - C   4            3.73    1.10    0.057
  15. BD (   1) C   5 - H  13        /203. BD*(   1) C   4 - C   5            0.60    1.10    0.023
  15. BD (   1) C   5 - H  13        /204. BD*(   1) C   4 - H  12            0.50    0.96    0.020
  15. BD (   1) C   5 - H  13        /205. BD*(   1) C   5 - C   6            0.60    1.10    0.023
  15. BD (   1) C   5 - H  13        /208. BD*(   1) C   6 - C   7            3.73    1.10    0.057
  15. BD (   1) C   5 - H  13        /209. BD*(   1) C   6 - H  14            0.50    0.96    0.020
  16. BD (   1) C   6 - C   7        / 43. RY*(   1) C   2                    1.04    1.97    0.041
  16. BD (   1) C   6 - C   7        / 44. RY*(   2) C   2                    1.53    1.84    0.048
  16. BD (   1) C   6 - C   7        / 94. RY*(   1) C   5                    0.88    1.81    0.036
  16. BD (   1) C   6 - C   7        / 95. RY*(   2) C   5                    1.43    1.97    0.048
  16. BD (   1) C   6 - C   7        /193. BD*(   1) C   1 - C   2            3.70    1.11    0.057
  16. BD (   1) C   6 - C   7        /198. BD*(   1) C   2 - C   7            3.40    1.28    0.059
  16. BD (   1) C   6 - C   7        /205. BD*(   1) C   5 - C   6            2.73    1.28    0.053
  16. BD (   1) C   6 - C   7        /207. BD*(   1) C   5 - H  13            2.39    1.14    0.047
  16. BD (   1) C   6 - C   7        /209. BD*(   1) C   6 - H  14            0.93    1.14    0.029
  16. BD (   1) C   6 - C   7        /210. BD*(   1) C   7 - H  15            0.97    1.14    0.030
  17. BD (   1) C   6 - H  14        / 94. RY*(   1) C   5                    1.44    1.64    0.043
  17. BD (   1) C   6 - H  14        /128. RY*(   1) C   7                    1.38    1.63    0.042
  17. BD (   1) C   6 - H  14        /198. BD*(   1) C   2 - C   7            3.70    1.10    0.057
  17. BD (   1) C   6 - H  14        /203. BD*(   1) C   4 - C   5            3.68    1.10    0.057
  17. BD (   1) C   6 - H  14        /205. BD*(   1) C   5 - C   6            0.57    1.10    0.022
  17. BD (   1) C   6 - H  14        /207. BD*(   1) C   5 - H  13            0.51    0.96    0.020
  17. BD (   1) C   6 - H  14        /208. BD*(   1) C   6 - C   7            0.58    1.10    0.023
  18. BD (   1) C   7 - H  15        / 43. RY*(   1) C   2                    1.86    1.79    0.052
  18. BD (   1) C   7 - H  15        /111. RY*(   1) C   6                    1.39    1.60    0.042
  18. BD (   1) C   7 - H  15        /197. BD*(   1) C   2 - C   3            4.44    1.10    0.062
  18. BD (   1) C   7 - H  15        /198. BD*(   1) C   2 - C   7            0.81    1.10    0.027
  18. BD (   1) C   7 - H  15        /205. BD*(   1) C   5 - C   6            3.74    1.10    0.057
  18. BD (   1) C   7 - H  15        /208. BD*(   1) C   6 - C   7            0.62    1.10    0.023
  18. BD (   1) C   7 - H  15        /209. BD*(   1) C   6 - H  14            0.54    0.96    0.020
  19. CR (   1) C   1                / 43. RY*(   1) C   2                    1.05   11.30    0.098
  19. CR (   1) C   1                /197. BD*(   1) C   2 - C   3            0.60   10.61    0.072
  19. CR (   1) C   1                /198. BD*(   1) C   2 - C   7            0.60   10.61    0.072
  20. CR (   1) C   2                / 28. RY*(   3) C   1                    0.79   10.63    0.082
  20. CR (   1) C   2                / 61. RY*(   2) C   3                    1.52   11.17    0.116
  20. CR (   1) C   2                /129. RY*(   2) C   7                    1.52   11.17    0.116
  20. CR (   1) C   2                /200. BD*(   1) C   3 - C   4            0.72   10.62    0.078
  20. CR (   1) C   2                /208. BD*(   1) C   6 - C   7            0.72   10.62    0.078
  21. CR (   1) C   3                / 43. RY*(   1) C   2                    0.57   11.30    0.072
  21. CR (   1) C   3                / 44. RY*(   2) C   2                    1.78   11.17    0.126
  21. CR (   1) C   3                / 78. RY*(   2) C   4                    1.64   11.31    0.122
  21. CR (   1) C   3                /193. BD*(   1) C   1 - C   2            0.87   10.44    0.085
  21. CR (   1) C   3                /198. BD*(   1) C   2 - C   7            0.78   10.61    0.082
  21. CR (   1) C   3                /203. BD*(   1) C   4 - C   5            0.73   10.61    0.079
  22. CR (   1) C   4                / 61. RY*(   2) C   3                    1.20   11.16    0.103
  22. CR (   1) C   4                / 64. RY*(   5) C   3                    0.56   11.05    0.070
  22. CR (   1) C   4                / 95. RY*(   2) C   5                    1.51   11.31    0.117
  22. CR (   1) C   4                /197. BD*(   1) C   2 - C   3            0.75   10.61    0.080
  22. CR (   1) C   4                /205. BD*(   1) C   5 - C   6            0.69   10.61    0.077
  23. CR (   1) C   5                / 78. RY*(   2) C   4                    1.35   11.31    0.110
  23. CR (   1) C   5                / 81. RY*(   5) C   4                    0.55   11.01    0.070
  23. CR (   1) C   5                /112. RY*(   2) C   6                    1.35   11.31    0.110
  23. CR (   1) C   5                /115. RY*(   5) C   6                    0.56   11.01    0.070
  23. CR (   1) C   5                /200. BD*(   1) C   3 - C   4            0.72   10.61    0.078
  23. CR (   1) C   5                /208. BD*(   1) C   6 - C   7            0.72   10.61    0.078
  24. CR (   1) C   6                / 95. RY*(   2) C   5                    1.51   11.31    0.117
  24. CR (   1) C   6                /129. RY*(   2) C   7                    1.20   11.16    0.103
  24. CR (   1) C   6                /132. RY*(   5) C   7                    0.58   11.03    0.071
  24. CR (   1) C   6                /198. BD*(   1) C   2 - C   7            0.75   10.61    0.080
  24. CR (   1) C   6                /203. BD*(   1) C   4 - C   5            0.69   10.61    0.077
  25. CR (   1) C   7                / 43. RY*(   1) C   2                    0.57   11.30    0.072
  25. CR (   1) C   7                / 44. RY*(   2) C   2                    1.78   11.17    0.126
  25. CR (   1) C   7                /112. RY*(   2) C   6                    1.64   11.31    0.122
  25. CR (   1) C   7                /193. BD*(   1) C   1 - C   2            0.87   10.44    0.085
  25. CR (   1) C   7                /197. BD*(   1) C   2 - C   3            0.78   10.61    0.082
  25. CR (   1) C   7                /205. BD*(   1) C   5 - C   6            0.73   10.61    0.079
 199. BD*(   2) C   2 - C   7        / 62. RY*(   3) C   3                    0.58    0.43    0.034
 199. BD*(   2) C   2 - C   7        /130. RY*(   3) C   7                    3.39    0.49    0.088
 199. BD*(   2) C   2 - C   7        /138. RY*(  11) C   7                    0.59    0.38    0.032
 199. BD*(   2) C   2 - C   7        /194. BD*(   1) C   1 - H   8            1.65    0.36    0.052
 199. BD*(   2) C   2 - C   7        /196. BD*(   1) C   1 - H  10            0.58    0.36    0.031
 201. BD*(   2) C   3 - C   4        / 62. RY*(   3) C   3                    2.82    0.44    0.077
 201. BD*(   2) C   3 - C   4        / 70. RY*(  11) C   3                    0.52    0.39    0.031
 201. BD*(   2) C   3 - C   4        / 79. RY*(   3) C   4                    2.32    0.44    0.070
 206. BD*(   2) C   5 - C   6        / 96. RY*(   3) C   5                    3.10    0.45    0.081
 206. BD*(   2) C   5 - C   6        /104. RY*(  11) C   5                    0.53    0.35    0.030
 206. BD*(   2) C   5 - C   6        /113. RY*(   3) C   6                    2.63    0.59    0.085
 206. BD*(   2) C   5 - C   6        /124. RY*(  14) C   6                    0.58    0.49    0.036


 Natural Bond Orbitals (Summary):

                                                            Principal Delocalizations
           NBO                        Occupancy    Energy   (geminal,vicinal,remote)
 ====================================================================================
 Molecular unit  1  (C7H8)
     1. BD (   1) C   1 - C   2          1.98277    -0.62462  200(v),208(v),197(g),198(g)
                                                    60(v),128(v),194(g)
     2. BD (   1) C   1 - H   8          1.97621    -0.49836  199(v),45(v),198(v),197(v)
     3. BD (   1) C   1 - H   9          1.98672    -0.50143  198(v),199(v)
     4. BD (   1) C   1 - H  10          1.98672    -0.50143  197(v),199(v)
     5. BD (   1) C   2 - C   3          1.97423    -0.68947  198(g),200(g),210(v),204(v)
                                                    193(g),78(v),77(v),128(v)
                                                    202(g),26(v),196(v),129(v)
     6. BD (   1) C   2 - C   7          1.97423    -0.68947  197(g),208(g),202(v),209(v)
                                                    193(g),112(v),111(v),60(v)
                                                    210(g),26(v),195(v),61(v)
     7. BD (   2) C   2 - C   7          1.64720    -0.24405  206(v),201(v),194(v),62(v)
                                                    195(v),114(v),27(v),196(v)
     8. BD (   1) C   3 - C   4          1.97832    -0.69285  193(v),197(g),203(g),207(v)
                                                    44(v),95(v),43(v),202(g)
                                                    204(g),94(v)
     9. BD (   2) C   3 - C   4          1.67224    -0.24742  199(v),206(v),96(v)
    10. BD (   1) C   3 - H  11          1.97991    -0.51148  198(v),203(v),43(v),77(v)
                                                    197(g),200(g),204(v)
    11. BD (   1) C   4 - C   5          1.97934    -0.69325  200(g),205(g),209(v),202(v)
                                                    61(v),112(v),111(v),207(g)
                                                    204(g),60(v)
    12. BD (   1) C   4 - H  12          1.98059    -0.51367  197(v),205(v),94(v),60(v)
                                                    200(g),203(g),207(v)
    13. BD (   1) C   5 - C   6          1.97934    -0.69325  208(g),203(g),204(v),210(v)
                                                    129(v),78(v),77(v),207(g)
                                                    209(g),128(v)
    14. BD (   2) C   5 - C   6          1.66701    -0.24711  201(v),199(v),79(v),130(v)
                                                    131(v)
    15. BD (   1) C   5 - H  13          1.98041    -0.51362  200(v),208(v),77(v),111(v)
                                                    203(g),205(g)
    16. BD (   1) C   6 - C   7          1.97832    -0.69285  193(v),198(g),205(g),207(v)
                                                    44(v),95(v),43(v),210(g)
                                                    209(g),94(v)
    17. BD (   1) C   6 - H  14          1.98059    -0.51367  198(v),203(v),94(v),128(v)
                                                    208(g),205(g),207(v)
    18. BD (   1) C   7 - H  15          1.97991    -0.51148  197(v),205(v),43(v),111(v)
                                                    198(g),208(g),209(v)
    19. CR (   1) C   1                  1.99928   -10.02550  43(v),197(v),198(v)
    20. CR (   1) C   2                  1.99905   -10.03916  129(v),61(v),28(v),200(v)
                                                    208(v)
    21. CR (   1) C   3                  1.99905   -10.02374  44(v),78(v),193(v),198(v)
                                                    203(v),43(v)
    22. CR (   1) C   4                  1.99916   -10.02881  95(v),61(v),197(v),205(v)
                                                    64(v)
    23. CR (   1) C   5                  1.99915   -10.02715  78(v),112(v),200(v),208(v)
                                                    115(v),81(v)
    24. CR (   1) C   6                  1.99916   -10.02881  95(v),129(v),198(v),203(v)
                                                    132(v)
    25. CR (   1) C   7                  1.99905   -10.02374  44(v),112(v),193(v),197(v)
                                                    205(v),43(v)
    26. RY*(   1) C   1                  0.00369     0.60007   
    27. RY*(   2) C   1                  0.00083     1.04378   
    28. RY*(   3) C   1                  0.00039     0.59139   
    29. RY*(   4) C   1                  0.00020     2.27309   
    30. RY*(   5) C   1                  0.00009     0.53708   
    31. RY*(   6) C   1                  0.00008     1.54676   
    32. RY*(   7) C   1                  0.00002     1.38083   
    33. RY*(   8) C   1                  0.00001     1.88724   
    34. RY*(   9) C   1                  0.00000     3.08187   
    35. RY*(  10) C   1                  0.00000     1.51323   
    36. RY*(  11) C   1                  0.00000     0.44064   
    37. RY*(  12) C   1                  0.00000     2.90285   
    38. RY*(  13) C   1                  0.00000     1.84274   
    39. RY*(  14) C   1                  0.00000     0.94544   
    40. RY*(  15) C   1                  0.00001     2.00376   
    41. RY*(  16) C   1                  0.00000     1.10509   
    42. RY*(  17) C   1                  0.00000    23.12406   
    43. RY*(   1) C   2                  0.00661     1.27771   
    44. RY*(   2) C   2                  0.00295     1.14684   
    45. RY*(   3) C   2                  0.00156     0.68014   
    46. RY*(   4) C   2                  0.00062     1.67482   
    47. RY*(   5) C   2                  0.00040     2.02245   
    48. RY*(   6) C   2                  0.00039     0.76345   
    49. RY*(   7) C   2                  0.00027     1.38605   
    50. RY*(   8) C   2                  0.00014     2.64148   
    51. RY*(   9) C   2                  0.00010     3.20694   
    52. RY*(  10) C   2                  0.00007     2.16543   
    53. RY*(  11) C   2                  0.00008     1.76870   
    54. RY*(  12) C   2                  0.00004     2.24264   
    55. RY*(  13) C   2                  0.00001     1.43367   
    56. RY*(  14) C   2                  0.00000     1.25844   
    57. RY*(  15) C   2                  0.00000     0.76292   
    58. RY*(  16) C   2                  0.00000     2.51219   
    59. RY*(  17) C   2                  0.00000    21.49524   
    60. RY*(   1) C   3                  0.00597     1.11197   
    61. RY*(   2) C   3                  0.00213     1.12681   
    62. RY*(   3) C   3                  0.00088     0.47402   
    63. RY*(   4) C   3                  0.00061     1.63486   
    64. RY*(   5) C   3                  0.00047     1.02336   
    65. RY*(   6) C   3                  0.00019     1.52454   
    66. RY*(   7) C   3                  0.00011     2.95967   
    67. RY*(   8) C   3                  0.00011     2.50385   
    68. RY*(   9) C   3                  0.00004     1.56262   
    69. RY*(  10) C   3                  0.00005     1.90744   
    70. RY*(  11) C   3                  0.00000     0.42321   
    71. RY*(  12) C   3                  0.00001     1.62063   
    72. RY*(  13) C   3                  0.00000    20.68923   
    73. RY*(  14) C   3                  0.00001     2.65972   
    74. RY*(  15) C   3                  0.00000     2.69134   
    75. RY*(  16) C   3                  0.00000     2.64424   
    76. RY*(  17) C   3                  0.00001     1.10710   
    77. RY*(   1) C   4                  0.00635     1.08504   
    78. RY*(   2) C   4                  0.00228     1.28659   
    79. RY*(   3) C   4                  0.00079     0.47463   
    80. RY*(   4) C   4                  0.00062     1.66396   
    81. RY*(   5) C   4                  0.00043     0.97816   
    82. RY*(   6) C   4                  0.00025     1.03211   
    83. RY*(   7) C   4                  0.00011     2.59862   
    84. RY*(   8) C   4                  0.00008     2.54333   
    85. RY*(   9) C   4                  0.00004     1.90668   
    86. RY*(  10) C   4                  0.00002     1.89475   
    87. RY*(  11) C   4                  0.00001     1.65068   
    88. RY*(  12) C   4                  0.00000     2.71867   
    89. RY*(  13) C   4                  0.00000    21.56325   
    90. RY*(  14) C   4                  0.00000     0.52085   
    91. RY*(  15) C   4                  0.00000     1.49052   
    92. RY*(  16) C   4                  0.00000     2.53853   
    93. RY*(  17) C   4                  0.00000     1.44657   
    94. RY*(   1) C   5                  0.00601     1.12148   
    95. RY*(   2) C   5                  0.00216     1.28194   
    96. RY*(   3) C   5                  0.00095     0.48506   
    97. RY*(   4) C   5                  0.00056     1.66197   
    98. RY*(   5) C   5                  0.00039     0.83000   
    99. RY*(   6) C   5                  0.00029     1.21464   
   100. RY*(   7) C   5                  0.00011     2.53914   
   101. RY*(   8) C   5                  0.00007     3.01105   
   102. RY*(   9) C   5                  0.00003     0.79959   
   103. RY*(  10) C   5                  0.00003     1.87313   
   104. RY*(  11) C   5                  0.00000     0.38677   
   105. RY*(  12) C   5                  0.00000     2.75757   
   106. RY*(  13) C   5                  0.00000     2.70880   
   107. RY*(  14) C   5                  0.00000     1.51421   
   108. RY*(  15) C   5                  0.00001     1.68693   
   109. RY*(  16) C   5                  0.00000    22.04999   
   110. RY*(  17) C   5                  0.00000     1.51825   
   111. RY*(   1) C   6                  0.00635     1.08504   
   112. RY*(   2) C   6                  0.00228     1.28659   
   113. RY*(   3) C   6                  0.00084     0.62028   
   114. RY*(   4) C   6                  0.00058     1.51830   
   115. RY*(   5) C   6                  0.00043     0.97801   
   116. RY*(   6) C   6                  0.00025     1.03229   
   117. RY*(   7) C   6                  0.00011     2.59867   
   118. RY*(   8) C   6                  0.00008     2.54336   
   119. RY*(   9) C   6                  0.00004     1.90665   
   120. RY*(  10) C   6                  0.00002     1.89446   
   121. RY*(  11) C   6                  0.00001     1.66072   
   122. RY*(  12) C   6                  0.00000     2.71705   
   123. RY*(  13) C   6                  0.00000    21.55029   
   124. RY*(  14) C   6                  0.00000     0.52186   
   125. RY*(  15) C   6                  0.00000     1.48964   
   126. RY*(  16) C   6                  0.00000     2.52757   
   127. RY*(  17) C   6                  0.00000     1.46202   
   128. RY*(   1) C   7                  0.00597     1.11194   
   129. RY*(   2) C   7                  0.00213     1.12673   
   130. RY*(   3) C   7                  0.00091     0.53291   
   131. RY*(   4) C   7                  0.00059     1.59164   
   132. RY*(   5) C   7                  0.00047     1.00608   
   133. RY*(   6) C   7                  0.00019     1.52649   
   134. RY*(   7) C   7                  0.00011     2.95850   
   135. RY*(   8) C   7                  0.00011     2.50518   
   136. RY*(   9) C   7                  0.00004     1.56258   
   137. RY*(  10) C   7                  0.00005     1.90617   
   138. RY*(  11) C   7                  0.00000     0.42297   
   139. RY*(  12) C   7                  0.00001     1.62072   
   140. RY*(  13) C   7                  0.00000    20.68949   
   141. RY*(  14) C   7                  0.00001     2.66174   
   142. RY*(  15) C   7                  0.00000     2.69123   
   143. RY*(  16) C   7                  0.00000     2.64324   
   144. RY*(  17) C   7                  0.00001     1.10682   
   145. RY*(   1) H   8                  0.00097     0.64539   
   146. RY*(   2) H   8                  0.00017     1.82252   
   147. RY*(   3) H   8                  0.00014     1.79789   
   148. RY*(   4) H   8                  0.00010     1.14894   
   149. RY*(   5) H   8                  0.00006     2.09201   
   150. RY*(   6) H   8                  0.00002     1.71895   
   151. RY*(   1) H   9                  0.00093     0.64518   
   152. RY*(   2) H   9                  0.00016     1.93219   
   153. RY*(   3) H   9                  0.00012     1.75251   
   154. RY*(   4) H   9                  0.00010     1.13997   
   155. RY*(   5) H   9                  0.00005     1.22637   
   156. RY*(   6) H   9                  0.00002     2.45983   
   157. RY*(   1) H  10                  0.00093     0.64518   
   158. RY*(   2) H  10                  0.00016     1.93219   
   159. RY*(   3) H  10                  0.00012     1.75251   
   160. RY*(   4) H  10                  0.00010     1.13998   
   161. RY*(   5) H  10                  0.00005     1.22637   
   162. RY*(   6) H  10                  0.00002     2.45983   
   163. RY*(   1) H  11                  0.00088     0.77141   
   164. RY*(   2) H  11                  0.00020     2.07044   
   165. RY*(   3) H  11                  0.00020     1.60353   
   166. RY*(   4) H  11                  0.00013     1.76402   
   167. RY*(   5) H  11                  0.00006     0.61556   
   168. RY*(   6) H  11                  0.00004     2.49073   
   169. RY*(   1) H  12                  0.00084     0.64009   
   170. RY*(   2) H  12                  0.00020     2.33453   
   171. RY*(   3) H  12                  0.00020     1.59672   
   172. RY*(   4) H  12                  0.00012     1.94962   
   173. RY*(   5) H  12                  0.00003     2.25126   
   174. RY*(   6) H  12                  0.00002     0.47537   
   175. RY*(   1) H  13                  0.00081     0.68597   
   176. RY*(   2) H  13                  0.00020     1.60278   
   177. RY*(   3) H  13                  0.00019     2.28688   
   178. RY*(   4) H  13                  0.00012     1.97381   
   179. RY*(   5) H  13                  0.00003     0.21134   
   180. RY*(   6) H  13                  0.00003     2.48632   
   181. RY*(   1) H  14                  0.00084     0.64009   
   182. RY*(   2) H  14                  0.00020     2.33453   
   183. RY*(   3) H  14                  0.00020     1.59672   
   184. RY*(   4) H  14                  0.00012     1.94962   
   185. RY*(   5) H  14                  0.00003     2.25126   
   186. RY*(   6) H  14                  0.00002     0.47537   
   187. RY*(   1) H  15                  0.00088     0.77141   
   188. RY*(   2) H  15                  0.00020     2.07044   
   189. RY*(   3) H  15                  0.00020     1.60353   
   190. RY*(   4) H  15                  0.00013     1.76402   
   191. RY*(   5) H  15                  0.00006     0.61556   
   192. RY*(   6) H  15                  0.00004     2.49073   
   193. BD*(   1) C   1 - C   2          0.01621     0.42066   
   194. BD*(   1) C   1 - H   8          0.01047     0.40059   
   195. BD*(   1) C   1 - H   9          0.00546     0.40397   
   196. BD*(   1) C   1 - H  10          0.00546     0.40397   
   197. BD*(   1) C   2 - C   3          0.02420     0.58524   
   198. BD*(   1) C   2 - C   7          0.02420     0.58524   
   199. BD*(   2) C   2 - C   7          0.34538     0.04006  201(v),206(v),130(g),194(v)
                                                    138(g),62(v),196(v)
   200. BD*(   1) C   3 - C   4          0.01554     0.58521   
   201. BD*(   2) C   3 - C   4          0.33380     0.03445  206(v),199(v),62(g),79(g)
                                                    70(g)
   202. BD*(   1) C   3 - H  11          0.01458     0.44341   
   203. BD*(   1) C   4 - C   5          0.01636     0.58409   
   204. BD*(   1) C   4 - H  12          0.01362     0.44824   
   205. BD*(   1) C   5 - C   6          0.01636     0.58409   
   206. BD*(   2) C   5 - C   6          0.33912     0.03425  201(v),199(v),96(g),113(g)
                                                    124(g),104(g)
   207. BD*(   1) C   5 - H  13          0.01374     0.44956   
   208. BD*(   1) C   6 - C   7          0.01554     0.58521   
   209. BD*(   1) C   6 - H  14          0.01362     0.44824   
   210. BD*(   1) C   7 - H  15          0.01458     0.44341   
       -------------------------------
              Total Lewis   48.67794  ( 97.3559%)
        Valence non-Lewis    1.23821  (  2.4764%)
        Rydberg non-Lewis    0.08385  (  0.1677%)
       -------------------------------
            Total unit  1   50.00000  (100.0000%)
           Charge unit  1    0.00000
 Unable to Open any file for archive entry.
 1\1\GINC-CCC067\FOpt\RB3LYP\6-311++G(d,p)\C7H8\ROOT\12-Jun-2024\0\\# o
 pt freq b3lyp/6-311++g(d,p) pop=nbo geom=connectivity\\CC1=CC=CC=C1\\0
 ,1\C,2.2284271639,-0.1089720721,-0.0074977082\C,0.7192797653,-0.036858
 1293,-0.0181289976\C,0.0594637979,1.1910629294,-0.1388461776\C,-1.3323
 535097,1.2637209131,-0.1193974987\C,-2.092415336,0.1036768616,0.019683
 0548\C,-1.4483923757,-1.1268579425,0.1369778784\C,-0.056286521,-1.1935
 71659,0.1168917107\H,2.6183876602,-0.0185563555,1.0120787022\H,2.67007
 71437,0.696207213,-0.5993880326\H,2.5848477689,-1.0596493166,-0.411081
 2651\H,0.6415495989,2.1003312522,-0.2517952681\H,-1.8226995589,2.22615
 253,-0.2167561593\H,-3.1751390615,0.1575547745,0.0320140975\H,-2.02961
 50804,-2.0366251154,0.2404014217\H,0.4348685545,-2.1576158997,0.204844
 2515\\Version=ES64L-G16RevC.02\State=1-A\HF=-271.6388712\RMSD=6.872e-0
 9\RMSF=1.322e-04\Dipole=0.1573622,-0.006326,0.0122372\Quadrupole=2.047
 3556,1.6924891,-3.7398448,-0.0189712,-0.0443614,-0.5870857\PG=C01 [X(C
 7H8)]\\@
 The archive entry for this job was punched.


 HOW IS IT THAT THE SKY FEEDS THE STARS?

                           -- LUCRETIUS
 Job cpu time:       0 days  0 hours  5 minutes 20.1 seconds.
 Elapsed time:       0 days  0 hours  0 minutes 48.5 seconds.
 File lengths (MBytes):  RWF=     29 Int=      0 D2E=      0 Chk=      4 Scr=      1
 Normal termination of Gaussian 16 at Wed Jun 12 21:54:37 2024.
 Link1:  Proceeding to internal job step number  2.
 ----------------------------------------------------------------------
 #N Geom=AllCheck Guess=TCheck SCRF=Check GenChk RB3LYP/6-311++G(d,p) F
 req
 ----------------------------------------------------------------------
 1/10=4,29=7,30=1,38=1,40=1/1,3;
 2/12=2,40=1/2;
 3/5=4,6=6,7=1111,11=2,14=-4,25=1,30=1,70=2,71=2,74=-5,116=1,140=1/1,2,3;
 4/5=101/1;
 5/5=2,38=6,98=1/2;
 8/6=4,10=90,11=11/1;
 11/6=1,8=1,9=11,15=111,16=1/1,2,10;
 10/6=1/2;
 6/7=2,8=2,9=2,10=2,28=1,40=1/1,7;
 7/8=1,10=1,25=1/1,2,3,16;
 1/10=4,30=1/3;
 99//99;
 Structure from the checkpoint file:  "CC1=CC=CC=C1.chk"
 ------------
 CC1=CC=CC=C1
 ------------
 Charge =  0 Multiplicity = 1
 Redundant internal coordinates found in file.  (old form).
 C,0,2.2284271639,-0.1089720721,-0.0074977082
 C,0,0.7192797653,-0.0368581293,-0.0181289976
 C,0,0.0594637979,1.1910629294,-0.1388461776
 C,0,-1.3323535097,1.2637209131,-0.1193974987
 C,0,-2.092415336,0.1036768616,0.0196830548
 C,0,-1.4483923757,-1.1268579425,0.1369778784
 C,0,-0.056286521,-1.193571659,0.1168917107
 H,0,2.6183876602,-0.0185563555,1.0120787022
 H,0,2.6700771437,0.696207213,-0.5993880326
 H,0,2.5848477689,-1.0596493166,-0.4110812651
 H,0,0.6415495989,2.1003312522,-0.2517952681
 H,0,-1.8226995589,2.22615253,-0.2167561593
 H,0,-3.1751390615,0.1575547745,0.0320140975
 H,0,-2.0296150804,-2.0366251154,0.2404014217
 H,0,0.4348685545,-2.1576158997,0.2048442515
 Recover connectivity data from disk.

 GradGradGradGradGradGradGradGradGradGradGradGradGradGradGradGradGradGrad
 Berny optimization.
 Initialization pass.
                           ----------------------------
                           !    Initial Parameters    !
                           ! (Angstroms and Degrees)  !
 --------------------------                            --------------------------
 ! Name  Definition              Value          Derivative Info.                !
 --------------------------------------------------------------------------------
 ! R1    R(1,2)                  1.5109         calculate D2E/DX2 analytically  !
 ! R2    R(1,8)                  1.0953         calculate D2E/DX2 analytically  !
 ! R3    R(1,9)                  1.0926         calculate D2E/DX2 analytically  !
 ! R4    R(1,10)                 1.0926         calculate D2E/DX2 analytically  !
 ! R5    R(2,3)                  1.3992         calculate D2E/DX2 analytically  !
 ! R6    R(2,7)                  1.3992         calculate D2E/DX2 analytically  !
 ! R7    R(3,4)                  1.3938         calculate D2E/DX2 analytically  !
 ! R8    R(3,11)                 1.0855         calculate D2E/DX2 analytically  !
 ! R9    R(4,5)                  1.3938         calculate D2E/DX2 analytically  !
 ! R10   R(4,12)                 1.0845         calculate D2E/DX2 analytically  !
 ! R11   R(5,6)                  1.3938         calculate D2E/DX2 analytically  !
 ! R12   R(5,13)                 1.0841         calculate D2E/DX2 analytically  !
 ! R13   R(6,7)                  1.3938         calculate D2E/DX2 analytically  !
 ! R14   R(6,14)                 1.0845         calculate D2E/DX2 analytically  !
 ! R15   R(7,15)                 1.0855         calculate D2E/DX2 analytically  !
 ! A1    A(2,1,8)              110.9904         calculate D2E/DX2 analytically  !
 ! A2    A(2,1,9)              111.3937         calculate D2E/DX2 analytically  !
 ! A3    A(2,1,10)             111.3937         calculate D2E/DX2 analytically  !
 ! A4    A(8,1,9)              107.429          calculate D2E/DX2 analytically  !
 ! A5    A(8,1,10)             107.429          calculate D2E/DX2 analytically  !
 ! A6    A(9,1,10)             108.0152         calculate D2E/DX2 analytically  !
 ! A7    A(1,2,3)              120.8983         calculate D2E/DX2 analytically  !
 ! A8    A(1,2,7)              120.8983         calculate D2E/DX2 analytically  !
 ! A9    A(3,2,7)              118.1933         calculate D2E/DX2 analytically  !
 ! A10   A(2,3,4)              121.026          calculate D2E/DX2 analytically  !
 ! A11   A(2,3,11)             119.4204         calculate D2E/DX2 analytically  !
 ! A12   A(4,3,11)             119.5534         calculate D2E/DX2 analytically  !
 ! A13   A(3,4,5)              120.1669         calculate D2E/DX2 analytically  !
 ! A14   A(3,4,12)             119.7673         calculate D2E/DX2 analytically  !
 ! A15   A(5,4,12)             120.0654         calculate D2E/DX2 analytically  !
 ! A16   A(4,5,6)              119.4201         calculate D2E/DX2 analytically  !
 ! A17   A(4,5,13)             120.2897         calculate D2E/DX2 analytically  !
 ! A18   A(6,5,13)             120.2897         calculate D2E/DX2 analytically  !
 ! A19   A(5,6,7)              120.1669         calculate D2E/DX2 analytically  !
 ! A20   A(5,6,14)             120.0654         calculate D2E/DX2 analytically  !
 ! A21   A(7,6,14)             119.7673         calculate D2E/DX2 analytically  !
 ! A22   A(2,7,6)              121.026          calculate D2E/DX2 analytically  !
 ! A23   A(2,7,15)             119.4204         calculate D2E/DX2 analytically  !
 ! A24   A(6,7,15)             119.5534         calculate D2E/DX2 analytically  !
 ! D1    D(8,1,2,3)             89.414          calculate D2E/DX2 analytically  !
 ! D2    D(8,1,2,7)            -89.4141         calculate D2E/DX2 analytically  !
 ! D3    D(9,1,2,3)            -30.2467         calculate D2E/DX2 analytically  !
 ! D4    D(9,1,2,7)            150.9251         calculate D2E/DX2 analytically  !
 ! D5    D(10,1,2,3)          -150.9252         calculate D2E/DX2 analytically  !
 ! D6    D(10,1,2,7)            30.2466         calculate D2E/DX2 analytically  !
 ! D7    D(1,2,3,4)           -178.5747         calculate D2E/DX2 analytically  !
 ! D8    D(1,2,3,11)             1.5766         calculate D2E/DX2 analytically  !
 ! D9    D(7,2,3,4)              0.2844         calculate D2E/DX2 analytically  !
 ! D10   D(7,2,3,11)          -179.5642         calculate D2E/DX2 analytically  !
 ! D11   D(1,2,7,6)            178.5747         calculate D2E/DX2 analytically  !
 ! D12   D(1,2,7,15)            -1.5766         calculate D2E/DX2 analytically  !
 ! D13   D(3,2,7,6)             -0.2844         calculate D2E/DX2 analytically  !
 ! D14   D(3,2,7,15)           179.5642         calculate D2E/DX2 analytically  !
 ! D15   D(2,3,4,5)             -0.102          calculate D2E/DX2 analytically  !
 ! D16   D(2,3,4,12)          -179.866          calculate D2E/DX2 analytically  !
 ! D17   D(11,3,4,5)           179.7465         calculate D2E/DX2 analytically  !
 ! D18   D(11,3,4,12)           -0.0175         calculate D2E/DX2 analytically  !
 ! D19   D(3,4,5,6)             -0.0875         calculate D2E/DX2 analytically  !
 ! D20   D(3,4,5,13)          -179.8125         calculate D2E/DX2 analytically  !
 ! D21   D(12,4,5,6)           179.6759         calculate D2E/DX2 analytically  !
 ! D22   D(12,4,5,13)           -0.0491         calculate D2E/DX2 analytically  !
 ! D23   D(4,5,6,7)              0.0875         calculate D2E/DX2 analytically  !
 ! D24   D(4,5,6,14)          -179.6759         calculate D2E/DX2 analytically  !
 ! D25   D(13,5,6,7)           179.8125         calculate D2E/DX2 analytically  !
 ! D26   D(13,5,6,14)            0.0491         calculate D2E/DX2 analytically  !
 ! D27   D(5,6,7,2)              0.102          calculate D2E/DX2 analytically  !
 ! D28   D(5,6,7,15)          -179.7465         calculate D2E/DX2 analytically  !
 ! D29   D(14,6,7,2)           179.866          calculate D2E/DX2 analytically  !
 ! D30   D(14,6,7,15)            0.0175         calculate D2E/DX2 analytically  !
 --------------------------------------------------------------------------------
 Trust Radius=3.00D-01 FncErr=1.00D-07 GrdErr=1.00D-07 EigMax=2.50D+02 EigMin=1.00D-04
 Number of steps in this run=      2 maximum allowed number of steps=      2.
 GradGradGradGradGradGradGradGradGradGradGradGradGradGradGradGradGradGrad

                          Input orientation:                          
 ---------------------------------------------------------------------
 Center     Atomic      Atomic             Coordinates (Angstroms)
 Number     Number       Type             X           Y           Z
 ---------------------------------------------------------------------
      1          6           0        2.228427   -0.108972   -0.007498
      2          6           0        0.719280   -0.036858   -0.018129
      3          6           0        0.059464    1.191063   -0.138846
      4          6           0       -1.332354    1.263721   -0.119397
      5          6           0       -2.092415    0.103677    0.019683
      6          6           0       -1.448392   -1.126858    0.136978
      7          6           0       -0.056287   -1.193572    0.116892
      8          1           0        2.618388   -0.018556    1.012079
      9          1           0        2.670077    0.696207   -0.599388
     10          1           0        2.584848   -1.059649   -0.411081
     11          1           0        0.641550    2.100331   -0.251795
     12          1           0       -1.822700    2.226153   -0.216756
     13          1           0       -3.175139    0.157555    0.032014
     14          1           0       -2.029615   -2.036625    0.240401
     15          1           0        0.434869   -2.157616    0.204844
 ---------------------------------------------------------------------
                    Distance matrix (angstroms):
                    1          2          3          4          5
     1  C    0.000000
     2  C    1.510907   0.000000
     3  C    2.532142   1.399185   0.000000
     4  C    3.817848   2.431247   1.393848   0.000000
     5  C    4.326157   2.815459   2.416221   1.393822   0.000000
     6  C    3.817848   2.431247   2.778933   2.407086   1.393822
     7  C    2.532142   1.399185   2.401100   2.778933   2.416221
     8  H    1.095345   2.160619   3.055470   4.304977   4.815751
     9  H    1.092567   2.163529   2.696717   4.070862   4.838975
    10  H    1.092567   2.163529   3.393727   4.563726   4.838975
    11  H    2.731096   2.151330   1.085518   2.147962   3.396306
    12  H    4.680622   3.409154   2.149423   1.084524   2.152569
    13  H    5.410280   3.899591   3.399998   2.154620   1.084134
    14  H    4.680622   3.409154   3.863425   3.392331   2.152569
    15  H    2.731096   2.151330   3.387138   3.864421   3.396306
                    6          7          8          9         10
     6  C    0.000000
     7  C    1.393848   0.000000
     8  H    4.304978   3.055471   0.000000
     9  H    4.563726   3.393727   1.763628   0.000000
    10  H    4.070861   2.696717   1.763628   1.767981   0.000000
    11  H    3.864421   3.387138   3.161479   2.491447   3.713120
    12  H    3.392331   3.863425   5.125623   4.761532   5.500975
    13  H    2.154620   3.399998   5.878477   5.903843   5.903843
    14  H    1.084524   2.149423   5.125624   5.500975   4.761531
    15  H    2.147962   1.085518   3.161480   3.713119   2.491446
                   11         12         13         14         15
    11  H    0.000000
    12  H    2.467708   0.000000
    13  H    4.292090   2.483964   0.000000
    14  H    4.948918   4.292212   2.483964   0.000000
    15  H    4.287348   4.948918   4.292090   2.467708   0.000000
 Stoichiometry    C7H8
 Framework group  C1[X(C7H8)]
 Deg. of freedom    39
 Full point group                 C1      NOp   1
 Largest Abelian subgroup         C1      NOp   1
 Largest concise Abelian subgroup C1      NOp   1
                         Standard orientation:                         
 ---------------------------------------------------------------------
 Center     Atomic      Atomic             Coordinates (Angstroms)
 Number     Number       Type             X           Y           Z
 ---------------------------------------------------------------------
      1          6           0       -2.423529    0.000000    0.009376
      2          6           0       -0.912763    0.000000   -0.011215
      3          6           0       -0.194158   -1.200550   -0.008730
      4          6           0        1.199646   -1.203543    0.002018
      5          6           0        1.902628   -0.000000    0.008367
      6          6           0        1.199646    1.203543    0.002018
      7          6           0       -0.194158    1.200550   -0.008730
      8          1           0       -2.801921   -0.000001    1.037287
      9          1           0       -2.828893   -0.883990   -0.488564
     10          1           0       -2.828893    0.883991   -0.488562
     11          1           0       -0.731546   -2.143674   -0.017779
     12          1           0        1.736085   -2.146106    0.001553
     13          1           0        2.986749   -0.000000    0.013666
     14          1           0        1.736085    2.146106    0.001553
     15          1           0       -0.731546    2.143674   -0.017779
 ---------------------------------------------------------------------
 Rotational constants (GHZ):           5.5506266           2.5143960           1.7493219
 Standard basis: 6-311++G(d,p) (5D, 7F)
 There are   217 symmetry adapted cartesian basis functions of A   symmetry.
 There are   210 symmetry adapted basis functions of A   symmetry.
   210 basis functions,   324 primitive gaussians,   217 cartesian basis functions
    25 alpha electrons       25 beta electrons
       nuclear repulsion energy       269.0289351778 Hartrees.
 NAtoms=   15 NActive=   15 NUniq=   15 SFac= 1.00D+00 NAtFMM=   60 NAOKFM=F Big=F
 Integral buffers will be    131072 words long.
 Raffenetti 2 integral format.
 Two-electron integral symmetry is turned on.
 One-electron integrals computed using PRISM.
 NBasis=   210 RedAO= T EigKep=  1.10D-06  NBF=   210
 NBsUse=   210 1.00D-06 EigRej= -1.00D+00 NBFU=   210
 Initial guess from the checkpoint file:  "CC1=CC=CC=C1.chk"
 B after Tr=     0.000000    0.000000   -0.000000
         Rot=    1.000000   -0.000000    0.000000    0.000000 Ang=   0.00 deg.
 Requested convergence on RMS density matrix=1.00D-08 within 128 cycles.
 Requested convergence on MAX density matrix=1.00D-06.
 Requested convergence on             energy=1.00D-06.
 No special actions if energy rises.
 SCF Done:  E(RB3LYP) =  -271.638871213     A.U. after    1 cycles
            NFock=  1  Conv=0.27D-08     -V/T= 2.0048
 DoSCS=F DFT=T ScalE2(SS,OS)=  1.000000  1.000000
 Range of M.O.s used for correlation:     1   210
 NBasis=   210 NAE=    25 NBE=    25 NFC=     0 NFV=     0
 NROrb=    210 NOA=    25 NOB=    25 NVA=   185 NVB=   185

 **** Warning!!: The largest alpha MO coefficient is  0.20090724D+03

 Symmetrizing basis deriv contribution to polar:
 IMax=3 JMax=2 DiffMx= 0.00D+00
 G2DrvN: will do    16 centers at a time, making    1 passes.
 Calling FoFCou, ICntrl=  3107 FMM=F I1Cent=   0 AccDes= 0.00D+00.
 End of G2Drv F.D. properties file   721 does not exist.
 End of G2Drv F.D. properties file   722 does not exist.
 End of G2Drv F.D. properties file   788 does not exist.
          IDoAtm=111111111111111
          Differentiating once with respect to electric field.
                with respect to dipole field.
          Differentiating once with respect to nuclear coordinates.
 Keep R1 ints in memory in canonical form, NReq=253799322.
          There are    48 degrees of freedom in the 1st order CPHF.  IDoFFX=6 NUNeed=     3.
     45 vectors produced by pass  0 Test12= 9.64D-15 2.08D-09 XBig12= 1.13D+02 6.63D+00.
 AX will form    45 AO Fock derivatives at one time.
     45 vectors produced by pass  1 Test12= 9.64D-15 2.08D-09 XBig12= 2.40D+01 8.72D-01.
     45 vectors produced by pass  2 Test12= 9.64D-15 2.08D-09 XBig12= 1.57D-01 7.66D-02.
     45 vectors produced by pass  3 Test12= 9.64D-15 2.08D-09 XBig12= 4.60D-04 4.80D-03.
     45 vectors produced by pass  4 Test12= 9.64D-15 2.08D-09 XBig12= 7.58D-07 1.58D-04.
     34 vectors produced by pass  5 Test12= 9.64D-15 2.08D-09 XBig12= 8.17D-10 3.48D-06.
      9 vectors produced by pass  6 Test12= 9.64D-15 2.08D-09 XBig12= 6.60D-13 1.18D-07.
      2 vectors produced by pass  7 Test12= 9.64D-15 2.08D-09 XBig12= 6.71D-16 5.04D-09.
 InvSVY:  IOpt=1 It=  1 EMax= 1.78D-15
 Solved reduced A of dimension   270 with    48 vectors.
 Isotropic polarizability for W=    0.000000       79.91 Bohr**3.
 End of Minotr F.D. properties file   721 does not exist.
 End of Minotr F.D. properties file   722 does not exist.
 End of Minotr F.D. properties file   788 does not exist.

 **********************************************************************

            Population analysis using the SCF Density.

 **********************************************************************

 Orbital symmetries:
       Occupied  (A) (A) (A) (A) (A) (A) (A) (A) (A) (A) (A) (A)
                 (A) (A) (A) (A) (A) (A) (A) (A) (A) (A) (A) (A)
                 (A)
       Virtual   (A) (A) (A) (A) (A) (A) (A) (A) (A) (A) (A) (A)
                 (A) (A) (A) (A) (A) (A) (A) (A) (A) (A) (A) (A)
                 (A) (A) (A) (A) (A) (A) (A) (A) (A) (A) (A) (A)
                 (A) (A) (A) (A) (A) (A) (A) (A) (A) (A) (A) (A)
                 (A) (A) (A) (A) (A) (A) (A) (A) (A) (A) (A) (A)
                 (A) (A) (A) (A) (A) (A) (A) (A) (A) (A) (A) (A)
                 (A) (A) (A) (A) (A) (A) (A) (A) (A) (A) (A) (A)
                 (A) (A) (A) (A) (A) (A) (A) (A) (A) (A) (A) (A)
                 (A) (A) (A) (A) (A) (A) (A) (A) (A) (A) (A) (A)
                 (A) (A) (A) (A) (A) (A) (A) (A) (A) (A) (A) (A)
                 (A) (A) (A) (A) (A) (A) (A) (A) (A) (A) (A) (A)
                 (A) (A) (A) (A) (A) (A) (A) (A) (A) (A) (A) (A)
                 (A) (A) (A) (A) (A) (A) (A) (A) (A) (A) (A) (A)
                 (A) (A) (A) (A) (A) (A) (A) (A) (A) (A) (A) (A)
                 (A) (A) (A) (A) (A) (A) (A) (A) (A) (A) (A) (A)
                 (A) (A) (A) (A) (A)
 The electronic state is 1-A.
 Alpha  occ. eigenvalues --  -10.18524 -10.17552 -10.17546 -10.17328 -10.17289
 Alpha  occ. eigenvalues --  -10.17287 -10.16975  -0.86024  -0.77507  -0.74785
 Alpha  occ. eigenvalues --   -0.68889  -0.60839  -0.58759  -0.51515  -0.46438
 Alpha  occ. eigenvalues --   -0.45745  -0.42422  -0.42346  -0.41241  -0.38935
 Alpha  occ. eigenvalues --   -0.35948  -0.34634  -0.34344  -0.25668  -0.24778
 Alpha virt. eigenvalues --   -0.01600  -0.01378  -0.00733   0.00523   0.00989
 Alpha virt. eigenvalues --    0.02828   0.03242   0.03549   0.05441   0.05788
 Alpha virt. eigenvalues --    0.06353   0.07388   0.08256   0.08874   0.10826
 Alpha virt. eigenvalues --    0.11191   0.11248   0.11991   0.12069   0.12203
 Alpha virt. eigenvalues --    0.12475   0.12522   0.13623   0.13880   0.14451
 Alpha virt. eigenvalues --    0.15233   0.15834   0.16795   0.17040   0.17548
 Alpha virt. eigenvalues --    0.18010   0.18401   0.18733   0.19845   0.21298
 Alpha virt. eigenvalues --    0.21487   0.23588   0.24521   0.24655   0.25900
 Alpha virt. eigenvalues --    0.26055   0.27250   0.28403   0.28435   0.29976
 Alpha virt. eigenvalues --    0.30850   0.31375   0.32464   0.35792   0.35891
 Alpha virt. eigenvalues --    0.37199   0.37268   0.46731   0.47163   0.49951
 Alpha virt. eigenvalues --    0.51756   0.53505   0.54122   0.54455   0.55508
 Alpha virt. eigenvalues --    0.56341   0.56939   0.58536   0.59795   0.60479
 Alpha virt. eigenvalues --    0.63215   0.63641   0.65255   0.65752   0.66251
 Alpha virt. eigenvalues --    0.68496   0.69629   0.72309   0.73097   0.76207
 Alpha virt. eigenvalues --    0.76665   0.78705   0.81501   0.84592   0.85345
 Alpha virt. eigenvalues --    0.87252   0.88383   0.88663   0.89707   0.90787
 Alpha virt. eigenvalues --    0.91967   0.95438   0.98427   1.01308   1.01859
 Alpha virt. eigenvalues --    1.03980   1.06630   1.08344   1.13086   1.14096
 Alpha virt. eigenvalues --    1.32881   1.35586   1.37191   1.38639   1.46917
 Alpha virt. eigenvalues --    1.48580   1.52632   1.52860   1.53446   1.56326
 Alpha virt. eigenvalues --    1.56870   1.58045   1.60124   1.61112   1.63164
 Alpha virt. eigenvalues --    1.65254   1.68074   1.69236   1.73469   1.74778
 Alpha virt. eigenvalues --    1.77619   1.80491   1.83864   1.84154   1.88550
 Alpha virt. eigenvalues --    1.92265   1.93024   1.94017   1.95109   1.95751
 Alpha virt. eigenvalues --    2.01090   2.02112   2.05656   2.06757   2.08317
 Alpha virt. eigenvalues --    2.17811   2.22259   2.23415   2.32979   2.37483
 Alpha virt. eigenvalues --    2.40776   2.43608   2.44860   2.45487   2.46456
 Alpha virt. eigenvalues --    2.54453   2.55588   2.59959   2.60615   2.64335
 Alpha virt. eigenvalues --    2.66604   2.68094   2.70098   2.71635   2.72619
 Alpha virt. eigenvalues --    2.75915   2.75916   2.78508   2.80567   2.82907
 Alpha virt. eigenvalues --    2.86343   2.90243   2.92846   2.93698   2.95187
 Alpha virt. eigenvalues --    2.96561   3.09138   3.15549   3.21854   3.34461
 Alpha virt. eigenvalues --    3.37607   3.49006   3.52120   3.62421   3.69457
 Alpha virt. eigenvalues --    3.80506   3.82413   3.99723   4.04560   4.14761
 Alpha virt. eigenvalues --    4.15519   4.33099   4.84537  23.59105  23.92513
 Alpha virt. eigenvalues --   23.97161  23.98776  24.08621  24.09961  24.19884
          Condensed to atoms (all electrons):
               1          2          3          4          5          6
     1  C    6.803725  -0.496015  -0.541840   0.042858   0.033274   0.042858
     2  C   -0.496015   8.712295  -2.463424   1.498306  -1.563181   1.498305
     3  C   -0.541840  -2.463424   9.343526  -1.277581   1.298243  -1.517234
     4  C    0.042858   1.498306  -1.277581   6.247328  -0.507476   0.927646
     5  C    0.033274  -1.563181   1.298243  -0.507476   6.156829  -0.507476
     6  C    0.042858   1.498305  -1.517234   0.927646  -0.507476   6.247328
     7  C   -0.541839  -2.463427   1.850024  -1.517235   1.298244  -1.277582
     8  H    0.386875   0.072137  -0.073313   0.026380  -0.013025   0.026380
     9  H    0.402496  -0.077523   0.094781   0.033627  -0.008302  -0.002578
    10  H    0.402496  -0.077523  -0.088556  -0.002578  -0.008302   0.033627
    11  H   -0.001303  -0.056036   0.387463  -0.039051   0.014171  -0.005194
    12  H    0.007602   0.056667  -0.102271   0.416925  -0.048892   0.013637
    13  H   -0.001685   0.022248  -0.020051  -0.004715   0.360677  -0.004715
    14  H    0.007602   0.056667  -0.029568   0.013637  -0.048892   0.416925
    15  H   -0.001303  -0.056036   0.044212  -0.005194   0.014171  -0.039051
               7          8          9         10         11         12
     1  C   -0.541839   0.386875   0.402496   0.402496  -0.001303   0.007602
     2  C   -2.463427   0.072137  -0.077523  -0.077523  -0.056036   0.056667
     3  C    1.850024  -0.073313   0.094781  -0.088556   0.387463  -0.102271
     4  C   -1.517235   0.026380   0.033627  -0.002578  -0.039051   0.416925
     5  C    1.298244  -0.013025  -0.008302  -0.008302   0.014171  -0.048892
     6  C   -1.277582   0.026380  -0.002578   0.033627  -0.005194   0.013637
     7  C    9.343530  -0.073313  -0.088556   0.094781   0.044212  -0.029568
     8  H   -0.073313   0.565439  -0.039030  -0.039030  -0.001664   0.000403
     9  H   -0.088556  -0.039030   0.568453  -0.025421  -0.000496   0.000804
    10  H    0.094781  -0.039030  -0.025421   0.568453   0.001048   0.000386
    11  H    0.044212  -0.001664  -0.000496   0.001048   0.539580  -0.014821
    12  H   -0.029568   0.000403   0.000804   0.000386  -0.014821   0.545163
    13  H   -0.020051  -0.000079  -0.000290  -0.000290  -0.001304  -0.009409
    14  H   -0.102271   0.000403   0.000386   0.000804   0.000574  -0.001181
    15  H    0.387463  -0.001664   0.001048  -0.000496  -0.002252   0.000574
              13         14         15
     1  C   -0.001685   0.007602  -0.001303
     2  C    0.022248   0.056667  -0.056036
     3  C   -0.020051  -0.029568   0.044212
     4  C   -0.004715   0.013637  -0.005194
     5  C    0.360677  -0.048892   0.014171
     6  C   -0.004715   0.416925  -0.039051
     7  C   -0.020051  -0.102271   0.387463
     8  H   -0.000079   0.000403  -0.001664
     9  H   -0.000290   0.000386   0.001048
    10  H   -0.000290   0.000804  -0.000496
    11  H   -0.001304   0.000574  -0.002252
    12  H   -0.009409  -0.001181   0.000574
    13  H    0.538905  -0.009409  -0.001304
    14  H   -0.009409   0.545163  -0.014821
    15  H   -0.001304  -0.014821   0.539580
 Mulliken charges:
               1
     1  C   -0.545800
     2  C    1.336539
     3  C   -0.904409
     4  C    0.147125
     5  C   -0.470061
     6  C    0.147125
     7  C   -0.904411
     8  H    0.163103
     9  H    0.140602
    10  H    0.140602
    11  H    0.135074
    12  H    0.163984
    13  H    0.151472
    14  H    0.163984
    15  H    0.135074
 Sum of Mulliken charges =  -0.00000
 Mulliken charges with hydrogens summed into heavy atoms:
               1
     1  C   -0.101495
     2  C    1.336539
     3  C   -0.769335
     4  C    0.311108
     5  C   -0.318590
     6  C    0.311108
     7  C   -0.769336
 APT charges:
               1
     1  C    0.075086
     2  C    0.081024
     3  C   -0.078504
     4  C   -0.009239
     5  C   -0.065944
     6  C   -0.009239
     7  C   -0.078504
     8  H   -0.026227
     9  H   -0.013488
    10  H   -0.013488
    11  H    0.026271
    12  H    0.027222
    13  H    0.031538
    14  H    0.027222
    15  H    0.026271
 Sum of APT charges =   0.00000
 APT charges with hydrogens summed into heavy atoms:
               1
     1  C    0.021883
     2  C    0.081024
     3  C   -0.052233
     4  C    0.017983
     5  C   -0.034406
     6  C    0.017983
     7  C   -0.052234
 Electronic spatial extent (au):  <R**2>=            720.1169
 Charge=             -0.0000 electrons
 Dipole moment (field-independent basis, Debye):
    X=             -0.4001    Y=             -0.0000    Z=              0.0339  Tot=              0.4015
 Quadrupole moment (field-independent basis, Debye-Ang):
   XX=            -38.7068   YY=            -39.1020   ZZ=            -46.5768
   XY=              0.0000   XZ=             -0.0301   YZ=              0.0000
 Traceless Quadrupole moment (field-independent basis, Debye-Ang):
   XX=              2.7551   YY=              2.3599   ZZ=             -5.1150
   XY=              0.0000   XZ=             -0.0301   YZ=              0.0000
 Octapole moment (field-independent basis, Debye-Ang**2):
  XXX=              4.0931  YYY=              0.0000  ZZZ=              0.7152  XYY=              0.9776
  XXY=             -0.0000  XXZ=              0.1083  XZZ=             -4.0494  YZZ=             -0.0000
  YYZ=             -0.6414  XYZ=             -0.0000
 Hexadecapole moment (field-independent basis, Debye-Ang**3):
 XXXX=           -619.7832 YYYY=           -292.3159 ZZZZ=            -63.2521 XXXY=             -0.0000
 XXXZ=              0.2988 YYYX=             -0.0000 YYYZ=              0.0000 ZZZX=             -1.9534
 ZZZY=             -0.0000 XXYY=           -149.0581 XXZZ=           -122.7489 YYZZ=            -70.0030
 XXYZ=              0.0000 YYXZ=              1.8031 ZZXY=              0.0000
 N-N= 2.690289351778D+02 E-N=-1.167529720593D+03  KE= 2.703347811838D+02
  Exact polarizability:     100.725       0.000      87.843      -0.452      -0.000      51.174
 Approx polarizability:     150.228       0.000     144.212      -0.551      -0.000      75.768
 ******************************Gaussian NBO Version 3.1******************************
             N A T U R A L   A T O M I C   O R B I T A L   A N D
          N A T U R A L   B O N D   O R B I T A L   A N A L Y S I S
 ******************************Gaussian NBO Version 3.1******************************
       /RESON  / : Allow strongly delocalized NBO set

 Analyzing the SCF density

 Job title: CC1=CC=CC=C1                                                    

 Storage needed:    133260 in NPA,    177277 in NBO (1258289925 available)
 GSVD:  LWork=        8730 too small for GESVD, short by       60831 words or       60831 for optimal perf.


 NATURAL POPULATIONS:  Natural atomic orbital occupancies 
                                                          
   NAO  Atom  No  lang   Type(AO)    Occupancy      Energy
 ----------------------------------------------------------
     1    C    1  S      Cor( 1S)     1.99928     -10.02559
     2    C    1  S      Val( 2S)     1.07607      -0.23971
     3    C    1  S      Ryd( 4S)     0.00055       0.79224
     4    C    1  S      Ryd( 3S)     0.00008       0.73265
     5    C    1  S      Ryd( 5S)     0.00000      23.24117
     6    C    1  px     Val( 2p)     1.07733      -0.08351
     7    C    1  px     Ryd( 4p)     0.00108       0.47062
     8    C    1  px     Ryd( 3p)     0.00014       0.45529
     9    C    1  px     Ryd( 5p)     0.00008       2.93178
    10    C    1  py     Val( 2p)     1.21643      -0.09399
    11    C    1  py     Ryd( 4p)     0.00375       0.51779
    12    C    1  py     Ryd( 3p)     0.00008       0.45693
    13    C    1  py     Ryd( 5p)     0.00002       2.95549
    14    C    1  pz     Val( 2p)     1.20939      -0.09466
    15    C    1  pz     Ryd( 4p)     0.00046       0.50045
    16    C    1  pz     Ryd( 3p)     0.00004       0.44277
    17    C    1  pz     Ryd( 5p)     0.00004       2.93677
    18    C    1  dxy    Ryd( 3d)     0.00052       2.08921
    19    C    1  dxz    Ryd( 3d)     0.00063       1.93150
    20    C    1  dyz    Ryd( 3d)     0.00058       2.04684
    21    C    1  dx2y2  Ryd( 3d)     0.00075       2.22541
    22    C    1  dz2    Ryd( 3d)     0.00071       2.10529
 
    23    C    2  S      Cor( 1S)     1.99904     -10.03910
    24    C    2  S      Val( 2S)     0.89236      -0.13787
    25    C    2  S      Ryd( 4S)     0.00067       0.73971
    26    C    2  S      Ryd( 3S)     0.00011       0.56086
    27    C    2  S      Ryd( 5S)     0.00001      23.34380
    28    C    2  px     Val( 2p)     1.05687      -0.05243
    29    C    2  px     Ryd( 4p)     0.00639       1.21729
    30    C    2  px     Ryd( 3p)     0.00023       0.80310
    31    C    2  px     Ryd( 5p)     0.00008       3.02185
    32    C    2  py     Val( 2p)     1.08563      -0.04644
    33    C    2  py     Ryd( 4p)     0.00326       0.87951
    34    C    2  py     Ryd( 3p)     0.00028       0.73276
    35    C    2  py     Ryd( 5p)     0.00012       2.96902
    36    C    2  pz     Val( 2p)     0.98112      -0.09757
    37    C    2  pz     Ryd( 3p)     0.00140       0.57347
    38    C    2  pz     Ryd( 4p)     0.00038       0.67546
    39    C    2  pz     Ryd( 5p)     0.00002       2.40063
    40    C    2  dxy    Ryd( 3d)     0.00087       2.61205
    41    C    2  dxz    Ryd( 3d)     0.00063       1.67686
    42    C    2  dyz    Ryd( 3d)     0.00052       1.67414
    43    C    2  dx2y2  Ryd( 3d)     0.00071       2.47832
    44    C    2  dz2    Ryd( 3d)     0.00036       2.08870
 
    45    C    3  S      Cor( 1S)     1.99904     -10.02340
    46    C    3  S      Val( 2S)     0.94166      -0.14830
    47    C    3  S      Ryd( 4S)     0.00128       0.89718
    48    C    3  S      Ryd( 3S)     0.00011       0.56984
    49    C    3  S      Ryd( 5S)     0.00001      23.16118
    50    C    3  px     Val( 2p)     1.09383      -0.04575
    51    C    3  px     Ryd( 4p)     0.00479       0.89822
    52    C    3  px     Ryd( 3p)     0.00031       0.42688
    53    C    3  px     Ryd( 5p)     0.00011       3.16108
    54    C    3  py     Val( 2p)     1.14341      -0.04520
    55    C    3  py     Ryd( 4p)     0.00552       0.99579
    56    C    3  py     Ryd( 3p)     0.00025       0.43669
    57    C    3  py     Ryd( 5p)     0.00007       3.13969
    58    C    3  pz     Val( 2p)     1.01004      -0.10580
    59    C    3  pz     Ryd( 4p)     0.00106       0.51373
    60    C    3  pz     Ryd( 3p)     0.00039       0.29269
    61    C    3  pz     Ryd( 5p)     0.00001       2.72530
    62    C    3  dxy    Ryd( 3d)     0.00080       2.51769
    63    C    3  dxz    Ryd( 3d)     0.00046       1.66454
    64    C    3  dyz    Ryd( 3d)     0.00042       1.63768
    65    C    3  dx2y2  Ryd( 3d)     0.00073       2.56998
    66    C    3  dz2    Ryd( 3d)     0.00038       2.07134
 
    67    C    4  S      Cor( 1S)     1.99915     -10.02855
    68    C    4  S      Val( 2S)     0.95057      -0.15864
    69    C    4  S      Ryd( 3S)     0.00148       0.78532
    70    C    4  S      Ryd( 4S)     0.00009       1.12921
    71    C    4  S      Ryd( 5S)     0.00000      22.63246
    72    C    4  px     Val( 2p)     1.08829      -0.04220
    73    C    4  px     Ryd( 4p)     0.00507       0.85036
    74    C    4  px     Ryd( 3p)     0.00036       0.39497
    75    C    4  px     Ryd( 5p)     0.00013       3.09762
    76    C    4  py     Val( 2p)     1.14512      -0.04534
    77    C    4  py     Ryd( 4p)     0.00665       1.00219
    78    C    4  py     Ryd( 3p)     0.00022       0.45703
    79    C    4  py     Ryd( 5p)     0.00008       3.10277
    80    C    4  pz     Val( 2p)     0.99427      -0.10554
    81    C    4  pz     Ryd( 4p)     0.00109       0.51439
    82    C    4  pz     Ryd( 3p)     0.00033       0.30440
    83    C    4  pz     Ryd( 5p)     0.00001       2.69382
    84    C    4  dxy    Ryd( 3d)     0.00079       2.51612
    85    C    4  dxz    Ryd( 3d)     0.00048       1.66306
    86    C    4  dyz    Ryd( 3d)     0.00039       1.63029
    87    C    4  dx2y2  Ryd( 3d)     0.00069       2.56839
    88    C    4  dz2    Ryd( 3d)     0.00039       2.06598
 
    89    C    5  S      Cor( 1S)     1.99915     -10.02687
    90    C    5  S      Val( 2S)     0.95134      -0.15786
    91    C    5  S      Ryd( 3S)     0.00131       0.85239
    92    C    5  S      Ryd( 4S)     0.00007       1.18174
    93    C    5  S      Ryd( 5S)     0.00000      22.57226
    94    C    5  px     Val( 2p)     1.17132      -0.04516
    95    C    5  px     Ryd( 4p)     0.00664       1.07706
    96    C    5  px     Ryd( 3p)     0.00017       0.49254
    97    C    5  px     Ryd( 5p)     0.00005       3.08239
    98    C    5  py     Val( 2p)     1.06330      -0.04371
    99    C    5  py     Ryd( 4p)     0.00463       0.76912
   100    C    5  py     Ryd( 3p)     0.00053       0.37382
   101    C    5  py     Ryd( 5p)     0.00015       3.08343
   102    C    5  pz     Val( 2p)     1.01003      -0.10546
   103    C    5  pz     Ryd( 4p)     0.00133       0.51382
   104    C    5  pz     Ryd( 3p)     0.00027       0.30440
   105    C    5  pz     Ryd( 5p)     0.00002       2.69382
   106    C    5  dxy    Ryd( 3d)     0.00066       2.59857
   107    C    5  dxz    Ryd( 3d)     0.00037       1.61729
   108    C    5  dyz    Ryd( 3d)     0.00048       1.67712
   109    C    5  dx2y2  Ryd( 3d)     0.00085       2.48930
   110    C    5  dz2    Ryd( 3d)     0.00039       2.07721
 
   111    C    6  S      Cor( 1S)     1.99915     -10.02855
   112    C    6  S      Val( 2S)     0.95057      -0.15864
   113    C    6  S      Ryd( 3S)     0.00148       0.78532
   114    C    6  S      Ryd( 4S)     0.00009       1.12921
   115    C    6  S      Ryd( 5S)     0.00000      22.63246
   116    C    6  px     Val( 2p)     1.08829      -0.04220
   117    C    6  px     Ryd( 4p)     0.00507       0.85036
   118    C    6  px     Ryd( 3p)     0.00036       0.39497
   119    C    6  px     Ryd( 5p)     0.00013       3.09762
   120    C    6  py     Val( 2p)     1.14512      -0.04534
   121    C    6  py     Ryd( 4p)     0.00665       1.00219
   122    C    6  py     Ryd( 3p)     0.00022       0.45703
   123    C    6  py     Ryd( 5p)     0.00008       3.10277
   124    C    6  pz     Val( 2p)     0.99427      -0.10554
   125    C    6  pz     Ryd( 4p)     0.00109       0.51439
   126    C    6  pz     Ryd( 3p)     0.00033       0.30440
   127    C    6  pz     Ryd( 5p)     0.00001       2.69382
   128    C    6  dxy    Ryd( 3d)     0.00079       2.51612
   129    C    6  dxz    Ryd( 3d)     0.00048       1.66306
   130    C    6  dyz    Ryd( 3d)     0.00039       1.63029
   131    C    6  dx2y2  Ryd( 3d)     0.00069       2.56839
   132    C    6  dz2    Ryd( 3d)     0.00039       2.06598
 
   133    C    7  S      Cor( 1S)     1.99904     -10.02340
   134    C    7  S      Val( 2S)     0.94166      -0.14830
   135    C    7  S      Ryd( 4S)     0.00128       0.89718
   136    C    7  S      Ryd( 3S)     0.00011       0.56984
   137    C    7  S      Ryd( 5S)     0.00001      23.16118
   138    C    7  px     Val( 2p)     1.09383      -0.04575
   139    C    7  px     Ryd( 4p)     0.00479       0.89822
   140    C    7  px     Ryd( 3p)     0.00031       0.42688
   141    C    7  px     Ryd( 5p)     0.00011       3.16108
   142    C    7  py     Val( 2p)     1.14341      -0.04520
   143    C    7  py     Ryd( 4p)     0.00552       0.99579
   144    C    7  py     Ryd( 3p)     0.00025       0.43669
   145    C    7  py     Ryd( 5p)     0.00007       3.13969
   146    C    7  pz     Val( 2p)     1.01004      -0.10580
   147    C    7  pz     Ryd( 4p)     0.00106       0.51373
   148    C    7  pz     Ryd( 3p)     0.00039       0.29269
   149    C    7  pz     Ryd( 5p)     0.00001       2.72530
   150    C    7  dxy    Ryd( 3d)     0.00080       2.51769
   151    C    7  dxz    Ryd( 3d)     0.00046       1.66454
   152    C    7  dyz    Ryd( 3d)     0.00042       1.63768
   153    C    7  dx2y2  Ryd( 3d)     0.00073       2.56998
   154    C    7  dz2    Ryd( 3d)     0.00038       2.07134
 
   155    H    8  S      Val( 1S)     0.78631       0.03638
   156    H    8  S      Ryd( 2S)     0.00090       0.49988
   157    H    8  S      Ryd( 4S)     0.00012       1.95270
   158    H    8  S      Ryd( 3S)     0.00006       0.57380
   159    H    8  px     Ryd( 2p)     0.00021       1.85078
   160    H    8  py     Ryd( 2p)     0.00014       1.79789
   161    H    8  pz     Ryd( 2p)     0.00030       2.55231
 
   162    H    9  S      Val( 1S)     0.79183       0.03599
   163    H    9  S      Ryd( 3S)     0.00090       0.56015
   164    H    9  S      Ryd( 4S)     0.00013       1.98652
   165    H    9  S      Ryd( 2S)     0.00007       0.45051
   166    H    9  px     Ryd( 2p)     0.00017       1.85298
   167    H    9  py     Ryd( 2p)     0.00023       2.35252
   168    H    9  pz     Ryd( 2p)     0.00016       1.95488
 
   169    H   10  S      Val( 1S)     0.79183       0.03599
   170    H   10  S      Ryd( 3S)     0.00090       0.56015
   171    H   10  S      Ryd( 4S)     0.00013       1.98652
   172    H   10  S      Ryd( 2S)     0.00007       0.45051
   173    H   10  px     Ryd( 2p)     0.00017       1.85298
   174    H   10  py     Ryd( 2p)     0.00023       2.35252
   175    H   10  pz     Ryd( 2p)     0.00016       1.95488
 
   176    H   11  S      Val( 1S)     0.79844       0.05116
   177    H   11  S      Ryd( 3S)     0.00087       0.76097
   178    H   11  S      Ryd( 4S)     0.00018       1.88409
   179    H   11  S      Ryd( 2S)     0.00007       0.34862
   180    H   11  px     Ryd( 2p)     0.00019       2.17518
   181    H   11  py     Ryd( 2p)     0.00038       2.54519
   182    H   11  pz     Ryd( 2p)     0.00020       1.60447
 
   183    H   12  S      Val( 1S)     0.79563       0.05453
   184    H   12  S      Ryd( 3S)     0.00083       0.60170
   185    H   12  S      Ryd( 4S)     0.00018       2.18210
   186    H   12  S      Ryd( 2S)     0.00002       0.19248
   187    H   12  px     Ryd( 2p)     0.00020       2.15161
   188    H   12  py     Ryd( 2p)     0.00037       2.52494
   189    H   12  pz     Ryd( 2p)     0.00020       1.59735
 
   190    H   13  S      Val( 1S)     0.79482       0.05564
   191    H   13  S      Ryd( 3S)     0.00080       0.65947
   192    H   13  S      Ryd( 4S)     0.00018       2.09723
   193    H   13  S      Ryd( 2S)     0.00003       0.21284
   194    H   13  px     Ryd( 2p)     0.00045       2.70792
   195    H   13  py     Ryd( 2p)     0.00012       1.97381
   196    H   13  pz     Ryd( 2p)     0.00020       1.59841
 
   197    H   14  S      Val( 1S)     0.79563       0.05453
   198    H   14  S      Ryd( 3S)     0.00083       0.60170
   199    H   14  S      Ryd( 4S)     0.00018       2.18210
   200    H   14  S      Ryd( 2S)     0.00002       0.19248
   201    H   14  px     Ryd( 2p)     0.00020       2.15161
   202    H   14  py     Ryd( 2p)     0.00037       2.52493
   203    H   14  pz     Ryd( 2p)     0.00020       1.59735
 
   204    H   15  S      Val( 1S)     0.79844       0.05116
   205    H   15  S      Ryd( 3S)     0.00087       0.76097
   206    H   15  S      Ryd( 4S)     0.00018       1.88409
   207    H   15  S      Ryd( 2S)     0.00007       0.34862
   208    H   15  px     Ryd( 2p)     0.00019       2.17518
   209    H   15  py     Ryd( 2p)     0.00038       2.54519
   210    H   15  pz     Ryd( 2p)     0.00020       1.60447

 WARNING:  Population inversion found on atom  C    1
           Population inversion found on atom  C    2
           Population inversion found on atom  C    3
           Population inversion found on atom  C    4
           Population inversion found on atom  C    5
           Population inversion found on atom  C    6
           Population inversion found on atom  C    7
           Population inversion found on atom  H    8
           Population inversion found on atom  H    9
           Population inversion found on atom  H   10
           Population inversion found on atom  H   11
           Population inversion found on atom  H   12
           Population inversion found on atom  H   13
           Population inversion found on atom  H   14
           Population inversion found on atom  H   15


 Summary of Natural Population Analysis:                  
                                                          
                                       Natural Population 
                Natural  -----------------------------------------------
    Atom  No    Charge         Core      Valence    Rydberg      Total
 -----------------------------------------------------------------------
      C    1   -0.58802      1.99928     4.57921    0.00953     6.58802
      C    2   -0.03108      1.99904     4.01598    0.01605     6.03108
      C    3   -0.20468      1.99904     4.18894    0.01670     6.20468
      C    4   -0.19566      1.99915     4.17826    0.01825     6.19566
      C    5   -0.21305      1.99915     4.19599    0.01791     6.21305
      C    6   -0.19566      1.99915     4.17826    0.01825     6.19566
      C    7   -0.20468      1.99904     4.18894    0.01670     6.20468
      H    8    0.21196      0.00000     0.78631    0.00173     0.78804
      H    9    0.20651      0.00000     0.79183    0.00166     0.79349
      H   10    0.20651      0.00000     0.79183    0.00166     0.79349
      H   11    0.19967      0.00000     0.79844    0.00189     0.80033
      H   12    0.20256      0.00000     0.79563    0.00181     0.79744
      H   13    0.20340      0.00000     0.79482    0.00178     0.79660
      H   14    0.20256      0.00000     0.79563    0.00181     0.79744
      H   15    0.19967      0.00000     0.79844    0.00189     0.80033
 =======================================================================
   * Total *    0.00000     13.99387    35.87853    0.12760    50.00000

                                 Natural Population      
 --------------------------------------------------------
   Core                      13.99387 ( 99.9562% of  14)
   Valence                   35.87853 ( 99.6626% of  36)
   Natural Minimal Basis     49.87240 ( 99.7448% of  50)
   Natural Rydberg Basis      0.12760 (  0.2552% of  50)
 --------------------------------------------------------

    Atom  No          Natural Electron Configuration
 ----------------------------------------------------------------------------
      C    1      [core]2S( 1.08)2p( 3.50)4p( 0.01)
      C    2      [core]2S( 0.89)2p( 3.12)4p( 0.01)
      C    3      [core]2S( 0.94)2p( 3.25)4p( 0.01)
      C    4      [core]2S( 0.95)2p( 3.23)4p( 0.01)
      C    5      [core]2S( 0.95)2p( 3.24)4p( 0.01)
      C    6      [core]2S( 0.95)2p( 3.23)4p( 0.01)
      C    7      [core]2S( 0.94)2p( 3.25)4p( 0.01)
      H    8            1S( 0.79)
      H    9            1S( 0.79)
      H   10            1S( 0.79)
      H   11            1S( 0.80)
      H   12            1S( 0.80)
      H   13            1S( 0.79)
      H   14            1S( 0.80)
      H   15            1S( 0.80)


 NATURAL BOND ORBITAL ANALYSIS:

                       Occupancies       Lewis Structure    Low   High
           Occ.    -------------------  -----------------   occ   occ
  Cycle   Thresh.   Lewis   Non-Lewis     CR  BD  3C  LP    (L)   (NL)   Dev
 =============================================================================
   1(1)    1.90    46.72451   3.27549      7  15   0   3     3      3    0.44
   2(2)    1.90    46.72451   3.27549      7  15   0   3     3      3    0.44
   3(1)    1.80    46.72451   3.27549      7  15   0   3     3      3    0.44
   4(2)    1.80    46.72451   3.27549      7  15   0   3     3      3    0.44
   5(1)    1.70    46.72451   3.27549      7  15   0   3     3      3    0.44
   6(2)    1.70    46.72451   3.27549      7  15   0   3     3      3    0.44
   7(1)    1.60    48.67794   1.32206      7  18   0   0     0      3    0.44
   8(2)    1.60    48.04706   1.95294      7  17   0   1     1      3    0.43
   9(3)    1.60    48.67794   1.32206      7  18   0   0     0      3    0.44
  10(4)    1.60    48.04706   1.95294      7  17   0   1     1      3    0.43
  11(5)    1.60    48.67794   1.32206      7  18   0   0     0      3    0.44
  12(6)    1.60    48.04706   1.95294      7  17   0   1     1      3    0.43
  13(7)    1.60    48.67794   1.32206      7  18   0   0     0      3    0.44
  14(8)    1.60    48.04706   1.95294      7  17   0   1     1      3    0.43
  15(9)    1.60    48.67794   1.32206      7  18   0   0     0      3    0.44
  16(1)    1.50    48.67794   1.32206      7  18   0   0     0      3    0.44
  17(2)    1.50    48.04706   1.95294      7  17   0   1     1      3    0.43
  18(3)    1.50    48.67794   1.32206      7  18   0   0     0      3    0.44
  19(4)    1.50    48.04706   1.95294      7  17   0   1     1      3    0.43
  20(5)    1.50    48.67794   1.32206      7  18   0   0     0      3    0.44
  21(6)    1.50    48.04706   1.95294      7  17   0   1     1      3    0.43
  22(7)    1.50    48.67794   1.32206      7  18   0   0     0      3    0.44
  23(8)    1.50    48.04706   1.95294      7  17   0   1     1      3    0.43
  24(9)    1.50    48.67794   1.32206      7  18   0   0     0      3    0.44
  25(1)    1.60    48.67794   1.32206      7  18   0   0     0      3    0.44
 -----------------------------------------------------------------------------

 Structure accepted: RESONANCE keyword permits strongly delocalized structure

 --------------------------------------------------------
   Core                     13.99388 ( 99.956% of  14)
   Valence Lewis            34.68406 ( 96.345% of  36)
  ==================       ============================
   Total Lewis              48.67794 ( 97.356% of  50)
  -----------------------------------------------------
   Valence non-Lewis         1.23821 (  2.476% of  50)
   Rydberg non-Lewis         0.08385 (  0.168% of  50)
  ==================       ============================
   Total non-Lewis           1.32206 (  2.644% of  50)
 --------------------------------------------------------


       (Occupancy)   Bond orbital/ Coefficients/ Hybrids
 ---------------------------------------------------------------------------------
     1. (1.98277) BD ( 1) C   1 - C   2  
                ( 49.17%)   0.7012* C   1 s( 30.33%)p 2.30( 69.63%)d 0.00(  0.04%)
                                            0.0003  0.5504  0.0182  0.0024 -0.0001
                                            0.8341 -0.0127 -0.0091 -0.0003  0.0000
                                           -0.0000  0.0000  0.0000 -0.0152  0.0012
                                           -0.0014 -0.0003  0.0000 -0.0002 -0.0000
                                            0.0182 -0.0099
                ( 50.83%)   0.7129* C   2 s( 31.22%)p 2.20( 68.75%)d 0.00(  0.03%)
                                           -0.0001  0.5587  0.0027 -0.0069  0.0004
                                           -0.8291 -0.0065  0.0075  0.0029  0.0000
                                           -0.0000  0.0000 -0.0000  0.0043  0.0007
                                           -0.0004  0.0002 -0.0000 -0.0010  0.0000
                                            0.0145 -0.0097
     2. (1.97621) BD ( 1) C   1 - H   8  
                ( 60.52%)   0.7779* C   1 s( 22.92%)p 3.36( 77.02%)d 0.00(  0.06%)
                                            0.0001 -0.4787  0.0077 -0.0002 -0.0002
                                            0.3002 -0.0138 -0.0023  0.0009  0.0000
                                            0.0000  0.0000 -0.0000 -0.8245 -0.0065
                                           -0.0035 -0.0009 -0.0000  0.0128  0.0000
                                           -0.0015 -0.0211
                ( 39.48%)   0.6283* H   8 s( 99.97%)p 0.00(  0.03%)
                                           -0.9998 -0.0013 -0.0004 -0.0000 -0.0054
                                           -0.0000  0.0168
     3. (1.98672) BD ( 1) C   1 - H   9  
                ( 60.30%)   0.7765* C   1 s( 23.39%)p 3.27( 76.55%)d 0.00(  0.06%)
                                            0.0001 -0.4836  0.0045  0.0010  0.0000
                                            0.3259 -0.0126  0.0006  0.0009  0.7067
                                            0.0118  0.0016 -0.0008  0.3994  0.0025
                                            0.0021  0.0005 -0.0117 -0.0064 -0.0153
                                            0.0123  0.0043
                ( 39.70%)   0.6301* H   9 s( 99.97%)p 0.00(  0.03%)
                                           -0.9998 -0.0006 -0.0005  0.0000 -0.0074
                                           -0.0142 -0.0092
     4. (1.98672) BD ( 1) C   1 - H  10  
                ( 60.30%)   0.7765* C   1 s( 23.39%)p 3.27( 76.55%)d 0.00(  0.06%)
                                            0.0001 -0.4836  0.0045  0.0010  0.0000
                                            0.3259 -0.0126  0.0006  0.0009 -0.7067
                                           -0.0118 -0.0016  0.0008  0.3994  0.0025
                                            0.0021  0.0005  0.0117 -0.0064  0.0153
                                            0.0123  0.0043
                ( 39.70%)   0.6301* H  10 s( 99.97%)p 0.00(  0.03%)
                                           -0.9998 -0.0006 -0.0005  0.0000 -0.0074
                                            0.0142 -0.0092
     5. (1.97423) BD ( 1) C   2 - C   3  
                ( 50.59%)   0.7112* C   2 s( 34.36%)p 1.91( 65.60%)d 0.00(  0.04%)
                                            0.0000  0.5862 -0.0020  0.0034 -0.0002
                                            0.3948  0.0165 -0.0060 -0.0007 -0.7067
                                            0.0169  0.0060 -0.0016  0.0038  0.0003
                                            0.0002  0.0000 -0.0159  0.0004 -0.0005
                                           -0.0070 -0.0105
                ( 49.41%)   0.7030* C   3 s( 36.04%)p 1.77( 63.91%)d 0.00(  0.04%)
                                            0.0001  0.6003 -0.0058  0.0059  0.0009
                                           -0.4267  0.0307  0.0041 -0.0011  0.6752
                                            0.0019 -0.0120  0.0004  0.0007  0.0013
                                           -0.0001 -0.0001 -0.0139 -0.0001  0.0002
                                           -0.0093 -0.0117
     6. (1.97423) BD ( 1) C   2 - C   7  
                ( 50.59%)   0.7112* C   2 s( 34.36%)p 1.91( 65.60%)d 0.00(  0.04%)
                                            0.0000  0.5862 -0.0020  0.0034 -0.0002
                                            0.3948  0.0165 -0.0060 -0.0007  0.7067
                                           -0.0169 -0.0060  0.0016  0.0033  0.0003
                                            0.0002  0.0000  0.0159  0.0004  0.0005
                                           -0.0070 -0.0105
                ( 49.41%)   0.7030* C   7 s( 36.04%)p 1.77( 63.91%)d 0.00(  0.04%)
                                            0.0001  0.6003 -0.0058  0.0059  0.0009
                                           -0.4267  0.0307  0.0041 -0.0011 -0.6752
                                           -0.0019  0.0120 -0.0004  0.0008  0.0013
                                           -0.0001 -0.0001  0.0139 -0.0001 -0.0002
                                           -0.0093 -0.0117
     7. (1.64720) BD ( 2) C   2 - C   7  
                ( 48.88%)   0.6991* C   2 s(  0.00%)p 1.00( 99.95%)d 0.00(  0.04%)
                                           -0.0000 -0.0066 -0.0013 -0.0001 -0.0000
                                            0.0007 -0.0006 -0.0003 -0.0000  0.0003
                                           -0.0011  0.0006 -0.0003  0.9995  0.0098
                                            0.0183  0.0027 -0.0002  0.0181  0.0100
                                           -0.0003 -0.0002
                ( 51.12%)   0.7150* C   7 s(  0.00%)p 1.00( 99.96%)d 0.00(  0.04%)
                                           -0.0000 -0.0018 -0.0004 -0.0007  0.0000
                                           -0.0059  0.0001  0.0004  0.0004  0.0034
                                            0.0002  0.0014 -0.0003  0.9995  0.0136
                                            0.0173 -0.0013  0.0001  0.0008 -0.0202
                                            0.0003  0.0001
     8. (1.97832) BD ( 1) C   3 - C   4  
                ( 50.19%)   0.7085* C   3 s( 35.85%)p 1.79( 64.11%)d 0.00(  0.04%)
                                           -0.0000  0.5984 -0.0182 -0.0041 -0.0002
                                            0.7990 -0.0187 -0.0092  0.0010 -0.0264
                                            0.0398 -0.0043 -0.0008  0.0062 -0.0004
                                           -0.0002  0.0001  0.0025  0.0004 -0.0001
                                            0.0171 -0.0119
                ( 49.81%)   0.7057* C   4 s( 35.85%)p 1.79( 64.11%)d 0.00(  0.04%)
                                            0.0000  0.5986 -0.0136 -0.0012 -0.0000
                                           -0.7989  0.0203 -0.0116 -0.0009 -0.0235
                                            0.0406  0.0042 -0.0003 -0.0056  0.0004
                                           -0.0000 -0.0000 -0.0023  0.0003 -0.0000
                                            0.0167 -0.0120
     9. (1.67224) BD ( 2) C   3 - C   4  
                ( 50.59%)   0.7112* C   3 s(  0.00%)p 1.00( 99.96%)d 0.00(  0.04%)
                                            0.0000 -0.0013  0.0009 -0.0003  0.0002
                                           -0.0070 -0.0004 -0.0000  0.0003 -0.0044
                                            0.0002 -0.0011  0.0003  0.9995  0.0149
                                            0.0179 -0.0023 -0.0003  0.0166  0.0104
                                            0.0001  0.0001
                ( 49.41%)   0.7029* C   4 s(  0.00%)p 1.00( 99.96%)d 0.00(  0.04%)
                                            0.0000  0.0003  0.0000 -0.0002 -0.0000
                                           -0.0067  0.0000 -0.0000 -0.0001 -0.0040
                                           -0.0003  0.0002 -0.0001  0.9994  0.0185
                                           -0.0170 -0.0016  0.0000 -0.0175  0.0104
                                            0.0002 -0.0003
    10. (1.97991) BD ( 1) C   3 - H  11  
                ( 60.10%)   0.7752* C   3 s( 28.11%)p 2.56( 71.85%)d 0.00(  0.04%)
                                            0.0004 -0.5298 -0.0204  0.0014  0.0006
                                            0.4204  0.0131  0.0003  0.0000  0.7358
                                            0.0106 -0.0010  0.0015  0.0055 -0.0002
                                            0.0001  0.0001 -0.0163 -0.0001 -0.0005
                                            0.0097  0.0086
                ( 39.90%)   0.6317* H  11 s( 99.95%)p 0.00(  0.05%)
                                           -0.9998 -0.0018 -0.0011 -0.0001 -0.0101
                                           -0.0189  0.0000
    11. (1.97934) BD ( 1) C   4 - C   5  
                ( 50.06%)   0.7075* C   4 s( 35.84%)p 1.79( 64.12%)d 0.00(  0.04%)
                                            0.0000  0.5985 -0.0144 -0.0004 -0.0001
                                            0.4277 -0.0445  0.0018  0.0008  0.6754
                                            0.0021  0.0106  0.0004  0.0054 -0.0003
                                           -0.0000  0.0000  0.0137  0.0001  0.0002
                                           -0.0100 -0.0119
                ( 49.94%)   0.7067* C   5 s( 35.69%)p 1.80( 64.27%)d 0.00(  0.04%)
                                            0.0000  0.5972 -0.0133 -0.0006 -0.0001
                                           -0.3772 -0.0235  0.0087 -0.0001 -0.7059
                                            0.0382  0.0065 -0.0010 -0.0021 -0.0001
                                            0.0001  0.0000  0.0159  0.0001  0.0001
                                           -0.0065 -0.0121
    12. (1.98059) BD ( 1) C   4 - H  12  
                ( 60.22%)   0.7760* C   4 s( 28.32%)p 2.53( 71.64%)d 0.00(  0.04%)
                                            0.0004 -0.5316 -0.0239 -0.0015 -0.0001
                                           -0.4189 -0.0085  0.0001 -0.0009  0.7352
                                            0.0166 -0.0009  0.0015  0.0003  0.0000
                                           -0.0000  0.0000  0.0166  0.0001 -0.0000
                                            0.0099  0.0085
                ( 39.78%)   0.6307* H  12 s( 99.95%)p 0.00(  0.05%)
                                           -0.9998 -0.0014 -0.0010 -0.0001  0.0108
                                           -0.0190 -0.0000
    13. (1.97934) BD ( 1) C   5 - C   6  
                ( 49.94%)   0.7067* C   5 s( 35.69%)p 1.80( 64.27%)d 0.00(  0.04%)
                                            0.0000  0.5972 -0.0133 -0.0006 -0.0001
                                           -0.3772 -0.0235  0.0087 -0.0001  0.7059
                                           -0.0382 -0.0065  0.0010 -0.0011 -0.0001
                                            0.0001  0.0000 -0.0159  0.0001 -0.0001
                                           -0.0065 -0.0121
                ( 50.06%)   0.7075* C   6 s( 35.84%)p 1.79( 64.12%)d 0.00(  0.04%)
                                            0.0000  0.5985 -0.0144 -0.0004 -0.0001
                                            0.4277 -0.0445  0.0018  0.0008 -0.6754
                                           -0.0021 -0.0106 -0.0004  0.0061 -0.0002
                                           -0.0000  0.0000 -0.0137  0.0001 -0.0002
                                           -0.0100 -0.0119
    14. (1.66701) BD ( 2) C   5 - C   6  
                ( 50.60%)   0.7113* C   5 s(  0.00%)p 1.00( 99.96%)d 0.00(  0.04%)
                                            0.0000 -0.0006  0.0004  0.0005  0.0001
                                           -0.0052 -0.0001 -0.0004  0.0001 -0.0007
                                            0.0001 -0.0001 -0.0001  0.9995  0.0188
                                            0.0148 -0.0020 -0.0001 -0.0180  0.0092
                                            0.0000 -0.0003
                ( 49.40%)   0.7029* C   6 s(  0.00%)p 1.00( 99.96%)d 0.00(  0.04%)
                                           -0.0000 -0.0004  0.0003  0.0003  0.0001
                                           -0.0078 -0.0002  0.0006 -0.0001  0.0038
                                            0.0002  0.0000  0.0001  0.9995  0.0168
                                           -0.0151 -0.0021  0.0000 -0.0004 -0.0202
                                            0.0001  0.0000
    15. (1.98041) BD ( 1) C   5 - H  13  
                ( 60.26%)   0.7763* C   5 s( 28.63%)p 2.49( 71.33%)d 0.00(  0.04%)
                                           -0.0004  0.5346  0.0228  0.0013  0.0003
                                            0.8444  0.0179  0.0008  0.0015 -0.0000
                                            0.0000 -0.0000 -0.0000  0.0047  0.0001
                                            0.0000 -0.0000 -0.0000  0.0001  0.0000
                                            0.0191 -0.0083
                ( 39.74%)   0.6304* H  13 s( 99.95%)p 0.00(  0.05%)
                                            0.9998  0.0014  0.0010 -0.0001 -0.0217
                                            0.0000 -0.0001
    16. (1.97832) BD ( 1) C   6 - C   7  
                ( 49.81%)   0.7057* C   6 s( 35.85%)p 1.79( 64.11%)d 0.00(  0.04%)
                                            0.0000  0.5986 -0.0136 -0.0012 -0.0000
                                           -0.7989  0.0203 -0.0116 -0.0009  0.0235
                                           -0.0406 -0.0042  0.0003 -0.0060  0.0004
                                           -0.0000 -0.0000  0.0023  0.0003  0.0000
                                            0.0167 -0.0120
                ( 50.19%)   0.7085* C   7 s( 35.85%)p 1.79( 64.11%)d 0.00(  0.04%)
                                           -0.0000  0.5984 -0.0182 -0.0041 -0.0002
                                            0.7990 -0.0187 -0.0092  0.0010  0.0264
                                           -0.0398  0.0043  0.0008  0.0057 -0.0004
                                           -0.0002  0.0001 -0.0025  0.0004  0.0001
                                            0.0171 -0.0119
    17. (1.98059) BD ( 1) C   6 - H  14  
                ( 60.22%)   0.7760* C   6 s( 28.32%)p 2.53( 71.64%)d 0.00(  0.04%)
                                           -0.0004  0.5316  0.0239  0.0015  0.0001
                                            0.4189  0.0085 -0.0001  0.0009  0.7352
                                            0.0166 -0.0009  0.0015  0.0007 -0.0000
                                            0.0000 -0.0000  0.0166 -0.0001 -0.0000
                                           -0.0099 -0.0085
                ( 39.78%)   0.6307* H  14 s( 99.95%)p 0.00(  0.05%)
                                            0.9998  0.0014  0.0010  0.0001 -0.0108
                                           -0.0190  0.0000
    18. (1.97991) BD ( 1) C   7 - H  15  
                ( 60.10%)   0.7752* C   7 s( 28.11%)p 2.56( 71.85%)d 0.00(  0.04%)
                                           -0.0004  0.5298  0.0204 -0.0014 -0.0006
                                           -0.4204 -0.0131 -0.0003 -0.0000  0.7358
                                            0.0106 -0.0010  0.0015 -0.0040  0.0002
                                           -0.0001 -0.0001 -0.0163  0.0001 -0.0006
                                           -0.0097 -0.0086
                ( 39.90%)   0.6317* H  15 s( 99.95%)p 0.00(  0.05%)
                                            0.9998  0.0018  0.0011  0.0001  0.0101
                                           -0.0189 -0.0000
    19. (1.99928) CR ( 1) C   1           s(100.00%)p 0.00(  0.00%)
                                            1.0000 -0.0001 -0.0000 -0.0000  0.0000
                                           -0.0004  0.0000  0.0000 -0.0000 -0.0000
                                           -0.0000 -0.0000 -0.0000  0.0000 -0.0000
                                            0.0000  0.0000 -0.0000  0.0000  0.0000
                                           -0.0000  0.0000
    20. (1.99905) CR ( 1) C   2           s(100.00%)p 0.00(  0.00%)
                                            1.0000  0.0000  0.0000 -0.0000  0.0000
                                           -0.0001 -0.0000  0.0000  0.0000  0.0000
                                           -0.0000  0.0000 -0.0000  0.0000  0.0000
                                            0.0000  0.0000 -0.0000  0.0000  0.0000
                                            0.0000 -0.0000
    21. (1.99905) CR ( 1) C   3           s(100.00%)p 0.00(  0.00%)
                                            1.0000  0.0002  0.0000 -0.0000 -0.0000
                                           -0.0001 -0.0000 -0.0000  0.0000 -0.0004
                                           -0.0000  0.0000 -0.0000 -0.0000 -0.0000
                                           -0.0000  0.0000  0.0000 -0.0000 -0.0000
                                           -0.0000 -0.0000
    22. (1.99916) CR ( 1) C   4           s(100.00%)p 0.00(  0.00%)
                                            1.0000  0.0002  0.0000  0.0000  0.0000
                                            0.0002  0.0000  0.0000  0.0000 -0.0003
                                           -0.0000 -0.0000 -0.0000 -0.0000 -0.0000
                                            0.0000  0.0000 -0.0000  0.0000 -0.0000
                                           -0.0000 -0.0000
    23. (1.99915) CR ( 1) C   5           s(100.00%)p 0.00(  0.00%)
                                            1.0000  0.0002  0.0000  0.0000  0.0000
                                            0.0004  0.0000 -0.0000  0.0000  0.0000
                                           -0.0000  0.0000  0.0000  0.0000  0.0000
                                           -0.0000 -0.0000  0.0000  0.0000 -0.0000
                                            0.0000 -0.0000
    24. (1.99916) CR ( 1) C   6           s(100.00%)p 0.00(  0.00%)
                                            1.0000  0.0002  0.0000  0.0000  0.0000
                                            0.0002  0.0000  0.0000  0.0000  0.0003
                                            0.0000  0.0000  0.0000  0.0000  0.0000
                                           -0.0000 -0.0000  0.0000 -0.0000 -0.0000
                                           -0.0000 -0.0000
    25. (1.99905) CR ( 1) C   7           s(100.00%)p 0.00(  0.00%)
                                            1.0000  0.0002  0.0000 -0.0000 -0.0000
                                           -0.0001 -0.0000 -0.0000  0.0000  0.0004
                                            0.0000 -0.0000  0.0000 -0.0000 -0.0000
                                           -0.0000 -0.0000 -0.0000  0.0000 -0.0000
                                           -0.0000 -0.0000
    26. (0.00369) RY*( 1) C   1           s(  0.00%)p 1.00( 94.61%)d 0.06(  5.39%)
                                            0.0000  0.0000  0.0000 -0.0000 -0.0000
                                           -0.0000 -0.0000 -0.0000  0.0000 -0.0196
                                            0.9714 -0.0367 -0.0289  0.0000  0.0000
                                            0.0000  0.0000 -0.2314 -0.0000  0.0178
                                            0.0000  0.0000
    27. (0.00083) RY*( 2) C   1           s(  0.02%)p99.99( 55.40%)d99.99( 44.58%)
                                           -0.0000  0.0019  0.0053  0.0126 -0.0007
                                           -0.0020 -0.0866 -0.0230  0.0038 -0.0000
                                            0.0000 -0.0000 -0.0000  0.0175 -0.7016
                                            0.0663 -0.2214 -0.0000  0.6633  0.0000
                                           -0.0164 -0.0746
    28. (0.00039) RY*( 3) C   1           s( 14.33%)p 5.64( 80.81%)d 0.34(  4.86%)
                                            0.0000  0.0110 -0.0689  0.3720 -0.0078
                                           -0.0231 -0.8700  0.1642 -0.1346 -0.0000
                                           -0.0000 -0.0000 -0.0000  0.0002  0.0341
                                            0.0469  0.0465  0.0000 -0.0799 -0.0000
                                            0.1418 -0.1486
    29. (0.00020) RY*( 4) C   1           s( 51.29%)p 0.82( 42.11%)d 0.13(  6.61%)
                                            0.0000  0.0030  0.6875 -0.1936  0.0518
                                           -0.0133 -0.2554  0.1797  0.5574  0.0000
                                           -0.0000  0.0000  0.0000 -0.0007  0.0589
                                           -0.0823 -0.0497  0.0000  0.0448 -0.0000
                                           -0.1096  0.2281
    30. (0.00009) RY*( 5) C   1           s(  0.00%)p 1.00( 86.66%)d 0.15( 13.34%)
    31. (0.00008) RY*( 6) C   1           s( 26.53%)p 1.69( 44.83%)d 1.08( 28.64%)
    32. (0.00002) RY*( 7) C   1           s(  1.63%)p27.84( 45.28%)d32.65( 53.09%)
    33. (0.00001) RY*( 8) C   1           s(  9.31%)p 0.31(  2.91%)d 9.43( 87.78%)
    34. (0.00000) RY*( 9) C   1           s(  0.00%)p 1.00(100.00%)d 0.00(  0.00%)
    35. (0.00000) RY*(10) C   1           s( 17.24%)p 4.13( 71.12%)d 0.68( 11.64%)
    36. (0.00000) RY*(11) C   1           s(  2.84%)p33.54( 95.36%)d 0.63(  1.80%)
    37. (0.00000) RY*(12) C   1           s(  0.13%)p99.99( 99.05%)d 6.17(  0.82%)
    38. (0.00000) RY*(13) C   1           s(  0.00%)p 1.00( 17.93%)d 4.58( 82.07%)
    39. (0.00000) RY*(14) C   1           s( 77.72%)p 0.19( 15.01%)d 0.09(  7.27%)
    40. (0.00001) RY*(15) C   1           s(  0.00%)p 1.00(  0.87%)d99.99( 99.13%)
    41. (0.00000) RY*(16) C   1           s(  0.20%)p99.99( 47.45%)d99.99( 52.35%)
    42. (0.00000) RY*(17) C   1           s( 98.73%)p 0.01(  0.84%)d 0.00(  0.42%)
    43. (0.00661) RY*( 1) C   2           s(  3.90%)p23.23( 90.69%)d 1.38(  5.40%)
                                            0.0000 -0.0140  0.1937  0.0361  0.0050
                                           -0.0209  0.9513  0.0105  0.0363  0.0000
                                            0.0001 -0.0000  0.0000  0.0006 -0.0076
                                            0.0065 -0.0020  0.0000  0.0068 -0.0003
                                           -0.2273  0.0481
    44. (0.00295) RY*( 2) C   2           s(  0.00%)p 1.00( 95.00%)d 0.05(  5.00%)
                                            0.0000 -0.0000  0.0004  0.0002  0.0000
                                            0.0000 -0.0001 -0.0001 -0.0001  0.0175
                                            0.9643 -0.1009 -0.0983  0.0012 -0.0007
                                            0.0004  0.0000  0.2235 -0.0015 -0.0034
                                            0.0000  0.0001
    45. (0.00156) RY*( 3) C   2           s(  5.32%)p15.31( 81.38%)d 2.50( 13.31%)
                                            0.0000  0.0022  0.2166  0.0790  0.0039
                                            0.0013 -0.0486 -0.0123 -0.0269 -0.0000
                                           -0.0012 -0.0005  0.0006  0.0158 -0.8972
                                            0.0105 -0.0726 -0.0007 -0.3614 -0.0154
                                            0.0182  0.0439
    46. (0.00062) RY*( 4) C   2           s(  0.03%)p10.08(  0.33%)d99.99( 99.64%)
                                            0.0000  0.0000  0.0175  0.0039  0.0002
                                            0.0002 -0.0033 -0.0016 -0.0019  0.0027
                                            0.0127 -0.0106 -0.0025  0.0102  0.0472
                                            0.0230  0.0099 -0.0765 -0.0632 -0.9933
                                            0.0001  0.0018
    47. (0.00040) RY*( 5) C   2           s(  0.00%)p 1.00( 54.02%)d 0.85( 45.98%)
                                           -0.0000  0.0000  0.0037 -0.0022 -0.0002
                                            0.0000 -0.0009  0.0024 -0.0001  0.0254
                                            0.1809  0.6026 -0.3789 -0.0009 -0.0061
                                           -0.0047 -0.0017 -0.6763  0.0141  0.0477
                                           -0.0009 -0.0010
    48. (0.00039) RY*( 6) C   2           s( 80.62%)p 0.20( 16.09%)d 0.04(  3.29%)
                                           -0.0000  0.0036  0.8918 -0.1031 -0.0149
                                            0.0090 -0.1894  0.2077 -0.0436 -0.0001
                                           -0.0009  0.0009  0.0004 -0.0004  0.2728
                                            0.0632  0.0382  0.0033 -0.1592  0.0403
                                           -0.0679 -0.0358
    49. (0.00027) RY*( 7) C   2           s(  6.02%)p 3.36( 20.21%)d12.26( 73.77%)
                                           -0.0000  0.0003  0.2000 -0.1409 -0.0172
                                            0.0024 -0.0548  0.1456 -0.0204 -0.0002
                                           -0.0010 -0.0130  0.0053 -0.0062 -0.3042
                                           -0.2743 -0.0973  0.0049  0.8491 -0.0733
                                           -0.0671 -0.0823
    50. (0.00014) RY*( 8) C   2           s( 10.91%)p 7.39( 80.57%)d 0.78(  8.52%)
                                            0.0000 -0.0017  0.1856  0.2078 -0.1773
                                           -0.0107 -0.1161 -0.7561  0.4692 -0.0000
                                            0.0000 -0.0002  0.0000 -0.0022  0.0164
                                            0.0063 -0.0055 -0.0000  0.1009 -0.0010
                                           -0.2673 -0.0599
    51. (0.00010) RY*( 9) C   2           s(  8.16%)p 2.50( 20.38%)d 8.76( 71.46%)
                                           -0.0000  0.0095  0.1285  0.1995  0.1587
                                            0.0103  0.0623  0.0613  0.4314  0.0000
                                            0.0001 -0.0013 -0.0000  0.0003  0.0349
                                           -0.0927 -0.0131 -0.0006  0.0950 -0.0035
                                            0.5995  0.5884
    52. (0.00007) RY*(10) C   2           s( 13.55%)p 1.97( 26.64%)d 4.41( 59.81%)
    53. (0.00008) RY*(11) C   2           s(  0.00%)p 1.00( 55.63%)d 0.80( 44.37%)
    54. (0.00004) RY*(12) C   2           s(  0.00%)p 1.00( 95.36%)d 0.05(  4.64%)
    55. (0.00001) RY*(13) C   2           s( 22.88%)p 1.19( 27.19%)d 2.18( 49.93%)
    56. (0.00000) RY*(14) C   2           s( 55.54%)p 0.74( 41.02%)d 0.06(  3.44%)
    57. (0.00000) RY*(15) C   2           s(  0.02%)p99.99( 92.49%)d99.99(  7.49%)
    58. (0.00000) RY*(16) C   2           s(  0.00%)p 1.00( 99.57%)d 0.00(  0.42%)
    59. (0.00000) RY*(17) C   2           s( 93.09%)p 0.04(  3.55%)d 0.04(  3.36%)
    60. (0.00597) RY*( 1) C   3           s(  0.25%)p99.99( 94.38%)d21.54(  5.37%)
                                           -0.0000  0.0145  0.0332  0.0343 -0.0005
                                            0.0159 -0.6147 -0.0079 -0.0139  0.0304
                                           -0.7470  0.0686 -0.0406  0.0002  0.0066
                                           -0.0038  0.0017  0.1943  0.0022  0.0049
                                           -0.1241 -0.0220
    61. (0.00213) RY*( 2) C   3           s(  0.31%)p99.99( 97.73%)d 6.21(  1.96%)
                                           -0.0000 -0.0106  0.0518  0.0066  0.0176
                                           -0.0326 -0.7397  0.2017  0.1300  0.0162
                                            0.5985 -0.1082 -0.0354 -0.0010  0.0026
                                           -0.0039  0.0043 -0.0668  0.0115  0.0027
                                           -0.1123  0.0484
    62. (0.00088) RY*( 3) C   3           s(  1.66%)p53.73( 88.96%)d 5.67(  9.39%)
                                            0.0000  0.0007  0.1268 -0.0183  0.0119
                                            0.0059  0.0247  0.0702 -0.0213  0.0005
                                           -0.0089 -0.0090  0.0085 -0.0117  0.9099
                                            0.2138  0.0973 -0.0117 -0.1792 -0.2447
                                           -0.0389  0.0144
    63. (0.00061) RY*( 4) C   3           s(  5.79%)p 0.16(  0.93%)d16.10( 93.28%)
                                            0.0000  0.0013  0.2389  0.0273  0.0114
                                            0.0052  0.0121 -0.0327 -0.0481  0.0037
                                            0.0012  0.0358  0.0101 -0.0092  0.0004
                                            0.0156 -0.0633 -0.0279  0.8291 -0.4939
                                           -0.0213  0.0106
    64. (0.00047) RY*( 5) C   3           s( 81.23%)p 0.11(  8.96%)d 0.12(  9.81%)
                                           -0.0000  0.0055  0.9009  0.0012  0.0238
                                            0.0253  0.0662  0.1220 -0.2243  0.0119
                                           -0.0226  0.0187  0.0389  0.0028 -0.1237
                                           -0.0394  0.0002 -0.1220 -0.1658  0.1883
                                           -0.1306  0.0572
    65. (0.00019) RY*( 6) C   3           s( 14.92%)p 3.07( 45.87%)d 2.63( 39.21%)
                                            0.0000 -0.0032 -0.2038  0.3206 -0.0697
                                            0.0207  0.1327  0.5668 -0.1374 -0.0202
                                           -0.1371 -0.2594 -0.1161 -0.0008 -0.0218
                                            0.0056 -0.0017 -0.3585  0.0632  0.0157
                                           -0.4430 -0.2512
    66. (0.00011) RY*( 7) C   3           s(  3.51%)p23.85( 83.59%)d 3.68( 12.90%)
                                           -0.0000 -0.0007  0.1440  0.1019 -0.0627
                                            0.0071  0.0689 -0.2686  0.5844 -0.0001
                                           -0.0112  0.2262 -0.5983  0.0020 -0.0462
                                            0.0767 -0.0131 -0.2021 -0.0910 -0.0891
                                           -0.2376 -0.1246
    67. (0.00011) RY*( 8) C   3           s( 17.95%)p 1.16( 20.90%)d 3.41( 61.15%)
                                            0.0000 -0.0107  0.0840  0.3984 -0.1165
                                           -0.0139 -0.1640 -0.2890 -0.1998 -0.0033
                                           -0.0062 -0.2249 -0.0836  0.0006  0.0259
                                           -0.0063  0.0093 -0.2883 -0.0553 -0.0355
                                            0.5536 -0.4666
    68. (0.00004) RY*( 9) C   3           s( 16.58%)p 3.06( 50.81%)d 1.97( 32.61%)
    69. (0.00005) RY*(10) C   3           s(  2.00%)p23.76( 47.57%)d25.19( 50.43%)
    70. (0.00000) RY*(11) C   3           s(  0.01%)p 1.00( 99.75%)d 0.00(  0.25%)
    71. (0.00001) RY*(12) C   3           s(  1.18%)p17.41( 20.57%)d66.22( 78.25%)
    72. (0.00000) RY*(13) C   3           s( 90.39%)p 0.01(  0.66%)d 0.10(  8.95%)
    73. (0.00001) RY*(14) C   3           s(  5.31%)p 7.86( 41.74%)d 9.97( 52.94%)
    74. (0.00000) RY*(15) C   3           s(  0.04%)p99.99( 92.08%)d99.99(  7.88%)
    75. (0.00000) RY*(16) C   3           s(  3.10%)p29.85( 92.50%)d 1.42(  4.40%)
    76. (0.00001) RY*(17) C   3           s( 55.77%)p 0.24( 13.18%)d 0.56( 31.05%)
    77. (0.00635) RY*( 1) C   4           s(  0.73%)p99.99( 94.40%)d 6.71(  4.87%)
                                           -0.0000  0.0183 -0.0308  0.0773  0.0030
                                           -0.0214  0.4438  0.0485  0.0405  0.0309
                                           -0.8585 -0.0419 -0.0536 -0.0002 -0.0026
                                           -0.0010 -0.0005 -0.1901 -0.0005 -0.0017
                                           -0.1094 -0.0250
    78. (0.00228) RY*( 2) C   4           s(  0.88%)p99.99( 98.16%)d 1.08(  0.95%)
                                           -0.0000 -0.0004  0.0901  0.0263  0.0063
                                           -0.0416 -0.8387 -0.1511  0.1880 -0.0215
                                           -0.4406 -0.1124  0.1050 -0.0002 -0.0125
                                           -0.0022  0.0020 -0.0278  0.0033  0.0023
                                            0.0934  0.0003
    79. (0.00079) RY*( 3) C   4           s(  0.04%)p99.99( 87.80%)d99.99( 12.16%)
                                            0.0000 -0.0001  0.0180 -0.0091 -0.0004
                                            0.0004  0.0161 -0.0256 -0.0022  0.0009
                                            0.0078  0.0015  0.0035  0.0151 -0.9028
                                            0.2226 -0.1101 -0.0074 -0.0961  0.3350
                                            0.0074 -0.0031
    80. (0.00062) RY*( 4) C   4           s(  0.17%)p 7.57(  1.28%)d99.99( 98.55%)
                                           -0.0000  0.0005  0.0255  0.0320  0.0044
                                           -0.0011 -0.0036  0.0549  0.0058  0.0003
                                            0.0020 -0.0033 -0.0022  0.0104  0.0807
                                            0.0549 -0.0084  0.0045  0.8908  0.4378
                                           -0.0100  0.0153
    81. (0.00043) RY*( 5) C   4           s( 92.98%)p 0.04(  3.74%)d 0.04(  3.28%)
                                            0.0000  0.0043  0.9599 -0.0895 -0.0180
                                           -0.0071  0.1098  0.0086  0.0476  0.0291
                                           -0.0011 -0.0158 -0.1463 -0.0007  0.0177
                                           -0.0056  0.0073  0.0445 -0.0181 -0.0112
                                            0.1650 -0.0561
    82. (0.00025) RY*( 6) C   4           s(  2.33%)p32.58( 75.94%)d 9.32( 21.73%)
                                            0.0000 -0.0011 -0.0583  0.1386  0.0263
                                            0.0234  0.1194 -0.7178 -0.2705  0.0116
                                            0.0594 -0.3697 -0.1233  0.0003  0.0247
                                           -0.0022  0.0005 -0.2672  0.0394  0.0113
                                            0.3797 -0.0078
    83. (0.00011) RY*( 7) C   4           s( 33.10%)p 0.27(  8.99%)d 1.75( 57.91%)
                                            0.0000 -0.0087 -0.0986  0.5604 -0.0846
                                            0.0060  0.0210  0.1208  0.1488 -0.0103
                                           -0.0179 -0.0146 -0.2275  0.0000 -0.0144
                                           -0.0047 -0.0007  0.4013 -0.0087 -0.0088
                                            0.3013 -0.5720
    84. (0.00008) RY*( 8) C   4           s(  3.37%)p12.49( 42.12%)d16.16( 54.51%)
    85. (0.00004) RY*( 9) C   4           s(  1.93%)p38.61( 74.55%)d12.18( 23.51%)
    86. (0.00002) RY*(10) C   4           s(  6.17%)p 4.02( 24.84%)d11.18( 68.99%)
    87. (0.00001) RY*(11) C   4           s( 38.63%)p 0.63( 24.33%)d 0.96( 37.04%)
    88. (0.00000) RY*(12) C   4           s(  0.97%)p99.67( 96.46%)d 2.66(  2.57%)
    89. (0.00000) RY*(13) C   4           s( 96.63%)p 0.02(  2.22%)d 0.01(  1.15%)
    90. (0.00000) RY*(14) C   4           s(  1.22%)p78.07( 95.12%)d 3.00(  3.66%)
    91. (0.00000) RY*(15) C   4           s(  0.01%)p 1.00( 12.07%)d 7.28( 87.92%)
    92. (0.00000) RY*(16) C   4           s( 20.82%)p 3.42( 71.16%)d 0.39(  8.03%)
    93. (0.00000) RY*(17) C   4           s(  0.01%)p 1.00( 87.00%)d 0.15( 12.99%)
    94. (0.00601) RY*( 1) C   5           s(  1.02%)p91.89( 93.54%)d 5.34(  5.44%)
                                            0.0000 -0.0169  0.0977 -0.0162  0.0092
                                            0.0341 -0.9637  0.0419 -0.0612 -0.0000
                                           -0.0000  0.0000  0.0000  0.0001 -0.0036
                                            0.0010  0.0003  0.0000 -0.0023 -0.0001
                                           -0.2319  0.0252
    95. (0.00216) RY*( 2) C   5           s(  0.00%)p 1.00( 99.18%)d 0.01(  0.82%)
                                           -0.0000  0.0000 -0.0000 -0.0000 -0.0000
                                            0.0000 -0.0000  0.0000 -0.0000  0.0468
                                            0.9397 -0.2533 -0.2057 -0.0001 -0.0005
                                           -0.0001 -0.0001 -0.0907 -0.0002  0.0033
                                           -0.0000 -0.0000
    96. (0.00095) RY*( 3) C   5           s(  0.04%)p99.99( 88.86%)d99.99( 11.09%)
                                           -0.0000  0.0003  0.0127  0.0166  0.0030
                                           -0.0004 -0.0039 -0.0205  0.0026  0.0001
                                            0.0016  0.0014  0.0004 -0.0128  0.9205
                                            0.1589  0.1245  0.0018  0.3151 -0.1077
                                           -0.0002  0.0047
    97. (0.00056) RY*( 4) C   5           s(  0.00%)p 1.00(  1.15%)d86.15( 98.85%)
                                           -0.0000  0.0000  0.0018  0.0019  0.0003
                                           -0.0000 -0.0005 -0.0023  0.0004 -0.0013
                                           -0.0133 -0.0279 -0.0004 -0.0106  0.0996
                                            0.0170  0.0135 -0.0236  0.0343  0.9934
                                           -0.0002  0.0004
    98. (0.00039) RY*( 5) C   5           s(  0.00%)p 1.00( 86.02%)d 0.16( 13.98%)
                                           -0.0000  0.0000  0.0000  0.0000  0.0000
                                           -0.0000 -0.0000 -0.0000  0.0000  0.0276
                                            0.2021  0.8572 -0.2896 -0.0002  0.0016
                                            0.0003  0.0002  0.3722  0.0005  0.0354
                                           -0.0000  0.0000
    99. (0.00029) RY*( 6) C   5           s( 93.42%)p 0.06(  5.44%)d 0.01(  1.14%)
                                           -0.0000  0.0036  0.9480 -0.1742 -0.0722
                                           -0.0290  0.1067  0.0699  0.1930 -0.0000
                                           -0.0000 -0.0000  0.0000 -0.0004 -0.0077
                                            0.0014  0.0008  0.0000 -0.0020 -0.0004
                                           -0.0846 -0.0649
   100. (0.00011) RY*( 7) C   5           s( 38.83%)p 0.25(  9.88%)d 1.32( 51.30%)
                                            0.0000 -0.0107 -0.0386  0.6178 -0.0711
                                            0.0080  0.0442  0.0578  0.3055  0.0000
                                            0.0000 -0.0000  0.0000 -0.0002 -0.0065
                                           -0.0040  0.0001  0.0000  0.0012 -0.0002
                                           -0.3801 -0.6071
   101. (0.00007) RY*( 8) C   5           s(  0.00%)p 1.00( 33.18%)d 2.01( 66.82%)
   102. (0.00003) RY*( 9) C   5           s( 17.03%)p 4.52( 77.08%)d 0.35(  5.89%)
   103. (0.00003) RY*(10) C   5           s( 23.61%)p 0.31(  7.20%)d 2.93( 69.19%)
   104. (0.00000) RY*(11) C   5           s(  0.02%)p99.99( 99.97%)d 0.13(  0.00%)
   105. (0.00000) RY*(12) C   5           s(  0.00%)p 1.00( 99.84%)d 0.00(  0.16%)
   106. (0.00000) RY*(13) C   5           s(  6.26%)p13.94( 87.22%)d 1.04(  6.52%)
   107. (0.00000) RY*(14) C   5           s(  0.00%)p 1.00( 10.37%)d 8.65( 89.63%)
   108. (0.00001) RY*(15) C   5           s(  0.00%)p 1.00( 81.57%)d 0.23( 18.43%)
   109. (0.00000) RY*(16) C   5           s( 97.89%)p 0.01(  1.06%)d 0.01(  1.05%)
   110. (0.00000) RY*(17) C   5           s( 21.87%)p 0.85( 18.61%)d 2.72( 59.52%)
   111. (0.00635) RY*( 1) C   6           s(  0.73%)p99.99( 94.40%)d 6.71(  4.87%)
                                           -0.0000  0.0183 -0.0308  0.0773  0.0030
                                           -0.0214  0.4438  0.0486  0.0405 -0.0309
                                            0.8585  0.0419  0.0536 -0.0001 -0.0026
                                           -0.0010 -0.0005  0.1901 -0.0003  0.0017
                                           -0.1095 -0.0250
   112. (0.00228) RY*( 2) C   6           s(  0.88%)p99.99( 98.16%)d 1.08(  0.95%)
                                            0.0000 -0.0004  0.0901  0.0263  0.0063
                                           -0.0416 -0.8387 -0.1511  0.1880  0.0215
                                            0.4406  0.1124 -0.1050 -0.0005 -0.0132
                                           -0.0021  0.0020  0.0278  0.0031 -0.0025
                                            0.0934  0.0003
   113. (0.00084) RY*( 3) C   6           s(  0.05%)p99.99( 76.52%)d99.99( 23.43%)
                                           -0.0000  0.0000  0.0213  0.0010  0.0011
                                            0.0002  0.0146 -0.0095 -0.0014 -0.0009
                                           -0.0084  0.0002 -0.0030  0.0083 -0.8371
                                            0.2291 -0.1074  0.0063  0.1758 -0.4510
                                            0.0037  0.0018
   114. (0.00058) RY*( 4) C   6           s(  0.14%)p89.08( 12.58%)d99.99( 87.28%)
                                           -0.0000  0.0005  0.0167  0.0334  0.0042
                                           -0.0012 -0.0093  0.0628  0.0071  0.0001
                                            0.0006  0.0028  0.0025 -0.0121  0.3474
                                           -0.0141  0.0249 -0.0075  0.8787 -0.3166
                                           -0.0133  0.0157
   115. (0.00043) RY*( 5) C   6           s( 93.01%)p 0.04(  3.73%)d 0.04(  3.26%)
                                           -0.0000  0.0043  0.9601 -0.0894 -0.0180
                                           -0.0071  0.1098  0.0088  0.0476 -0.0291
                                            0.0011  0.0158  0.1463 -0.0004  0.0156
                                           -0.0049  0.0070 -0.0445 -0.0153  0.0088
                                            0.1649 -0.0561
   116. (0.00025) RY*( 6) C   6           s(  2.33%)p32.52( 75.92%)d 9.31( 21.75%)
                                           -0.0000 -0.0011 -0.0582  0.1388  0.0263
                                            0.0234  0.1193 -0.7176 -0.2705 -0.0116
                                           -0.0594  0.3697  0.1234 -0.0002  0.0275
                                           -0.0027  0.0008  0.2671  0.0421 -0.0115
                                            0.3797 -0.0078
   117. (0.00011) RY*( 7) C   6           s( 33.10%)p 0.27(  8.99%)d 1.75( 57.92%)
                                            0.0000 -0.0087 -0.0986  0.5604 -0.0846
                                            0.0060  0.0210  0.1208  0.1488  0.0103
                                            0.0179  0.0145  0.2275  0.0001 -0.0149
                                           -0.0046 -0.0007 -0.4013 -0.0090  0.0087
                                            0.3012 -0.5720
   118. (0.00008) RY*( 8) C   6           s(  3.37%)p12.49( 42.12%)d16.16( 54.51%)
   119. (0.00004) RY*( 9) C   6           s(  1.93%)p38.62( 74.55%)d12.18( 23.52%)
   120. (0.00002) RY*(10) C   6           s(  6.26%)p 3.96( 24.76%)d11.03( 68.98%)
   121. (0.00001) RY*(11) C   6           s( 38.48%)p 0.63( 24.42%)d 0.96( 37.09%)
   122. (0.00000) RY*(12) C   6           s(  1.00%)p96.07( 96.32%)d 2.67(  2.67%)
   123. (0.00000) RY*(13) C   6           s( 96.61%)p 0.02(  2.24%)d 0.01(  1.15%)
   124. (0.00000) RY*(14) C   6           s(  1.16%)p82.14( 95.30%)d 3.05(  3.54%)
   125. (0.00000) RY*(15) C   6           s(  0.01%)p 1.00( 12.08%)d 7.28( 87.91%)
   126. (0.00000) RY*(16) C   6           s( 20.90%)p 3.38( 70.66%)d 0.40(  8.44%)
   127. (0.00000) RY*(17) C   6           s(  0.03%)p99.99( 87.42%)d99.99( 12.55%)
   128. (0.00597) RY*( 1) C   7           s(  0.25%)p99.99( 94.38%)d21.52(  5.37%)
                                           -0.0000  0.0145  0.0333  0.0343 -0.0005
                                            0.0159 -0.6148 -0.0079 -0.0139 -0.0304
                                            0.7470 -0.0686  0.0406  0.0003  0.0067
                                           -0.0037  0.0016 -0.1943  0.0026 -0.0046
                                           -0.1242 -0.0220
   129. (0.00213) RY*( 2) C   7           s(  0.32%)p99.99( 97.72%)d 6.15(  1.96%)
                                           -0.0000 -0.0106  0.0522  0.0067  0.0177
                                           -0.0326 -0.7397  0.2016  0.1299 -0.0162
                                           -0.5985  0.1082  0.0353 -0.0003  0.0053
                                           -0.0032  0.0044  0.0668  0.0140 -0.0002
                                           -0.1123  0.0483
   130. (0.00091) RY*( 3) C   7           s(  2.13%)p39.59( 84.42%)d 6.31( 13.45%)
                                            0.0000  0.0008  0.1450 -0.0115  0.0131
                                            0.0060  0.0269  0.0551 -0.0248 -0.0008
                                            0.0098  0.0023 -0.0097 -0.0082  0.8879
                                            0.2118  0.0795  0.0138  0.0346  0.3627
                                           -0.0369  0.0133
   131. (0.00059) RY*( 4) C   7           s(  2.47%)p 2.42(  5.98%)d37.04( 91.55%)
                                           -0.0000  0.0007  0.1541  0.0306  0.0059
                                            0.0019  0.0016 -0.0643 -0.0318 -0.0028
                                           -0.0038 -0.0319 -0.0073  0.0115 -0.2123
                                           -0.0375 -0.0832  0.0192  0.8572  0.4246
                                            0.0037  0.0001
   132. (0.00047) RY*( 5) C   7           s( 84.09%)p 0.10(  8.55%)d 0.09(  7.36%)
                                            0.0000  0.0056  0.9166  0.0025  0.0249
                                            0.0258  0.0673  0.1225 -0.2267 -0.0122
                                            0.0223 -0.0216 -0.0393 -0.0004 -0.1011
                                           -0.0325 -0.0016  0.1233 -0.1197 -0.1506
                                           -0.1338  0.0588
   133. (0.00019) RY*( 6) C   7           s( 14.95%)p 3.06( 45.77%)d 2.63( 39.28%)
                                            0.0000 -0.0032 -0.2033  0.3214 -0.0699
                                            0.0207  0.1324  0.5656 -0.1379  0.0202
                                            0.1370  0.2599  0.1160 -0.0003 -0.0239
                                            0.0049 -0.0022  0.3591  0.0687 -0.0136
                                           -0.4421 -0.2521
   134. (0.00011) RY*( 7) C   7           s(  3.63%)p22.98( 83.47%)d 3.55( 12.89%)
                                            0.0000 -0.0008  0.1447  0.1064 -0.0638
                                            0.0070  0.0671 -0.2715  0.5822  0.0002
                                            0.0112 -0.2242  0.5991  0.0018 -0.0452
                                            0.0771 -0.0132  0.2050 -0.0896  0.0915
                                           -0.2318 -0.1294
   135. (0.00011) RY*( 8) C   7           s( 17.74%)p 1.18( 20.98%)d 3.45( 61.28%)
                                           -0.0000 -0.0107  0.0827  0.3963 -0.1158
                                           -0.0140 -0.1648 -0.2859 -0.2055  0.0033
                                            0.0061  0.2269  0.0775  0.0003  0.0274
                                           -0.0068  0.0102  0.2855 -0.0637  0.0295
                                            0.5571 -0.4648
   136. (0.00004) RY*( 9) C   7           s( 16.66%)p 3.05( 50.78%)d 1.96( 32.57%)
   137. (0.00005) RY*(10) C   7           s(  1.99%)p23.90( 47.59%)d25.33( 50.42%)
   138. (0.00000) RY*(11) C   7           s(  0.01%)p 1.00( 99.76%)d 0.00(  0.24%)
   139. (0.00001) RY*(12) C   7           s(  1.21%)p17.07( 20.58%)d64.84( 78.21%)
   140. (0.00000) RY*(13) C   7           s( 90.40%)p 0.01(  0.66%)d 0.10(  8.94%)
   141. (0.00001) RY*(14) C   7           s(  5.33%)p 7.82( 41.71%)d 9.93( 52.96%)
   142. (0.00000) RY*(15) C   7           s(  0.04%)p99.99( 92.07%)d99.99(  7.88%)
   143. (0.00000) RY*(16) C   7           s(  3.10%)p29.85( 92.51%)d 1.42(  4.39%)
   144. (0.00001) RY*(17) C   7           s( 55.68%)p 0.24( 13.24%)d 0.56( 31.09%)
   145. (0.00097) RY*( 1) H   8           s( 91.35%)p 0.09(  8.65%)
                                           -0.0030  0.9556  0.0128 -0.0133  0.2938
                                           -0.0000 -0.0140
   146. (0.00017) RY*( 2) H   8           s( 46.52%)p 1.15( 53.48%)
                                            0.0013 -0.2131  0.6143 -0.2060  0.6710
                                            0.0000  0.2907
   147. (0.00014) RY*( 3) H   8           s(  0.00%)p 1.00(100.00%)
                                            0.0000  0.0000  0.0000  0.0000 -0.0000
                                            1.0000  0.0000
   148. (0.00010) RY*( 4) H   8           s( 70.69%)p 0.41( 29.31%)
                                            0.0064  0.1502  0.6357  0.5294 -0.4801
                                           -0.0000  0.2501
   149. (0.00006) RY*( 5) H   8           s( 44.86%)p 1.23( 55.14%)
   150. (0.00002) RY*( 6) H   8           s( 46.61%)p 1.15( 53.39%)
   151. (0.00093) RY*( 1) H   9           s( 96.30%)p 0.04(  3.70%)
                                           -0.0028  0.9813  0.0046 -0.0055  0.1821
                                            0.0621  0.0019
   152. (0.00016) RY*( 2) H   9           s( 58.03%)p 0.72( 41.97%)
                                            0.0006 -0.0964  0.7385 -0.1601  0.5713
                                           -0.2140 -0.2179
   153. (0.00012) RY*( 3) H   9           s(  4.59%)p20.77( 95.41%)
                                            0.0013  0.0294  0.2095 -0.0342 -0.3459
                                            0.5527 -0.7273
   154. (0.00010) RY*( 4) H   9           s( 61.96%)p 0.61( 38.04%)
   155. (0.00005) RY*( 5) H   9           s( 72.52%)p 0.38( 27.48%)
   156. (0.00002) RY*( 6) H   9           s(  6.63%)p14.08( 93.37%)
   157. (0.00093) RY*( 1) H  10           s( 96.30%)p 0.04(  3.70%)
                                           -0.0028  0.9813  0.0046 -0.0055  0.1821
                                           -0.0621  0.0019
   158. (0.00016) RY*( 2) H  10           s( 58.03%)p 0.72( 41.97%)
                                            0.0006 -0.0964  0.7385 -0.1601  0.5713
                                            0.2140 -0.2179
   159. (0.00012) RY*( 3) H  10           s(  4.59%)p20.77( 95.41%)
                                            0.0013  0.0294  0.2095 -0.0342 -0.3459
                                           -0.5527 -0.7273
   160. (0.00010) RY*( 4) H  10           s( 61.96%)p 0.61( 38.04%)
   161. (0.00005) RY*( 5) H  10           s( 72.52%)p 0.38( 27.48%)
   162. (0.00002) RY*( 6) H  10           s(  6.63%)p14.08( 93.37%)
   163. (0.00088) RY*( 1) H  11           s( 99.19%)p 0.01(  0.81%)
                                           -0.0035  0.9959 -0.0029 -0.0012  0.0753
                                            0.0471 -0.0155
   164. (0.00020) RY*( 2) H  11           s( 88.41%)p 0.13( 11.59%)
                                            0.0058  0.0223  0.9396 -0.0281 -0.0484
                                           -0.3369 -0.0000
   165. (0.00020) RY*( 3) H  11           s(  0.06%)p99.99( 99.94%)
                                            0.0000 -0.0158 -0.0002  0.0192  0.0059
                                           -0.0040 -0.9997
   166. (0.00013) RY*( 4) H  11           s( 20.32%)p 3.92( 79.68%)
                                           -0.0006  0.0394  0.1274  0.4306 -0.7799
                                            0.4342  0.0013
   167. (0.00006) RY*( 5) H  11           s( 81.48%)p 0.23( 18.52%)
   168. (0.00004) RY*( 6) H  11           s( 10.58%)p 8.45( 89.42%)
   169. (0.00084) RY*( 1) H  12           s( 98.44%)p 0.02(  1.56%)
                                           -0.0041  0.9921 -0.0063 -0.0005 -0.0614
                                            0.1088  0.0021
   170. (0.00020) RY*( 2) H  12           s( 91.80%)p 0.09(  8.20%)
                                            0.0046  0.0381  0.9574 -0.0050  0.2396
                                           -0.1568 -0.0002
   171. (0.00020) RY*( 3) H  12           s(  0.04%)p99.99( 99.96%)
                                           -0.0001  0.0016 -0.0017  0.0210  0.0142
                                            0.0123 -0.9996
   172. (0.00012) RY*( 4) H  12           s(  3.90%)p24.67( 96.10%)
                                            0.0008  0.0067  0.1229  0.1543 -0.8302
                                           -0.5212 -0.0152
   173. (0.00003) RY*( 5) H  12           s( 16.42%)p 5.09( 83.58%)
   174. (0.00002) RY*( 6) H  12           s( 89.44%)p 0.12( 10.56%)
   175. (0.00081) RY*( 1) H  13           s( 98.71%)p 0.01(  1.29%)
                                           -0.0039  0.9935 -0.0062 -0.0003 -0.1133
                                            0.0000  0.0029
   176. (0.00020) RY*( 2) H  13           s(  0.85%)p99.99( 99.15%)
                                            0.0004 -0.0002  0.0913 -0.0142  0.0187
                                            0.0000  0.9955
   177. (0.00019) RY*( 3) H  13           s( 91.00%)p 0.10(  9.00%)
                                            0.0052  0.0388  0.9531  0.0036  0.2854
                                            0.0000 -0.0927
   178. (0.00012) RY*( 4) H  13           s(  0.00%)p 1.00(100.00%)
                                            0.0000 -0.0000 -0.0000  0.0000  0.0000
                                            1.0000  0.0000
   179. (0.00003) RY*( 5) H  13           s( 99.98%)p 0.00(  0.02%)
   180. (0.00003) RY*( 6) H  13           s(  9.50%)p 9.52( 90.50%)
   181. (0.00084) RY*( 1) H  14           s( 98.44%)p 0.02(  1.56%)
                                           -0.0041  0.9921 -0.0063 -0.0005 -0.0614
                                           -0.1088  0.0021
   182. (0.00020) RY*( 2) H  14           s( 91.80%)p 0.09(  8.20%)
                                            0.0046  0.0381  0.9574 -0.0050  0.2396
                                            0.1568 -0.0002
   183. (0.00020) RY*( 3) H  14           s(  0.04%)p99.99( 99.96%)
                                           -0.0001  0.0016 -0.0017  0.0210  0.0142
                                           -0.0123 -0.9996
   184. (0.00012) RY*( 4) H  14           s(  3.90%)p24.67( 96.10%)
                                            0.0008  0.0067  0.1229  0.1543 -0.8302
                                            0.5212 -0.0152
   185. (0.00003) RY*( 5) H  14           s( 16.42%)p 5.09( 83.58%)
   186. (0.00002) RY*( 6) H  14           s( 89.44%)p 0.12( 10.56%)
   187. (0.00088) RY*( 1) H  15           s( 99.19%)p 0.01(  0.81%)
                                           -0.0035  0.9959 -0.0029 -0.0012  0.0753
                                           -0.0471 -0.0155
   188. (0.00020) RY*( 2) H  15           s( 88.41%)p 0.13( 11.59%)
                                            0.0058  0.0223  0.9396 -0.0281 -0.0484
                                            0.3369 -0.0000
   189. (0.00020) RY*( 3) H  15           s(  0.06%)p99.99( 99.94%)
                                            0.0000 -0.0158 -0.0002  0.0192  0.0059
                                            0.0040 -0.9997
   190. (0.00013) RY*( 4) H  15           s( 20.32%)p 3.92( 79.68%)
                                           -0.0006  0.0394  0.1274  0.4306 -0.7799
                                           -0.4342  0.0013
   191. (0.00006) RY*( 5) H  15           s( 81.48%)p 0.23( 18.52%)
   192. (0.00004) RY*( 6) H  15           s( 10.58%)p 8.45( 89.42%)
   193. (0.01621) BD*( 1) C   1 - C   2  
                ( 50.83%)   0.7129* C   1 s( 30.33%)p 2.30( 69.63%)d 0.00(  0.04%)
                                            0.0003  0.5504  0.0182  0.0024 -0.0001
                                            0.8341 -0.0127 -0.0091 -0.0003  0.0000
                                           -0.0000  0.0000  0.0000 -0.0152  0.0012
                                           -0.0014 -0.0003  0.0000 -0.0002 -0.0000
                                            0.0182 -0.0099
                ( 49.17%)  -0.7012* C   2 s( 31.22%)p 2.20( 68.75%)d 0.00(  0.03%)
                                           -0.0001  0.5587  0.0027 -0.0069  0.0004
                                           -0.8291 -0.0065  0.0075  0.0029  0.0000
                                           -0.0000  0.0000 -0.0000  0.0043  0.0007
                                           -0.0004  0.0002 -0.0000 -0.0010  0.0000
                                            0.0145 -0.0097
   194. (0.01047) BD*( 1) C   1 - H   8  
                ( 39.48%)   0.6283* C   1 s( 22.92%)p 3.36( 77.02%)d 0.00(  0.06%)
                                           -0.0001  0.4787 -0.0077  0.0002  0.0002
                                           -0.3002  0.0138  0.0023 -0.0009 -0.0000
                                           -0.0000 -0.0000  0.0000  0.8245  0.0065
                                            0.0035  0.0009  0.0000 -0.0128 -0.0000
                                            0.0015  0.0211
                ( 60.52%)  -0.7779* H   8 s( 99.97%)p 0.00(  0.03%)
                                            0.9998  0.0013  0.0004  0.0000  0.0054
                                            0.0000 -0.0168
   195. (0.00546) BD*( 1) C   1 - H   9  
                ( 39.70%)   0.6301* C   1 s( 23.39%)p 3.27( 76.55%)d 0.00(  0.06%)
                                           -0.0001  0.4836 -0.0045 -0.0010 -0.0000
                                           -0.3259  0.0126 -0.0006 -0.0009 -0.7067
                                           -0.0118 -0.0016  0.0008 -0.3994 -0.0025
                                           -0.0021 -0.0005  0.0117  0.0064  0.0153
                                           -0.0123 -0.0043
                ( 60.30%)  -0.7765* H   9 s( 99.97%)p 0.00(  0.03%)
                                            0.9998  0.0006  0.0005 -0.0000  0.0074
                                            0.0142  0.0092
   196. (0.00546) BD*( 1) C   1 - H  10  
                ( 39.70%)   0.6301* C   1 s( 23.39%)p 3.27( 76.55%)d 0.00(  0.06%)
                                           -0.0001  0.4836 -0.0045 -0.0010 -0.0000
                                           -0.3259  0.0126 -0.0006 -0.0009  0.7067
                                            0.0118  0.0016 -0.0008 -0.3994 -0.0025
                                           -0.0021 -0.0005 -0.0117  0.0064 -0.0153
                                           -0.0123 -0.0043
                ( 60.30%)  -0.7765* H  10 s( 99.97%)p 0.00(  0.03%)
                                            0.9998  0.0006  0.0005 -0.0000  0.0074
                                           -0.0142  0.0092
   197. (0.02420) BD*( 1) C   2 - C   3  
                ( 49.41%)   0.7030* C   2 s( 34.36%)p 1.91( 65.60%)d 0.00(  0.04%)
                                           -0.0000 -0.5862  0.0020 -0.0034  0.0002
                                           -0.3948 -0.0165  0.0060  0.0007  0.7067
                                           -0.0169 -0.0060  0.0016 -0.0038 -0.0003
                                           -0.0002 -0.0000  0.0159 -0.0004  0.0005
                                            0.0070  0.0105
                ( 50.59%)  -0.7112* C   3 s( 36.04%)p 1.77( 63.91%)d 0.00(  0.04%)
                                           -0.0001 -0.6003  0.0058 -0.0059 -0.0009
                                            0.4267 -0.0307 -0.0041  0.0011 -0.6752
                                           -0.0019  0.0120 -0.0004 -0.0007 -0.0013
                                            0.0001  0.0001  0.0139  0.0001 -0.0002
                                            0.0093  0.0117
   198. (0.02420) BD*( 1) C   2 - C   7  
                ( 49.41%)   0.7030* C   2 s( 34.36%)p 1.91( 65.60%)d 0.00(  0.04%)
                                           -0.0000 -0.5862  0.0020 -0.0034  0.0002
                                           -0.3948 -0.0165  0.0060  0.0007 -0.7067
                                            0.0169  0.0060 -0.0016 -0.0033 -0.0003
                                           -0.0002 -0.0000 -0.0159 -0.0004 -0.0005
                                            0.0070  0.0105
                ( 50.59%)  -0.7112* C   7 s( 36.04%)p 1.77( 63.91%)d 0.00(  0.04%)
                                           -0.0001 -0.6003  0.0058 -0.0059 -0.0009
                                            0.4267 -0.0307 -0.0041  0.0011  0.6752
                                            0.0019 -0.0120  0.0004 -0.0008 -0.0013
                                            0.0001  0.0001 -0.0139  0.0001  0.0002
                                            0.0093  0.0117
   199. (0.34538) BD*( 2) C   2 - C   7  
                ( 51.12%)   0.7150* C   2 s(  0.00%)p 1.00( 99.95%)d 0.00(  0.04%)
                                           -0.0000 -0.0066 -0.0013 -0.0001 -0.0000
                                            0.0007 -0.0006 -0.0003 -0.0000  0.0003
                                           -0.0011  0.0006 -0.0003  0.9995  0.0098
                                            0.0183  0.0027 -0.0002  0.0181  0.0100
                                           -0.0003 -0.0002
                ( 48.88%)  -0.6991* C   7 s(  0.00%)p 1.00( 99.96%)d 0.00(  0.04%)
                                           -0.0000 -0.0018 -0.0004 -0.0007  0.0000
                                           -0.0059  0.0001  0.0004  0.0004  0.0034
                                            0.0002  0.0014 -0.0003  0.9995  0.0136
                                            0.0173 -0.0013  0.0001  0.0008 -0.0202
                                            0.0003  0.0001
   200. (0.01554) BD*( 1) C   3 - C   4  
                ( 49.81%)   0.7057* C   3 s( 35.85%)p 1.79( 64.11%)d 0.00(  0.04%)
                                            0.0000 -0.5984  0.0182  0.0041  0.0002
                                           -0.7990  0.0187  0.0092 -0.0010  0.0264
                                           -0.0398  0.0043  0.0008 -0.0062  0.0004
                                            0.0002 -0.0001 -0.0025 -0.0004  0.0001
                                           -0.0171  0.0119
                ( 50.19%)  -0.7085* C   4 s( 35.85%)p 1.79( 64.11%)d 0.00(  0.04%)
                                           -0.0000 -0.5986  0.0136  0.0012  0.0000
                                            0.7989 -0.0203  0.0116  0.0009  0.0235
                                           -0.0406 -0.0042  0.0003  0.0056 -0.0004
                                            0.0000  0.0000  0.0023 -0.0003  0.0000
                                           -0.0167  0.0120
   201. (0.33380) BD*( 2) C   3 - C   4  
                ( 49.41%)   0.7029* C   3 s(  0.00%)p 1.00( 99.96%)d 0.00(  0.04%)
                                           -0.0000  0.0013 -0.0009  0.0003 -0.0002
                                            0.0070  0.0004  0.0000 -0.0003  0.0044
                                           -0.0002  0.0011 -0.0003 -0.9995 -0.0149
                                           -0.0179  0.0023  0.0003 -0.0166 -0.0104
                                           -0.0001 -0.0001
                ( 50.59%)  -0.7112* C   4 s(  0.00%)p 1.00( 99.96%)d 0.00(  0.04%)
                                           -0.0000 -0.0003 -0.0000  0.0002  0.0000
                                            0.0067 -0.0000  0.0000  0.0001  0.0040
                                            0.0003 -0.0002  0.0001 -0.9994 -0.0185
                                            0.0170  0.0016 -0.0000  0.0175 -0.0104
                                           -0.0002  0.0003
   202. (0.01458) BD*( 1) C   3 - H  11  
                ( 39.90%)   0.6317* C   3 s( 28.11%)p 2.56( 71.85%)d 0.00(  0.04%)
                                           -0.0004  0.5298  0.0204 -0.0014 -0.0006
                                           -0.4204 -0.0131 -0.0003 -0.0000 -0.7358
                                           -0.0106  0.0010 -0.0015 -0.0055  0.0002
                                           -0.0001 -0.0001  0.0163  0.0001  0.0005
                                           -0.0097 -0.0086
                ( 60.10%)  -0.7752* H  11 s( 99.95%)p 0.00(  0.05%)
                                            0.9998  0.0018  0.0011  0.0001  0.0101
                                            0.0189 -0.0000
   203. (0.01636) BD*( 1) C   4 - C   5  
                ( 49.94%)   0.7067* C   4 s( 35.84%)p 1.79( 64.12%)d 0.00(  0.04%)
                                           -0.0000 -0.5985  0.0144  0.0004  0.0001
                                           -0.4277  0.0445 -0.0018 -0.0008 -0.6754
                                           -0.0021 -0.0106 -0.0004 -0.0054  0.0003
                                            0.0000 -0.0000 -0.0137 -0.0001 -0.0002
                                            0.0100  0.0119
                ( 50.06%)  -0.7075* C   5 s( 35.69%)p 1.80( 64.27%)d 0.00(  0.04%)
                                           -0.0000 -0.5972  0.0133  0.0006  0.0001
                                            0.3772  0.0235 -0.0087  0.0001  0.7059
                                           -0.0382 -0.0065  0.0010  0.0021  0.0001
                                           -0.0001 -0.0000 -0.0159 -0.0001 -0.0001
                                            0.0065  0.0121
   204. (0.01362) BD*( 1) C   4 - H  12  
                ( 39.78%)   0.6307* C   4 s( 28.32%)p 2.53( 71.64%)d 0.00(  0.04%)
                                           -0.0004  0.5316  0.0239  0.0015  0.0001
                                            0.4189  0.0085 -0.0001  0.0009 -0.7352
                                           -0.0166  0.0009 -0.0015 -0.0003 -0.0000
                                            0.0000 -0.0000 -0.0166 -0.0001  0.0000
                                           -0.0099 -0.0085
                ( 60.22%)  -0.7760* H  12 s( 99.95%)p 0.00(  0.05%)
                                            0.9998  0.0014  0.0010  0.0001 -0.0108
                                            0.0190  0.0000
   205. (0.01636) BD*( 1) C   5 - C   6  
                ( 50.06%)   0.7075* C   5 s( 35.69%)p 1.80( 64.27%)d 0.00(  0.04%)
                                            0.0000  0.5972 -0.0133 -0.0006 -0.0001
                                           -0.3772 -0.0235  0.0087 -0.0001  0.7059
                                           -0.0382 -0.0065  0.0010 -0.0011 -0.0001
                                            0.0001  0.0000 -0.0159  0.0001 -0.0001
                                           -0.0065 -0.0121
                ( 49.94%)  -0.7067* C   6 s( 35.84%)p 1.79( 64.12%)d 0.00(  0.04%)
                                            0.0000  0.5985 -0.0144 -0.0004 -0.0001
                                            0.4277 -0.0445  0.0018  0.0008 -0.6754
                                           -0.0021 -0.0106 -0.0004  0.0061 -0.0002
                                           -0.0000  0.0000 -0.0137  0.0001 -0.0002
                                           -0.0100 -0.0119
   206. (0.33912) BD*( 2) C   5 - C   6  
                ( 49.40%)   0.7029* C   5 s(  0.00%)p 1.00( 99.96%)d 0.00(  0.04%)
                                           -0.0000  0.0006 -0.0004 -0.0005 -0.0001
                                            0.0052  0.0001  0.0004 -0.0001  0.0007
                                           -0.0001  0.0001  0.0001 -0.9995 -0.0188
                                           -0.0148  0.0020  0.0001  0.0180 -0.0092
                                           -0.0000  0.0003
                ( 50.60%)  -0.7113* C   6 s(  0.00%)p 1.00( 99.96%)d 0.00(  0.04%)
                                            0.0000  0.0004 -0.0003 -0.0003 -0.0001
                                            0.0078  0.0002 -0.0006  0.0001 -0.0038
                                           -0.0002 -0.0000 -0.0001 -0.9995 -0.0168
                                            0.0151  0.0021 -0.0000  0.0004  0.0202
                                           -0.0001 -0.0000
   207. (0.01374) BD*( 1) C   5 - H  13  
                ( 39.74%)   0.6304* C   5 s( 28.63%)p 2.49( 71.33%)d 0.00(  0.04%)
                                            0.0004 -0.5346 -0.0228 -0.0013 -0.0003
                                           -0.8444 -0.0179 -0.0008 -0.0015  0.0000
                                           -0.0000  0.0000  0.0000 -0.0047 -0.0001
                                           -0.0000  0.0000  0.0000 -0.0001 -0.0000
                                           -0.0191  0.0083
                ( 60.26%)  -0.7763* H  13 s( 99.95%)p 0.00(  0.05%)
                                           -0.9998 -0.0014 -0.0010  0.0001  0.0217
                                           -0.0000  0.0001
   208. (0.01554) BD*( 1) C   6 - C   7  
                ( 50.19%)   0.7085* C   6 s( 35.85%)p 1.79( 64.11%)d 0.00(  0.04%)
                                            0.0000  0.5986 -0.0136 -0.0012 -0.0000
                                           -0.7989  0.0203 -0.0116 -0.0009  0.0235
                                           -0.0406 -0.0042  0.0003 -0.0060  0.0004
                                           -0.0000 -0.0000  0.0023  0.0003  0.0000
                                            0.0167 -0.0120
                ( 49.81%)  -0.7057* C   7 s( 35.85%)p 1.79( 64.11%)d 0.00(  0.04%)
                                           -0.0000  0.5984 -0.0182 -0.0041 -0.0002
                                            0.7990 -0.0187 -0.0092  0.0010  0.0264
                                           -0.0398  0.0043  0.0008  0.0057 -0.0004
                                           -0.0002  0.0001 -0.0025  0.0004  0.0001
                                            0.0171 -0.0119
   209. (0.01362) BD*( 1) C   6 - H  14  
                ( 39.78%)   0.6307* C   6 s( 28.32%)p 2.53( 71.64%)d 0.00(  0.04%)
                                            0.0004 -0.5316 -0.0239 -0.0015 -0.0001
                                           -0.4189 -0.0085  0.0001 -0.0009 -0.7352
                                           -0.0166  0.0009 -0.0015 -0.0007  0.0000
                                           -0.0000  0.0000 -0.0166  0.0001  0.0000
                                            0.0099  0.0085
                ( 60.22%)  -0.7760* H  14 s( 99.95%)p 0.00(  0.05%)
                                           -0.9998 -0.0014 -0.0010 -0.0001  0.0108
                                            0.0190 -0.0000
   210. (0.01458) BD*( 1) C   7 - H  15  
                ( 39.90%)   0.6317* C   7 s( 28.11%)p 2.56( 71.85%)d 0.00(  0.04%)
                                            0.0004 -0.5298 -0.0204  0.0014  0.0006
                                            0.4204  0.0131  0.0003  0.0000 -0.7358
                                           -0.0106  0.0010 -0.0015  0.0040 -0.0002
                                            0.0001  0.0001  0.0163 -0.0001  0.0006
                                            0.0097  0.0086
                ( 60.10%)  -0.7752* H  15 s( 99.95%)p 0.00(  0.05%)
                                           -0.9998 -0.0018 -0.0011 -0.0001 -0.0101
                                            0.0189  0.0000


 NHO Directionality and "Bond Bending" (deviations from line of nuclear centers)

         [Thresholds for printing:  angular deviation  >  1.0 degree]
                                    hybrid p-character > 25.0%
                                    orbital occupancy  >  0.10e

                                Line of Centers        Hybrid 1              Hybrid 2
                                ---------------  -------------------   ------------------
                NBO               Theta   Phi    Theta   Phi    Dev    Theta   Phi    Dev
 ========================================================================================
     2. BD (   1) C   1 - H   8    20.2  180.0    18.8  180.0   1.4      --     --    --
     7. BD (   2) C   2 - C   7    89.9   59.1   180.0    0.0  90.1    179.6  317.0  89.8
     8. BD (   1) C   3 - C   4    89.6  359.9     --     --    --      90.4  178.5   1.4
     9. BD (   2) C   3 - C   4    89.6  359.9   179.5   34.4  90.0      0.5  211.6  90.1
    11. BD (   1) C   4 - C   5    89.7   59.7    89.6   60.7   1.0      --     --    --
    13. BD (   1) C   5 - C   6    90.3  120.3     --     --    --      89.6  299.3   1.0
    14. BD (   2) C   5 - C   6    90.3  120.3   179.7    7.9  89.9    179.5  331.1  89.8
    16. BD (   1) C   6 - C   7    90.4  180.1    90.4  181.5   1.4      --     --    --
   199. BD*(   2) C   2 - C   7    89.9   59.1   180.0    0.0  90.1    179.6  317.0  89.8
   201. BD*(   2) C   3 - C   4    89.6  359.9   179.5   34.4  90.0      0.5  211.6  90.1
   206. BD*(   2) C   5 - C   6    90.3  120.3   179.7    7.9  89.9    179.5  331.1  89.8


 Second Order Perturbation Theory Analysis of Fock Matrix in NBO Basis

     Threshold for printing:   0.50 kcal/mol
                                                                              E(2)  E(j)-E(i) F(i,j)
         Donor NBO (i)                     Acceptor NBO (j)                 kcal/mol   a.u.    a.u. 
 ===================================================================================================

 within unit  1
   1. BD (   1) C   1 - C   2        / 60. RY*(   1) C   3                    1.50    1.74    0.046
   1. BD (   1) C   1 - C   2        /128. RY*(   1) C   7                    1.50    1.74    0.046
   1. BD (   1) C   1 - C   2        /194. BD*(   1) C   1 - H   8            0.55    1.03    0.021
   1. BD (   1) C   1 - C   2        /197. BD*(   1) C   2 - C   3            1.81    1.21    0.042
   1. BD (   1) C   1 - C   2        /198. BD*(   1) C   2 - C   7            1.81    1.21    0.042
   1. BD (   1) C   1 - C   2        /200. BD*(   1) C   3 - C   4            2.49    1.21    0.049
   1. BD (   1) C   1 - C   2        /208. BD*(   1) C   6 - C   7            2.49    1.21    0.049
   2. BD (   1) C   1 - H   8        / 45. RY*(   3) C   2                    0.93    1.18    0.030
   2. BD (   1) C   1 - H   8        /197. BD*(   1) C   2 - C   3            0.54    1.08    0.022
   2. BD (   1) C   1 - H   8        /198. BD*(   1) C   2 - C   7            0.54    1.08    0.022
   2. BD (   1) C   1 - H   8        /199. BD*(   2) C   2 - C   7            4.36    0.54    0.047
   3. BD (   1) C   1 - H   9        /198. BD*(   1) C   2 - C   7            3.73    1.09    0.057
   3. BD (   1) C   1 - H   9        /199. BD*(   2) C   2 - C   7            1.01    0.54    0.023
   4. BD (   1) C   1 - H  10        /197. BD*(   1) C   2 - C   3            3.74    1.09    0.057
   4. BD (   1) C   1 - H  10        /199. BD*(   2) C   2 - C   7            0.86    0.54    0.021
   5. BD (   1) C   2 - C   3        / 26. RY*(   1) C   1                    0.92    1.29    0.031
   5. BD (   1) C   2 - C   3        / 77. RY*(   1) C   4                    1.13    1.77    0.040
   5. BD (   1) C   2 - C   3        / 78. RY*(   2) C   4                    1.48    1.98    0.049
   5. BD (   1) C   2 - C   3        /128. RY*(   1) C   7                    0.96    1.80    0.037
   5. BD (   1) C   2 - C   3        /129. RY*(   2) C   7                    0.55    1.82    0.028
   5. BD (   1) C   2 - C   3        /193. BD*(   1) C   1 - C   2            1.60    1.11    0.038
   5. BD (   1) C   2 - C   3        /196. BD*(   1) C   1 - H  10            0.59    1.09    0.023
   5. BD (   1) C   2 - C   3        /198. BD*(   1) C   2 - C   7            3.28    1.27    0.058
   5. BD (   1) C   2 - C   3        /200. BD*(   1) C   3 - C   4            3.12    1.27    0.056
   5. BD (   1) C   2 - C   3        /202. BD*(   1) C   3 - H  11            0.94    1.13    0.029
   5. BD (   1) C   2 - C   3        /204. BD*(   1) C   4 - H  12            2.10    1.14    0.044
   5. BD (   1) C   2 - C   3        /210. BD*(   1) C   7 - H  15            2.56    1.13    0.048
   6. BD (   1) C   2 - C   7        / 26. RY*(   1) C   1                    0.92    1.29    0.031
   6. BD (   1) C   2 - C   7        / 60. RY*(   1) C   3                    0.96    1.80    0.037
   6. BD (   1) C   2 - C   7        / 61. RY*(   2) C   3                    0.55    1.82    0.028
   6. BD (   1) C   2 - C   7        /111. RY*(   1) C   6                    1.13    1.77    0.040
   6. BD (   1) C   2 - C   7        /112. RY*(   2) C   6                    1.48    1.98    0.049
   6. BD (   1) C   2 - C   7        /193. BD*(   1) C   1 - C   2            1.60    1.11    0.038
   6. BD (   1) C   2 - C   7        /195. BD*(   1) C   1 - H   9            0.59    1.09    0.023
   6. BD (   1) C   2 - C   7        /197. BD*(   1) C   2 - C   3            3.28    1.27    0.058
   6. BD (   1) C   2 - C   7        /202. BD*(   1) C   3 - H  11            2.56    1.13    0.048
   6. BD (   1) C   2 - C   7        /208. BD*(   1) C   6 - C   7            3.12    1.27    0.056
   6. BD (   1) C   2 - C   7        /209. BD*(   1) C   6 - H  14            2.10    1.14    0.044
   6. BD (   1) C   2 - C   7        /210. BD*(   1) C   7 - H  15            0.94    1.13    0.029
   7. BD (   2) C   2 - C   7        / 27. RY*(   2) C   1                    0.68    1.29    0.029
   7. BD (   2) C   2 - C   7        / 62. RY*(   3) C   3                    1.50    0.72    0.032
   7. BD (   2) C   2 - C   7        /114. RY*(   4) C   6                    0.80    1.76    0.037
   7. BD (   2) C   2 - C   7        /194. BD*(   1) C   1 - H   8            3.11    0.64    0.044
   7. BD (   2) C   2 - C   7        /195. BD*(   1) C   1 - H   9            1.01    0.65    0.025
   7. BD (   2) C   2 - C   7        /196. BD*(   1) C   1 - H  10            0.50    0.65    0.018
   7. BD (   2) C   2 - C   7        /201. BD*(   2) C   3 - C   4           19.61    0.28    0.066
   7. BD (   2) C   2 - C   7        /206. BD*(   2) C   5 - C   6           21.82    0.28    0.070
   8. BD (   1) C   3 - C   4        / 43. RY*(   1) C   2                    1.04    1.97    0.041
   8. BD (   1) C   3 - C   4        / 44. RY*(   2) C   2                    1.53    1.84    0.048
   8. BD (   1) C   3 - C   4        / 94. RY*(   1) C   5                    0.88    1.81    0.036
   8. BD (   1) C   3 - C   4        / 95. RY*(   2) C   5                    1.43    1.97    0.048
   8. BD (   1) C   3 - C   4        /193. BD*(   1) C   1 - C   2            3.70    1.11    0.057
   8. BD (   1) C   3 - C   4        /197. BD*(   1) C   2 - C   3            3.40    1.28    0.059
   8. BD (   1) C   3 - C   4        /202. BD*(   1) C   3 - H  11            0.97    1.14    0.030
   8. BD (   1) C   3 - C   4        /203. BD*(   1) C   4 - C   5            2.73    1.28    0.053
   8. BD (   1) C   3 - C   4        /204. BD*(   1) C   4 - H  12            0.93    1.14    0.029
   8. BD (   1) C   3 - C   4        /207. BD*(   1) C   5 - H  13            2.39    1.14    0.047
   9. BD (   2) C   3 - C   4        / 96. RY*(   3) C   5                    1.20    0.73    0.029
   9. BD (   2) C   3 - C   4        /199. BD*(   2) C   2 - C   7           21.22    0.29    0.070
   9. BD (   2) C   3 - C   4        /206. BD*(   2) C   5 - C   6           19.62    0.28    0.067
  10. BD (   1) C   3 - H  11        / 43. RY*(   1) C   2                    1.86    1.79    0.052
  10. BD (   1) C   3 - H  11        / 77. RY*(   1) C   4                    1.39    1.60    0.042
  10. BD (   1) C   3 - H  11        /197. BD*(   1) C   2 - C   3            0.81    1.10    0.027
  10. BD (   1) C   3 - H  11        /198. BD*(   1) C   2 - C   7            4.44    1.10    0.062
  10. BD (   1) C   3 - H  11        /200. BD*(   1) C   3 - C   4            0.62    1.10    0.023
  10. BD (   1) C   3 - H  11        /203. BD*(   1) C   4 - C   5            3.74    1.10    0.057
  10. BD (   1) C   3 - H  11        /204. BD*(   1) C   4 - H  12            0.54    0.96    0.020
  11. BD (   1) C   4 - C   5        / 60. RY*(   1) C   3                    0.66    1.81    0.031
  11. BD (   1) C   4 - C   5        / 61. RY*(   2) C   3                    1.84    1.82    0.052
  11. BD (   1) C   4 - C   5        /111. RY*(   1) C   6                    0.94    1.78    0.037
  11. BD (   1) C   4 - C   5        /112. RY*(   2) C   6                    1.45    1.98    0.048
  11. BD (   1) C   4 - C   5        /200. BD*(   1) C   3 - C   4            2.75    1.28    0.053
  11. BD (   1) C   4 - C   5        /202. BD*(   1) C   3 - H  11            2.45    1.14    0.047
  11. BD (   1) C   4 - C   5        /204. BD*(   1) C   4 - H  12            0.93    1.14    0.029
  11. BD (   1) C   4 - C   5        /205. BD*(   1) C   5 - C   6            2.73    1.28    0.053
  11. BD (   1) C   4 - C   5        /207. BD*(   1) C   5 - H  13            0.94    1.14    0.029
  11. BD (   1) C   4 - C   5        /209. BD*(   1) C   6 - H  14            2.46    1.14    0.047
  12. BD (   1) C   4 - H  12        / 60. RY*(   1) C   3                    1.38    1.63    0.042
  12. BD (   1) C   4 - H  12        / 94. RY*(   1) C   5                    1.44    1.64    0.043
  12. BD (   1) C   4 - H  12        /197. BD*(   1) C   2 - C   3            3.70    1.10    0.057
  12. BD (   1) C   4 - H  12        /200. BD*(   1) C   3 - C   4            0.58    1.10    0.023
  12. BD (   1) C   4 - H  12        /203. BD*(   1) C   4 - C   5            0.57    1.10    0.022
  12. BD (   1) C   4 - H  12        /205. BD*(   1) C   5 - C   6            3.68    1.10    0.057
  12. BD (   1) C   4 - H  12        /207. BD*(   1) C   5 - H  13            0.51    0.96    0.020
  13. BD (   1) C   5 - C   6        / 77. RY*(   1) C   4                    0.94    1.78    0.037
  13. BD (   1) C   5 - C   6        / 78. RY*(   2) C   4                    1.45    1.98    0.048
  13. BD (   1) C   5 - C   6        /128. RY*(   1) C   7                    0.66    1.81    0.031
  13. BD (   1) C   5 - C   6        /129. RY*(   2) C   7                    1.84    1.82    0.052
  13. BD (   1) C   5 - C   6        /203. BD*(   1) C   4 - C   5            2.73    1.28    0.053
  13. BD (   1) C   5 - C   6        /204. BD*(   1) C   4 - H  12            2.46    1.14    0.047
  13. BD (   1) C   5 - C   6        /207. BD*(   1) C   5 - H  13            0.94    1.14    0.029
  13. BD (   1) C   5 - C   6        /208. BD*(   1) C   6 - C   7            2.75    1.28    0.053
  13. BD (   1) C   5 - C   6        /209. BD*(   1) C   6 - H  14            0.93    1.14    0.029
  13. BD (   1) C   5 - C   6        /210. BD*(   1) C   7 - H  15            2.45    1.14    0.047
  14. BD (   2) C   5 - C   6        / 79. RY*(   3) C   4                    1.67    0.72    0.034
  14. BD (   2) C   5 - C   6        /130. RY*(   3) C   7                    0.87    0.78    0.025
  14. BD (   2) C   5 - C   6        /131. RY*(   4) C   7                    0.56    1.84    0.031
  14. BD (   2) C   5 - C   6        /199. BD*(   2) C   2 - C   7           19.24    0.29    0.067
  14. BD (   2) C   5 - C   6        /201. BD*(   2) C   3 - C   4           21.01    0.28    0.069
  15. BD (   1) C   5 - H  13        / 77. RY*(   1) C   4                    1.47    1.60    0.043
  15. BD (   1) C   5 - H  13        /111. RY*(   1) C   6                    1.47    1.60    0.043
  15. BD (   1) C   5 - H  13        /200. BD*(   1) C   3 - C   4            3.73    1.10    0.057
  15. BD (   1) C   5 - H  13        /203. BD*(   1) C   4 - C   5            0.60    1.10    0.023
  15. BD (   1) C   5 - H  13        /204. BD*(   1) C   4 - H  12            0.50    0.96    0.020
  15. BD (   1) C   5 - H  13        /205. BD*(   1) C   5 - C   6            0.60    1.10    0.023
  15. BD (   1) C   5 - H  13        /208. BD*(   1) C   6 - C   7            3.73    1.10    0.057
  15. BD (   1) C   5 - H  13        /209. BD*(   1) C   6 - H  14            0.50    0.96    0.020
  16. BD (   1) C   6 - C   7        / 43. RY*(   1) C   2                    1.04    1.97    0.041
  16. BD (   1) C   6 - C   7        / 44. RY*(   2) C   2                    1.53    1.84    0.048
  16. BD (   1) C   6 - C   7        / 94. RY*(   1) C   5                    0.88    1.81    0.036
  16. BD (   1) C   6 - C   7        / 95. RY*(   2) C   5                    1.43    1.97    0.048
  16. BD (   1) C   6 - C   7        /193. BD*(   1) C   1 - C   2            3.70    1.11    0.057
  16. BD (   1) C   6 - C   7        /198. BD*(   1) C   2 - C   7            3.40    1.28    0.059
  16. BD (   1) C   6 - C   7        /205. BD*(   1) C   5 - C   6            2.73    1.28    0.053
  16. BD (   1) C   6 - C   7        /207. BD*(   1) C   5 - H  13            2.39    1.14    0.047
  16. BD (   1) C   6 - C   7        /209. BD*(   1) C   6 - H  14            0.93    1.14    0.029
  16. BD (   1) C   6 - C   7        /210. BD*(   1) C   7 - H  15            0.97    1.14    0.030
  17. BD (   1) C   6 - H  14        / 94. RY*(   1) C   5                    1.44    1.64    0.043
  17. BD (   1) C   6 - H  14        /128. RY*(   1) C   7                    1.38    1.63    0.042
  17. BD (   1) C   6 - H  14        /198. BD*(   1) C   2 - C   7            3.70    1.10    0.057
  17. BD (   1) C   6 - H  14        /203. BD*(   1) C   4 - C   5            3.68    1.10    0.057
  17. BD (   1) C   6 - H  14        /205. BD*(   1) C   5 - C   6            0.57    1.10    0.022
  17. BD (   1) C   6 - H  14        /207. BD*(   1) C   5 - H  13            0.51    0.96    0.020
  17. BD (   1) C   6 - H  14        /208. BD*(   1) C   6 - C   7            0.58    1.10    0.023
  18. BD (   1) C   7 - H  15        / 43. RY*(   1) C   2                    1.86    1.79    0.052
  18. BD (   1) C   7 - H  15        /111. RY*(   1) C   6                    1.39    1.60    0.042
  18. BD (   1) C   7 - H  15        /197. BD*(   1) C   2 - C   3            4.44    1.10    0.062
  18. BD (   1) C   7 - H  15        /198. BD*(   1) C   2 - C   7            0.81    1.10    0.027
  18. BD (   1) C   7 - H  15        /205. BD*(   1) C   5 - C   6            3.74    1.10    0.057
  18. BD (   1) C   7 - H  15        /208. BD*(   1) C   6 - C   7            0.62    1.10    0.023
  18. BD (   1) C   7 - H  15        /209. BD*(   1) C   6 - H  14            0.54    0.96    0.020
  19. CR (   1) C   1                / 43. RY*(   1) C   2                    1.05   11.30    0.098
  19. CR (   1) C   1                /197. BD*(   1) C   2 - C   3            0.60   10.61    0.072
  19. CR (   1) C   1                /198. BD*(   1) C   2 - C   7            0.60   10.61    0.072
  20. CR (   1) C   2                / 28. RY*(   3) C   1                    0.79   10.63    0.082
  20. CR (   1) C   2                / 61. RY*(   2) C   3                    1.52   11.17    0.116
  20. CR (   1) C   2                /129. RY*(   2) C   7                    1.52   11.17    0.116
  20. CR (   1) C   2                /200. BD*(   1) C   3 - C   4            0.72   10.62    0.078
  20. CR (   1) C   2                /208. BD*(   1) C   6 - C   7            0.72   10.62    0.078
  21. CR (   1) C   3                / 43. RY*(   1) C   2                    0.57   11.30    0.072
  21. CR (   1) C   3                / 44. RY*(   2) C   2                    1.78   11.17    0.126
  21. CR (   1) C   3                / 78. RY*(   2) C   4                    1.64   11.31    0.122
  21. CR (   1) C   3                /193. BD*(   1) C   1 - C   2            0.87   10.44    0.085
  21. CR (   1) C   3                /198. BD*(   1) C   2 - C   7            0.78   10.61    0.082
  21. CR (   1) C   3                /203. BD*(   1) C   4 - C   5            0.73   10.61    0.079
  22. CR (   1) C   4                / 61. RY*(   2) C   3                    1.20   11.16    0.103
  22. CR (   1) C   4                / 64. RY*(   5) C   3                    0.56   11.05    0.070
  22. CR (   1) C   4                / 95. RY*(   2) C   5                    1.51   11.31    0.117
  22. CR (   1) C   4                /197. BD*(   1) C   2 - C   3            0.75   10.61    0.080
  22. CR (   1) C   4                /205. BD*(   1) C   5 - C   6            0.69   10.61    0.077
  23. CR (   1) C   5                / 78. RY*(   2) C   4                    1.35   11.31    0.110
  23. CR (   1) C   5                / 81. RY*(   5) C   4                    0.55   11.01    0.070
  23. CR (   1) C   5                /112. RY*(   2) C   6                    1.35   11.31    0.110
  23. CR (   1) C   5                /115. RY*(   5) C   6                    0.56   11.01    0.070
  23. CR (   1) C   5                /200. BD*(   1) C   3 - C   4            0.72   10.61    0.078
  23. CR (   1) C   5                /208. BD*(   1) C   6 - C   7            0.72   10.61    0.078
  24. CR (   1) C   6                / 95. RY*(   2) C   5                    1.51   11.31    0.117
  24. CR (   1) C   6                /129. RY*(   2) C   7                    1.20   11.16    0.103
  24. CR (   1) C   6                /132. RY*(   5) C   7                    0.58   11.03    0.071
  24. CR (   1) C   6                /198. BD*(   1) C   2 - C   7            0.75   10.61    0.080
  24. CR (   1) C   6                /203. BD*(   1) C   4 - C   5            0.69   10.61    0.077
  25. CR (   1) C   7                / 43. RY*(   1) C   2                    0.57   11.30    0.072
  25. CR (   1) C   7                / 44. RY*(   2) C   2                    1.78   11.17    0.126
  25. CR (   1) C   7                /112. RY*(   2) C   6                    1.64   11.31    0.122
  25. CR (   1) C   7                /193. BD*(   1) C   1 - C   2            0.87   10.44    0.085
  25. CR (   1) C   7                /197. BD*(   1) C   2 - C   3            0.78   10.61    0.082
  25. CR (   1) C   7                /205. BD*(   1) C   5 - C   6            0.73   10.61    0.079
 199. BD*(   2) C   2 - C   7        / 62. RY*(   3) C   3                    0.58    0.43    0.034
 199. BD*(   2) C   2 - C   7        /130. RY*(   3) C   7                    3.39    0.49    0.088
 199. BD*(   2) C   2 - C   7        /138. RY*(  11) C   7                    0.59    0.38    0.032
 199. BD*(   2) C   2 - C   7        /194. BD*(   1) C   1 - H   8            1.65    0.36    0.052
 199. BD*(   2) C   2 - C   7        /196. BD*(   1) C   1 - H  10            0.58    0.36    0.031
 201. BD*(   2) C   3 - C   4        / 62. RY*(   3) C   3                    2.82    0.44    0.077
 201. BD*(   2) C   3 - C   4        / 70. RY*(  11) C   3                    0.52    0.39    0.031
 201. BD*(   2) C   3 - C   4        / 79. RY*(   3) C   4                    2.32    0.44    0.070
 206. BD*(   2) C   5 - C   6        / 96. RY*(   3) C   5                    3.10    0.45    0.081
 206. BD*(   2) C   5 - C   6        /104. RY*(  11) C   5                    0.53    0.35    0.030
 206. BD*(   2) C   5 - C   6        /113. RY*(   3) C   6                    2.63    0.59    0.085
 206. BD*(   2) C   5 - C   6        /124. RY*(  14) C   6                    0.58    0.49    0.036


 Natural Bond Orbitals (Summary):

                                                            Principal Delocalizations
           NBO                        Occupancy    Energy   (geminal,vicinal,remote)
 ====================================================================================
 Molecular unit  1  (C7H8)
     1. BD (   1) C   1 - C   2          1.98277    -0.62462  200(v),208(v),197(g),198(g)
                                                    60(v),128(v),194(g)
     2. BD (   1) C   1 - H   8          1.97621    -0.49836  199(v),45(v),198(v),197(v)
     3. BD (   1) C   1 - H   9          1.98672    -0.50143  198(v),199(v)
     4. BD (   1) C   1 - H  10          1.98672    -0.50143  197(v),199(v)
     5. BD (   1) C   2 - C   3          1.97423    -0.68947  198(g),200(g),210(v),204(v)
                                                    193(g),78(v),77(v),128(v)
                                                    202(g),26(v),196(v),129(v)
     6. BD (   1) C   2 - C   7          1.97423    -0.68947  197(g),208(g),202(v),209(v)
                                                    193(g),112(v),111(v),60(v)
                                                    210(g),26(v),195(v),61(v)
     7. BD (   2) C   2 - C   7          1.64720    -0.24405  206(v),201(v),194(v),62(v)
                                                    195(v),114(v),27(v),196(v)
     8. BD (   1) C   3 - C   4          1.97832    -0.69285  193(v),197(g),203(g),207(v)
                                                    44(v),95(v),43(v),202(g)
                                                    204(g),94(v)
     9. BD (   2) C   3 - C   4          1.67224    -0.24742  199(v),206(v),96(v)
    10. BD (   1) C   3 - H  11          1.97991    -0.51148  198(v),203(v),43(v),77(v)
                                                    197(g),200(g),204(v)
    11. BD (   1) C   4 - C   5          1.97934    -0.69325  200(g),205(g),209(v),202(v)
                                                    61(v),112(v),111(v),207(g)
                                                    204(g),60(v)
    12. BD (   1) C   4 - H  12          1.98059    -0.51367  197(v),205(v),94(v),60(v)
                                                    200(g),203(g),207(v)
    13. BD (   1) C   5 - C   6          1.97934    -0.69325  208(g),203(g),204(v),210(v)
                                                    129(v),78(v),77(v),207(g)
                                                    209(g),128(v)
    14. BD (   2) C   5 - C   6          1.66701    -0.24711  201(v),199(v),79(v),130(v)
                                                    131(v)
    15. BD (   1) C   5 - H  13          1.98041    -0.51362  200(v),208(v),77(v),111(v)
                                                    203(g),205(g)
    16. BD (   1) C   6 - C   7          1.97832    -0.69285  193(v),198(g),205(g),207(v)
                                                    44(v),95(v),43(v),210(g)
                                                    209(g),94(v)
    17. BD (   1) C   6 - H  14          1.98059    -0.51367  198(v),203(v),94(v),128(v)
                                                    208(g),205(g),207(v)
    18. BD (   1) C   7 - H  15          1.97991    -0.51148  197(v),205(v),43(v),111(v)
                                                    198(g),208(g),209(v)
    19. CR (   1) C   1                  1.99928   -10.02550  43(v),197(v),198(v)
    20. CR (   1) C   2                  1.99905   -10.03916  129(v),61(v),28(v),200(v)
                                                    208(v)
    21. CR (   1) C   3                  1.99905   -10.02374  44(v),78(v),193(v),198(v)
                                                    203(v),43(v)
    22. CR (   1) C   4                  1.99916   -10.02881  95(v),61(v),197(v),205(v)
                                                    64(v)
    23. CR (   1) C   5                  1.99915   -10.02715  78(v),112(v),200(v),208(v)
                                                    115(v),81(v)
    24. CR (   1) C   6                  1.99916   -10.02881  95(v),129(v),198(v),203(v)
                                                    132(v)
    25. CR (   1) C   7                  1.99905   -10.02374  44(v),112(v),193(v),197(v)
                                                    205(v),43(v)
    26. RY*(   1) C   1                  0.00369     0.60007   
    27. RY*(   2) C   1                  0.00083     1.04378   
    28. RY*(   3) C   1                  0.00039     0.59139   
    29. RY*(   4) C   1                  0.00020     2.27309   
    30. RY*(   5) C   1                  0.00009     0.53708   
    31. RY*(   6) C   1                  0.00008     1.54676   
    32. RY*(   7) C   1                  0.00002     1.38083   
    33. RY*(   8) C   1                  0.00001     1.88724   
    34. RY*(   9) C   1                  0.00000     3.08187   
    35. RY*(  10) C   1                  0.00000     1.51323   
    36. RY*(  11) C   1                  0.00000     0.44064   
    37. RY*(  12) C   1                  0.00000     2.90285   
    38. RY*(  13) C   1                  0.00000     1.84274   
    39. RY*(  14) C   1                  0.00000     0.94544   
    40. RY*(  15) C   1                  0.00001     2.00376   
    41. RY*(  16) C   1                  0.00000     1.10509   
    42. RY*(  17) C   1                  0.00000    23.12406   
    43. RY*(   1) C   2                  0.00661     1.27771   
    44. RY*(   2) C   2                  0.00295     1.14684   
    45. RY*(   3) C   2                  0.00156     0.68014   
    46. RY*(   4) C   2                  0.00062     1.67482   
    47. RY*(   5) C   2                  0.00040     2.02245   
    48. RY*(   6) C   2                  0.00039     0.76345   
    49. RY*(   7) C   2                  0.00027     1.38605   
    50. RY*(   8) C   2                  0.00014     2.64148   
    51. RY*(   9) C   2                  0.00010     3.20694   
    52. RY*(  10) C   2                  0.00007     2.16543   
    53. RY*(  11) C   2                  0.00008     1.76870   
    54. RY*(  12) C   2                  0.00004     2.24264   
    55. RY*(  13) C   2                  0.00001     1.43367   
    56. RY*(  14) C   2                  0.00000     1.25843   
    57. RY*(  15) C   2                  0.00000     0.76292   
    58. RY*(  16) C   2                  0.00000     2.51219   
    59. RY*(  17) C   2                  0.00000    21.49524   
    60. RY*(   1) C   3                  0.00597     1.11197   
    61. RY*(   2) C   3                  0.00213     1.12681   
    62. RY*(   3) C   3                  0.00088     0.47402   
    63. RY*(   4) C   3                  0.00061     1.63486   
    64. RY*(   5) C   3                  0.00047     1.02336   
    65. RY*(   6) C   3                  0.00019     1.52454   
    66. RY*(   7) C   3                  0.00011     2.95967   
    67. RY*(   8) C   3                  0.00011     2.50385   
    68. RY*(   9) C   3                  0.00004     1.56262   
    69. RY*(  10) C   3                  0.00005     1.90744   
    70. RY*(  11) C   3                  0.00000     0.42321   
    71. RY*(  12) C   3                  0.00001     1.62063   
    72. RY*(  13) C   3                  0.00000    20.68923   
    73. RY*(  14) C   3                  0.00001     2.65972   
    74. RY*(  15) C   3                  0.00000     2.69134   
    75. RY*(  16) C   3                  0.00000     2.64424   
    76. RY*(  17) C   3                  0.00001     1.10710   
    77. RY*(   1) C   4                  0.00635     1.08504   
    78. RY*(   2) C   4                  0.00228     1.28659   
    79. RY*(   3) C   4                  0.00079     0.47463   
    80. RY*(   4) C   4                  0.00062     1.66396   
    81. RY*(   5) C   4                  0.00043     0.97816   
    82. RY*(   6) C   4                  0.00025     1.03211   
    83. RY*(   7) C   4                  0.00011     2.59862   
    84. RY*(   8) C   4                  0.00008     2.54333   
    85. RY*(   9) C   4                  0.00004     1.90668   
    86. RY*(  10) C   4                  0.00002     1.89475   
    87. RY*(  11) C   4                  0.00001     1.65068   
    88. RY*(  12) C   4                  0.00000     2.71867   
    89. RY*(  13) C   4                  0.00000    21.56325   
    90. RY*(  14) C   4                  0.00000     0.52085   
    91. RY*(  15) C   4                  0.00000     1.49052   
    92. RY*(  16) C   4                  0.00000     2.53853   
    93. RY*(  17) C   4                  0.00000     1.44657   
    94. RY*(   1) C   5                  0.00601     1.12148   
    95. RY*(   2) C   5                  0.00216     1.28194   
    96. RY*(   3) C   5                  0.00095     0.48506   
    97. RY*(   4) C   5                  0.00056     1.66197   
    98. RY*(   5) C   5                  0.00039     0.83000   
    99. RY*(   6) C   5                  0.00029     1.21464   
   100. RY*(   7) C   5                  0.00011     2.53914   
   101. RY*(   8) C   5                  0.00007     3.01105   
   102. RY*(   9) C   5                  0.00003     0.79959   
   103. RY*(  10) C   5                  0.00003     1.87313   
   104. RY*(  11) C   5                  0.00000     0.38677   
   105. RY*(  12) C   5                  0.00000     2.75757   
   106. RY*(  13) C   5                  0.00000     2.70881   
   107. RY*(  14) C   5                  0.00000     1.51421   
   108. RY*(  15) C   5                  0.00001     1.68693   
   109. RY*(  16) C   5                  0.00000    22.04999   
   110. RY*(  17) C   5                  0.00000     1.51825   
   111. RY*(   1) C   6                  0.00635     1.08504   
   112. RY*(   2) C   6                  0.00228     1.28659   
   113. RY*(   3) C   6                  0.00084     0.62028   
   114. RY*(   4) C   6                  0.00058     1.51830   
   115. RY*(   5) C   6                  0.00043     0.97801   
   116. RY*(   6) C   6                  0.00025     1.03229   
   117. RY*(   7) C   6                  0.00011     2.59867   
   118. RY*(   8) C   6                  0.00008     2.54336   
   119. RY*(   9) C   6                  0.00004     1.90665   
   120. RY*(  10) C   6                  0.00002     1.89446   
   121. RY*(  11) C   6                  0.00001     1.66072   
   122. RY*(  12) C   6                  0.00000     2.71705   
   123. RY*(  13) C   6                  0.00000    21.55029   
   124. RY*(  14) C   6                  0.00000     0.52186   
   125. RY*(  15) C   6                  0.00000     1.48964   
   126. RY*(  16) C   6                  0.00000     2.52757   
   127. RY*(  17) C   6                  0.00000     1.46202   
   128. RY*(   1) C   7                  0.00597     1.11194   
   129. RY*(   2) C   7                  0.00213     1.12673   
   130. RY*(   3) C   7                  0.00091     0.53291   
   131. RY*(   4) C   7                  0.00059     1.59164   
   132. RY*(   5) C   7                  0.00047     1.00608   
   133. RY*(   6) C   7                  0.00019     1.52649   
   134. RY*(   7) C   7                  0.00011     2.95850   
   135. RY*(   8) C   7                  0.00011     2.50519   
   136. RY*(   9) C   7                  0.00004     1.56258   
   137. RY*(  10) C   7                  0.00005     1.90617   
   138. RY*(  11) C   7                  0.00000     0.42297   
   139. RY*(  12) C   7                  0.00001     1.62072   
   140. RY*(  13) C   7                  0.00000    20.68949   
   141. RY*(  14) C   7                  0.00001     2.66174   
   142. RY*(  15) C   7                  0.00000     2.69123   
   143. RY*(  16) C   7                  0.00000     2.64324   
   144. RY*(  17) C   7                  0.00001     1.10681   
   145. RY*(   1) H   8                  0.00097     0.64539   
   146. RY*(   2) H   8                  0.00017     1.82252   
   147. RY*(   3) H   8                  0.00014     1.79789   
   148. RY*(   4) H   8                  0.00010     1.14894   
   149. RY*(   5) H   8                  0.00006     2.09201   
   150. RY*(   6) H   8                  0.00002     1.71895   
   151. RY*(   1) H   9                  0.00093     0.64518   
   152. RY*(   2) H   9                  0.00016     1.93219   
   153. RY*(   3) H   9                  0.00012     1.75251   
   154. RY*(   4) H   9                  0.00010     1.13997   
   155. RY*(   5) H   9                  0.00005     1.22637   
   156. RY*(   6) H   9                  0.00002     2.45983   
   157. RY*(   1) H  10                  0.00093     0.64518   
   158. RY*(   2) H  10                  0.00016     1.93219   
   159. RY*(   3) H  10                  0.00012     1.75251   
   160. RY*(   4) H  10                  0.00010     1.13998   
   161. RY*(   5) H  10                  0.00005     1.22637   
   162. RY*(   6) H  10                  0.00002     2.45983   
   163. RY*(   1) H  11                  0.00088     0.77141   
   164. RY*(   2) H  11                  0.00020     2.07044   
   165. RY*(   3) H  11                  0.00020     1.60353   
   166. RY*(   4) H  11                  0.00013     1.76402   
   167. RY*(   5) H  11                  0.00006     0.61556   
   168. RY*(   6) H  11                  0.00004     2.49073   
   169. RY*(   1) H  12                  0.00084     0.64009   
   170. RY*(   2) H  12                  0.00020     2.33453   
   171. RY*(   3) H  12                  0.00020     1.59672   
   172. RY*(   4) H  12                  0.00012     1.94962   
   173. RY*(   5) H  12                  0.00003     2.25126   
   174. RY*(   6) H  12                  0.00002     0.47537   
   175. RY*(   1) H  13                  0.00081     0.68597   
   176. RY*(   2) H  13                  0.00020     1.60278   
   177. RY*(   3) H  13                  0.00019     2.28688   
   178. RY*(   4) H  13                  0.00012     1.97381   
   179. RY*(   5) H  13                  0.00003     0.21134   
   180. RY*(   6) H  13                  0.00003     2.48632   
   181. RY*(   1) H  14                  0.00084     0.64009   
   182. RY*(   2) H  14                  0.00020     2.33453   
   183. RY*(   3) H  14                  0.00020     1.59672   
   184. RY*(   4) H  14                  0.00012     1.94962   
   185. RY*(   5) H  14                  0.00003     2.25126   
   186. RY*(   6) H  14                  0.00002     0.47537   
   187. RY*(   1) H  15                  0.00088     0.77141   
   188. RY*(   2) H  15                  0.00020     2.07044   
   189. RY*(   3) H  15                  0.00020     1.60353   
   190. RY*(   4) H  15                  0.00013     1.76402   
   191. RY*(   5) H  15                  0.00006     0.61556   
   192. RY*(   6) H  15                  0.00004     2.49073   
   193. BD*(   1) C   1 - C   2          0.01621     0.42066   
   194. BD*(   1) C   1 - H   8          0.01047     0.40059   
   195. BD*(   1) C   1 - H   9          0.00546     0.40397   
   196. BD*(   1) C   1 - H  10          0.00546     0.40397   
   197. BD*(   1) C   2 - C   3          0.02420     0.58524   
   198. BD*(   1) C   2 - C   7          0.02420     0.58524   
   199. BD*(   2) C   2 - C   7          0.34538     0.04006  201(v),206(v),130(g),194(v)
                                                    138(g),62(v),196(v)
   200. BD*(   1) C   3 - C   4          0.01554     0.58521   
   201. BD*(   2) C   3 - C   4          0.33380     0.03445  206(v),199(v),62(g),79(g)
                                                    70(g)
   202. BD*(   1) C   3 - H  11          0.01458     0.44341   
   203. BD*(   1) C   4 - C   5          0.01636     0.58409   
   204. BD*(   1) C   4 - H  12          0.01362     0.44824   
   205. BD*(   1) C   5 - C   6          0.01636     0.58409   
   206. BD*(   2) C   5 - C   6          0.33912     0.03425  201(v),199(v),96(g),113(g)
                                                    124(g),104(g)
   207. BD*(   1) C   5 - H  13          0.01374     0.44956   
   208. BD*(   1) C   6 - C   7          0.01554     0.58521   
   209. BD*(   1) C   6 - H  14          0.01362     0.44824   
   210. BD*(   1) C   7 - H  15          0.01458     0.44341   
       -------------------------------
              Total Lewis   48.67794  ( 97.3559%)
        Valence non-Lewis    1.23821  (  2.4764%)
        Rydberg non-Lewis    0.08385  (  0.1677%)
       -------------------------------
            Total unit  1   50.00000  (100.0000%)
           Charge unit  1    0.00000
 Calling FoFJK, ICntrl=    100127 FMM=F ISym2X=0 I1Cent= 0 IOpClX= 0 NMat=1 NMatS=1 NMatT=0.
 Full mass-weighted force constant matrix:
 Low frequencies ---  -18.6089   -6.6581   -4.7256   -0.0006   -0.0005    0.0004
 Low frequencies ---    5.7705  207.9270  343.6368
 ******    1 imaginary frequencies (negative Signs) ****** 
 Diagonal vibrational polarizability:
        0.7269657      41.7630329       7.0105734
 Harmonic frequencies (cm**-1), IR intensities (KM/Mole), Raman scattering
 activities (A**4/AMU), depolarization ratios for plane and unpolarized
 incident light, reduced masses (AMU), force constants (mDyne/A),
 and normal coordinates:
                      1                      2                      3
                      A                      A                      A
 Frequencies --    -12.6549               207.9267               343.6367
 Red. masses --      1.0349                 3.0073                 2.5036
 Frc consts  --      0.0001                 0.0766                 0.1742
 IR Inten    --      0.2452                 2.3753                 0.3753
  Atom  AN      X      Y      Z        X      Y      Z        X      Y      Z
     1   6     0.00   0.01   0.00     0.01  -0.00   0.21    -0.00   0.23   0.00
     2   6    -0.00  -0.01  -0.00     0.00   0.00  -0.15    -0.00  -0.15  -0.00
     3   6     0.00  -0.00  -0.02    -0.00  -0.00  -0.19     0.06  -0.13   0.01
     4   6     0.00   0.00  -0.02    -0.00  -0.00   0.01     0.08   0.01  -0.01
     5   6    -0.00  -0.00   0.00    -0.00   0.00   0.20     0.00   0.07   0.00
     6   6    -0.00   0.00   0.02    -0.00   0.00   0.01    -0.08   0.01   0.01
     7   6    -0.00  -0.00   0.02    -0.00   0.00  -0.19    -0.06  -0.13  -0.01
     8   1     0.00   0.59   0.00     0.32  -0.00   0.33    -0.00   0.35  -0.00
     9   1     0.00  -0.27   0.50    -0.14  -0.00   0.34    -0.33   0.40  -0.03
    10   1    -0.00  -0.27  -0.50    -0.14   0.00   0.34     0.33   0.40   0.03
    11   1     0.00  -0.00  -0.04    -0.00   0.00  -0.25     0.15  -0.18   0.02
    12   1     0.01   0.00  -0.04    -0.00   0.00   0.07     0.17   0.06  -0.02
    13   1    -0.00   0.00   0.00    -0.01  -0.00   0.45     0.00   0.14   0.00
    14   1    -0.01   0.00   0.04    -0.00  -0.00   0.07    -0.17   0.06   0.02
    15   1    -0.00  -0.00   0.04    -0.00  -0.00  -0.25    -0.15  -0.18  -0.02
                      4                      5                      6
                      A                      A                      A
 Frequencies --    412.8019               475.4393               528.3958
 Red. masses --      2.9076                 2.7049                 5.0164
 Frc consts  --      0.2919                 0.3602                 0.8252
 IR Inten    --      0.0075                 9.7090                 0.5709
  Atom  AN      X      Y      Z        X      Y      Z        X      Y      Z
     1   6     0.00  -0.01   0.00    -0.03  -0.00  -0.01     0.37   0.00  -0.01
     2   6     0.00   0.01   0.00    -0.01   0.00   0.28     0.22  -0.00   0.04
     3   6    -0.00   0.01   0.21     0.01   0.01  -0.04    -0.05  -0.13   0.00
     4   6    -0.00  -0.00  -0.21     0.01   0.01  -0.13    -0.11  -0.12  -0.02
     5   6    -0.00  -0.00   0.00     0.02  -0.00   0.19    -0.29   0.00   0.02
     6   6     0.00  -0.00   0.21     0.01  -0.01  -0.13    -0.11   0.12  -0.02
     7   6     0.00   0.01  -0.21     0.01  -0.01  -0.04    -0.05   0.13   0.00
     8   1     0.00  -0.02   0.00    -0.36   0.00  -0.14     0.33   0.00  -0.02
     9   1     0.01  -0.02  -0.00     0.13   0.01  -0.15     0.39   0.00  -0.02
    10   1    -0.01  -0.02   0.00     0.13  -0.01  -0.15     0.39  -0.00  -0.02
    11   1    -0.01   0.01   0.45     0.02   0.00  -0.32    -0.24  -0.02  -0.05
    12   1    -0.01  -0.00  -0.45     0.00   0.00  -0.40     0.05  -0.03  -0.07
    13   1    -0.00  -0.01   0.00     0.02  -0.00   0.32    -0.30   0.00   0.02
    14   1     0.01  -0.00   0.45     0.00  -0.00  -0.40     0.05   0.03  -0.07
    15   1     0.01   0.01  -0.45     0.02  -0.00  -0.32    -0.24   0.02  -0.05
                      7                      8                      9
                      A                      A                      A
 Frequencies --    636.7914               710.6561               744.5136
 Red. masses --      6.3682                 1.9757                 1.5122
 Frc consts  --      1.5215                 0.5879                 0.4939
 IR Inten    --      0.0981                32.3868                48.8486
  Atom  AN      X      Y      Z        X      Y      Z        X      Y      Z
     1   6     0.00   0.05   0.00     0.00  -0.00  -0.02    -0.01  -0.00   0.03
     2   6     0.00   0.14  -0.00     0.00   0.00  -0.11     0.01  -0.00   0.12
     3   6     0.24   0.20   0.00    -0.00  -0.00   0.09     0.00  -0.01  -0.09
     4   6     0.26  -0.24   0.00     0.00   0.00  -0.16     0.00  -0.01   0.00
     5   6    -0.00  -0.14  -0.00    -0.00  -0.00   0.10    -0.01  -0.00  -0.11
     6   6    -0.26  -0.24  -0.00     0.00  -0.00  -0.16     0.00   0.01   0.00
     7   6    -0.24   0.20  -0.00    -0.00   0.00   0.09     0.00   0.01  -0.09
     8   1    -0.00   0.06  -0.00     0.09   0.00   0.02    -0.26   0.00  -0.07
     9   1    -0.02   0.07  -0.01    -0.04   0.00   0.01     0.10   0.01  -0.09
    10   1     0.02   0.07   0.01    -0.04  -0.00   0.01     0.10  -0.01  -0.09
    11   1     0.10   0.28  -0.00    -0.00  -0.00   0.52    -0.01  -0.00   0.15
    12   1     0.12  -0.32   0.00    -0.00  -0.00   0.10     0.01  -0.01   0.54
    13   1    -0.00   0.30   0.00    -0.00  -0.00   0.59    -0.01  -0.00   0.46
    14   1    -0.12  -0.32  -0.00    -0.00   0.00   0.10     0.01   0.01   0.54
    15   1    -0.10   0.28   0.00    -0.00   0.00   0.52    -0.01   0.00   0.15
                     10                     11                     12
                      A                      A                      A
 Frequencies --    797.8113               853.8235               909.6071
 Red. masses --      4.5138                 1.2495                 1.3099
 Frc consts  --      1.6927                 0.5367                 0.6386
 IR Inten    --      0.8563                 0.0253                 0.7787
  Atom  AN      X      Y      Z        X      Y      Z        X      Y      Z
     1   6     0.28   0.00  -0.01    -0.00  -0.01  -0.00    -0.00   0.00  -0.03
     2   6    -0.06   0.00   0.03     0.00  -0.00   0.00    -0.00   0.00  -0.02
     3   6    -0.08   0.18  -0.01     0.00   0.00  -0.08    -0.00  -0.01   0.09
     4   6    -0.13   0.22  -0.00     0.00   0.00  -0.07     0.00  -0.00  -0.01
     5   6     0.17   0.00  -0.02    -0.00  -0.00   0.00     0.00   0.00  -0.10
     6   6    -0.13  -0.22  -0.00    -0.00   0.00   0.07     0.00   0.00  -0.01
     7   6    -0.08  -0.18  -0.01    -0.00   0.00   0.08    -0.00   0.01   0.09
     8   1     0.29  -0.00  -0.00    -0.00   0.01   0.00     0.21   0.00   0.05
     9   1     0.31  -0.01  -0.00    -0.01   0.01  -0.00    -0.10  -0.02   0.08
    10   1     0.31   0.01  -0.00     0.01   0.01   0.00    -0.10   0.02   0.08
    11   1     0.01   0.14  -0.00    -0.01  -0.00   0.51     0.01  -0.00  -0.52
    12   1    -0.40   0.07   0.07    -0.01  -0.00   0.48     0.01  -0.00   0.07
    13   1     0.16   0.00   0.09    -0.00  -0.00   0.00    -0.00  -0.00   0.59
    14   1    -0.40  -0.07   0.07     0.01  -0.00  -0.48     0.01   0.00   0.07
    15   1     0.01  -0.14  -0.00     0.01  -0.00  -0.51     0.01   0.00  -0.52
                     13                     14                     15
                      A                      A                      A
 Frequencies --    976.0206               993.8178               999.7407
 Red. masses --      1.3675                 1.2756                 1.4360
 Frc consts  --      0.7675                 0.7423                 0.8456
 IR Inten    --      0.0004                 0.0464                 0.1525
  Atom  AN      X      Y      Z        X      Y      Z        X      Y      Z
     1   6     0.00   0.01   0.00     0.00  -0.00   0.01    -0.00   0.14  -0.00
     2   6    -0.00   0.00  -0.00     0.00  -0.00  -0.01    -0.00   0.06   0.00
     3   6    -0.00  -0.00   0.09     0.00   0.00  -0.03    -0.02  -0.07  -0.00
     4   6     0.00  -0.00  -0.09    -0.00   0.00   0.08     0.03  -0.03   0.00
     5   6     0.00   0.00   0.00    -0.00  -0.00  -0.09     0.00   0.04  -0.00
     6   6    -0.00  -0.00   0.09    -0.00  -0.00   0.08    -0.03  -0.03  -0.00
     7   6     0.00  -0.00  -0.09     0.00  -0.00  -0.03     0.02  -0.07   0.00
     8   1    -0.00  -0.02  -0.00    -0.06  -0.00  -0.01     0.00  -0.28  -0.00
     9   1     0.02  -0.01   0.00     0.03   0.01  -0.03     0.61  -0.17   0.06
    10   1    -0.02  -0.01  -0.00     0.03  -0.01  -0.03    -0.61  -0.17  -0.06
    11   1     0.00  -0.00  -0.48    -0.00   0.00   0.25    -0.04  -0.06   0.03
    12   1    -0.00  -0.00   0.51     0.00   0.00  -0.51     0.14   0.03  -0.01
    13   1     0.00   0.00  -0.00    -0.01  -0.00   0.56     0.00   0.18   0.00
    14   1     0.00  -0.00  -0.51     0.00  -0.00  -0.51    -0.14   0.03   0.01
    15   1    -0.00  -0.00   0.48    -0.00  -0.00   0.25     0.04  -0.06  -0.03
                     16                     17                     18
                      A                      A                      A
 Frequencies --   1017.1138              1049.9678              1062.3679
 Red. masses --      6.1984                 2.2206                 1.5610
 Frc consts  --      3.7781                 1.4423                 1.0380
 IR Inten    --      0.0805                 3.6620                 8.3368
  Atom  AN      X      Y      Z        X      Y      Z        X      Y      Z
     1   6     0.02  -0.00  -0.02    -0.02  -0.00  -0.01    -0.01   0.00  -0.15
     2   6     0.02  -0.00   0.03     0.03  -0.00   0.01    -0.00   0.00   0.15
     3   6    -0.20  -0.34  -0.01     0.05  -0.08  -0.00     0.01   0.02  -0.04
     4   6    -0.02   0.04   0.01    -0.03   0.19   0.00     0.01  -0.01   0.00
     5   6     0.39  -0.00   0.00    -0.13  -0.00  -0.00    -0.01  -0.00   0.00
     6   6    -0.02  -0.04   0.01    -0.03  -0.19   0.00     0.01   0.01   0.00
     7   6    -0.20   0.34  -0.01     0.05   0.08  -0.00     0.01  -0.02  -0.04
     8   1     0.11   0.00   0.01     0.02   0.00   0.01     0.70   0.00   0.12
     9   1    -0.04  -0.00   0.04    -0.05  -0.01   0.02    -0.33  -0.09   0.28
    10   1    -0.04   0.00   0.04    -0.05   0.01   0.02    -0.33   0.09   0.28
    11   1    -0.18  -0.37   0.06     0.35  -0.24   0.01    -0.01   0.02   0.17
    12   1    -0.02   0.02  -0.02     0.31   0.39   0.00    -0.01  -0.02   0.00
    13   1     0.41  -0.00   0.01    -0.15  -0.00  -0.01    -0.01  -0.00  -0.02
    14   1    -0.02  -0.02  -0.02     0.31  -0.39   0.00    -0.01   0.02   0.00
    15   1    -0.18   0.37   0.06     0.35   0.24   0.01    -0.01  -0.02   0.17
                     19                     20                     21
                      A                      A                      A
 Frequencies --   1110.3183              1180.6791              1202.7252
 Red. masses --      1.4657                 1.1104                 1.1420
 Frc consts  --      1.0646                 0.9120                 0.9733
 IR Inten    --      6.3017                 0.0525                 0.4224
  Atom  AN      X      Y      Z        X      Y      Z        X      Y      Z
     1   6    -0.00  -0.06  -0.00     0.00  -0.00   0.00     0.01  -0.00  -0.00
     2   6     0.00   0.03   0.00    -0.00  -0.00  -0.00    -0.01   0.00   0.00
     3   6    -0.10  -0.02   0.00     0.01  -0.01  -0.00    -0.05   0.03  -0.00
     4   6     0.05  -0.05   0.00    -0.04  -0.02  -0.00     0.05   0.02   0.00
     5   6     0.00   0.07   0.00    -0.00   0.07   0.00     0.01   0.00  -0.00
     6   6    -0.05  -0.05  -0.00     0.04  -0.02   0.00     0.05  -0.02   0.00
     7   6     0.10  -0.02  -0.00    -0.01  -0.01   0.00    -0.05  -0.03  -0.00
     8   1    -0.00   0.10   0.00    -0.00   0.01   0.00     0.01   0.00   0.00
     9   1    -0.19   0.05  -0.03    -0.01   0.00   0.00     0.00   0.00  -0.00
    10   1     0.19   0.05   0.03     0.01   0.00  -0.00     0.00  -0.00  -0.00
    11   1    -0.46   0.18  -0.01     0.14  -0.09   0.00    -0.43   0.24  -0.00
    12   1     0.23   0.05   0.00    -0.42  -0.24  -0.00     0.44   0.25   0.01
    13   1     0.00   0.52  -0.00    -0.00   0.68  -0.00     0.01   0.00   0.00
    14   1    -0.23   0.05  -0.00     0.42  -0.24   0.00     0.44  -0.25   0.01
    15   1     0.46   0.18   0.01    -0.14  -0.09  -0.00    -0.43  -0.24  -0.00
                     22                     23                     24
                      A                      A                      A
 Frequencies --   1226.9655              1328.6381              1355.3313
 Red. masses --      2.9969                 4.9206                 1.4041
 Frc consts  --      2.6582                 5.1178                 1.5196
 IR Inten    --      1.0183                 0.0420                 0.0014
  Atom  AN      X      Y      Z        X      Y      Z        X      Y      Z
     1   6    -0.14   0.00   0.00    -0.00  -0.08   0.00     0.00  -0.03  -0.00
     2   6     0.36  -0.00  -0.00     0.00   0.34   0.00    -0.00   0.06   0.00
     3   6     0.05  -0.00   0.00     0.16  -0.12  -0.00    -0.10   0.03  -0.00
     4   6    -0.09   0.08  -0.00    -0.20  -0.13  -0.00     0.01  -0.01   0.00
     5   6     0.03  -0.00   0.00    -0.00   0.20   0.00     0.00  -0.10  -0.00
     6   6    -0.09  -0.08  -0.00     0.20  -0.13   0.00    -0.01  -0.01  -0.00
     7   6     0.05   0.00   0.00    -0.16  -0.12   0.00     0.10   0.03   0.00
     8   1    -0.21   0.00  -0.02    -0.00   0.28   0.00    -0.00   0.09   0.00
     9   1    -0.27   0.05   0.00    -0.20   0.07  -0.09    -0.05   0.02  -0.04
    10   1    -0.27  -0.05   0.00     0.20   0.07   0.09     0.05   0.02   0.04
    11   1    -0.38   0.26  -0.01     0.13  -0.10  -0.00     0.48  -0.30   0.00
    12   1    -0.31  -0.04  -0.00     0.38   0.20   0.01     0.28   0.14   0.00
    13   1     0.02   0.00  -0.00    -0.00  -0.18  -0.00     0.00   0.33   0.00
    14   1    -0.31   0.04  -0.00    -0.38   0.20  -0.01    -0.28   0.14  -0.00
    15   1    -0.38  -0.26  -0.01    -0.13  -0.10   0.00    -0.48  -0.30  -0.00
                     25                     26                     27
                      A                      A                      A
 Frequencies --   1413.2655              1467.9976              1490.3967
 Red. masses --      1.2462                 1.5908                 1.0495
 Frc consts  --      1.4665                 2.0199                 1.3736
 IR Inten    --      1.1934                 0.0133                 7.2472
  Atom  AN      X      Y      Z        X      Y      Z        X      Y      Z
     1   6    -0.14  -0.00   0.01     0.00  -0.06  -0.00    -0.02  -0.00  -0.05
     2   6     0.02  -0.00   0.00    -0.00   0.10   0.00     0.01  -0.00  -0.02
     3   6     0.00  -0.00  -0.00    -0.06  -0.04   0.00     0.01  -0.00   0.00
     4   6    -0.00   0.00  -0.00     0.11   0.01   0.00    -0.00   0.00  -0.00
     5   6     0.00  -0.00  -0.00     0.00   0.07   0.00     0.00  -0.00  -0.00
     6   6    -0.00  -0.00  -0.00    -0.11   0.01  -0.00    -0.00  -0.00  -0.00
     7   6     0.00   0.00  -0.00     0.06  -0.04  -0.00     0.01   0.00   0.00
     8   1     0.56   0.00   0.25     0.00   0.54   0.00    -0.30   0.00  -0.13
     9   1     0.48  -0.14  -0.21     0.15   0.05  -0.29     0.25  -0.40   0.46
    10   1     0.48   0.14  -0.21    -0.15   0.05   0.29     0.25   0.40   0.46
    11   1    -0.02   0.01  -0.00     0.06  -0.12  -0.01    -0.02   0.01  -0.00
    12   1    -0.01  -0.00   0.00    -0.25  -0.21  -0.00    -0.00   0.00  -0.00
    13   1     0.00  -0.00  -0.00    -0.00  -0.44  -0.00     0.00   0.00   0.00
    14   1    -0.01   0.00   0.00     0.25  -0.21   0.00    -0.00  -0.00  -0.00
    15   1    -0.02  -0.01  -0.00    -0.06  -0.12   0.01    -0.02  -0.01  -0.00
                     28                     29                     30
                      A                      A                      A
 Frequencies --   1501.7081              1526.8735              1623.4342
 Red. masses --      1.2881                 2.2553                 5.2836
 Frc consts  --      1.7114                 3.0978                 8.2045
 IR Inten    --     13.2668                13.5543                 0.2546
  Atom  AN      X      Y      Z        X      Y      Z        X      Y      Z
     1   6     0.00  -0.03   0.00    -0.03  -0.00  -0.00     0.00   0.02  -0.00
     2   6    -0.00  -0.08   0.00     0.15  -0.00  -0.00    -0.00  -0.30   0.00
     3   6     0.05   0.01   0.00    -0.07   0.10  -0.00    -0.09   0.18   0.00
     4   6    -0.06   0.02  -0.00    -0.12  -0.11  -0.00    -0.07  -0.20  -0.00
     5   6    -0.00  -0.08   0.00     0.11   0.00   0.00    -0.00   0.35  -0.00
     6   6     0.06   0.02   0.00    -0.12   0.11  -0.00     0.07  -0.20   0.00
     7   6    -0.05   0.01  -0.00    -0.07  -0.10  -0.00     0.09   0.18  -0.00
     8   1     0.00   0.61   0.00    -0.04   0.00  -0.01     0.00   0.14   0.00
     9   1     0.32   0.04  -0.34    -0.03  -0.01   0.01     0.19  -0.01  -0.09
    10   1    -0.32   0.04   0.34    -0.03   0.01   0.01    -0.19  -0.01   0.09
    11   1    -0.09   0.11  -0.01     0.41  -0.16   0.00     0.29  -0.02   0.00
    12   1     0.09   0.12   0.00     0.44   0.20   0.00     0.24  -0.04   0.00
    13   1    -0.00   0.30  -0.00     0.13  -0.00   0.00    -0.00  -0.46   0.00
    14   1    -0.09   0.12  -0.00     0.44  -0.20   0.00    -0.24  -0.04  -0.00
    15   1     0.09   0.11   0.01     0.41   0.16   0.00    -0.29  -0.02  -0.00
                     31                     32                     33
                      A                      A                      A
 Frequencies --   1644.6773              3021.3741              3075.1508
 Red. masses --      5.6238                 1.0397                 1.0955
 Frc consts  --      8.9627                 5.5918                 6.1040
 IR Inten    --      9.0660                29.3201                19.1662
  Atom  AN      X      Y      Z        X      Y      Z        X      Y      Z
     1   6     0.03   0.00   0.00     0.05  -0.00  -0.03    -0.02   0.00  -0.09
     2   6    -0.23  -0.00   0.00    -0.00  -0.00  -0.00     0.00   0.00  -0.00
     3   6     0.30  -0.09   0.00    -0.00  -0.00   0.00     0.00   0.00   0.00
     4   6    -0.27  -0.07  -0.00     0.00  -0.00  -0.00     0.00   0.00   0.00
     5   6     0.14   0.00   0.00     0.00  -0.00  -0.00    -0.00  -0.00  -0.00
     6   6    -0.27   0.07  -0.00     0.00   0.00  -0.00     0.00  -0.00   0.00
     7   6     0.30   0.09   0.00    -0.00   0.00   0.00     0.00  -0.00   0.00
     8   1     0.06   0.00   0.02    -0.25  -0.00   0.73    -0.22  -0.00   0.58
     9   1     0.02   0.02  -0.03    -0.15  -0.36  -0.21     0.20   0.46   0.24
    10   1     0.02  -0.02  -0.03    -0.15   0.36  -0.21     0.20  -0.46   0.24
    11   1    -0.31   0.26   0.00     0.01   0.01   0.00    -0.01  -0.01  -0.00
    12   1     0.24   0.23   0.00     0.00   0.00   0.00    -0.00   0.00  -0.00
    13   1     0.15  -0.00   0.00    -0.00  -0.00   0.00    -0.00  -0.00  -0.00
    14   1     0.24  -0.23   0.00     0.00  -0.00   0.00    -0.00  -0.00  -0.00
    15   1    -0.31  -0.26   0.00     0.01  -0.01   0.00    -0.01   0.01  -0.00
                     34                     35                     36
                      A                      A                      A
 Frequencies --   3099.5265              3152.1999              3153.9244
 Red. masses --      1.1022                 1.0859                 1.0876
 Frc consts  --      6.2390                 6.3570                 6.3743
 IR Inten    --     16.7578                 8.4900                 5.6717
  Atom  AN      X      Y      Z        X      Y      Z        X      Y      Z
     1   6    -0.00  -0.09  -0.00    -0.00  -0.00  -0.00     0.00  -0.00   0.00
     2   6     0.00  -0.00  -0.00    -0.00   0.00  -0.00     0.00   0.00   0.00
     3   6     0.00   0.00   0.00    -0.02  -0.04  -0.00    -0.03  -0.05  -0.00
     4   6    -0.00  -0.00   0.00    -0.02   0.03   0.00    -0.01   0.02   0.00
     5   6     0.00   0.00  -0.00     0.02  -0.00   0.00    -0.00  -0.00  -0.00
     6   6     0.00  -0.00  -0.00    -0.02  -0.03   0.00     0.01   0.02  -0.00
     7   6    -0.00   0.00  -0.00    -0.02   0.04  -0.00     0.03  -0.05   0.00
     8   1    -0.00  -0.02   0.00     0.00  -0.00   0.00     0.00  -0.00  -0.00
     9   1     0.26   0.57   0.33     0.01   0.01   0.01     0.01   0.02   0.01
    10   1    -0.26   0.57  -0.33     0.01  -0.01   0.01    -0.01   0.02  -0.01
    11   1    -0.02  -0.02  -0.00     0.26   0.47   0.00     0.32   0.55   0.01
    12   1    -0.00   0.00  -0.00     0.20  -0.35  -0.00     0.15  -0.26  -0.00
    13   1    -0.00   0.00  -0.00    -0.30   0.00  -0.00     0.00   0.00   0.00
    14   1     0.00   0.00   0.00     0.20   0.35  -0.00    -0.15  -0.26   0.00
    15   1     0.02  -0.02   0.00     0.26  -0.47   0.00    -0.32   0.55  -0.01
                     37                     38                     39
                      A                      A                      A
 Frequencies --   3166.2598              3174.6388              3186.9503
 Red. masses --      1.0900                 1.0938                 1.0979
 Frc consts  --      6.4380                 6.4952                 6.5702
 IR Inten    --      7.5873                36.1170                13.8627
  Atom  AN      X      Y      Z        X      Y      Z        X      Y      Z
     1   6    -0.00   0.00  -0.00     0.00  -0.00  -0.00     0.00  -0.00   0.00
     2   6    -0.00   0.00  -0.00     0.00   0.00  -0.00     0.00   0.00   0.00
     3   6    -0.02  -0.03  -0.00    -0.02  -0.02  -0.00     0.01   0.01   0.00
     4   6     0.02  -0.02   0.00     0.03  -0.05   0.00    -0.02   0.04   0.00
     5   6    -0.06   0.00  -0.00     0.00   0.00   0.00    -0.06   0.00  -0.00
     6   6     0.02   0.02   0.00    -0.03  -0.05  -0.00    -0.02  -0.04   0.00
     7   6    -0.02   0.03  -0.00     0.02  -0.02   0.00     0.01  -0.01   0.00
     8   1     0.00  -0.00   0.00     0.00  -0.00  -0.00    -0.00  -0.00   0.00
     9   1     0.01   0.01   0.00     0.00   0.01   0.00    -0.00  -0.00  -0.00
    10   1     0.01  -0.01   0.00    -0.00   0.01  -0.00    -0.00   0.00  -0.00
    11   1     0.21   0.37   0.00     0.15   0.26   0.00    -0.09  -0.15  -0.00
    12   1    -0.16   0.28   0.00    -0.32   0.55   0.00     0.23  -0.42  -0.00
    13   1     0.65  -0.00   0.00    -0.00  -0.01  -0.00     0.69  -0.00   0.00
    14   1    -0.16  -0.28   0.00     0.32   0.55  -0.00     0.23   0.42  -0.00
    15   1     0.21  -0.37   0.00    -0.15   0.26  -0.00    -0.09   0.15  -0.00

 -------------------
 - Thermochemistry -
 -------------------
 Temperature   298.150 Kelvin.  Pressure   1.00000 Atm.
 Atom     1 has atomic number  6 and mass  12.00000
 Atom     2 has atomic number  6 and mass  12.00000
 Atom     3 has atomic number  6 and mass  12.00000
 Atom     4 has atomic number  6 and mass  12.00000
 Atom     5 has atomic number  6 and mass  12.00000
 Atom     6 has atomic number  6 and mass  12.00000
 Atom     7 has atomic number  6 and mass  12.00000
 Atom     8 has atomic number  1 and mass   1.00783
 Atom     9 has atomic number  1 and mass   1.00783
 Atom    10 has atomic number  1 and mass   1.00783
 Atom    11 has atomic number  1 and mass   1.00783
 Atom    12 has atomic number  1 and mass   1.00783
 Atom    13 has atomic number  1 and mass   1.00783
 Atom    14 has atomic number  1 and mass   1.00783
 Atom    15 has atomic number  1 and mass   1.00783
 Molecular mass:    92.06260 amu.
 Principal axes and moments of inertia in atomic units:
                           1         2         3
     Eigenvalues --   325.14189 717.763321031.68047
           X            1.00000   0.00000  -0.00036
           Y           -0.00000   1.00000   0.00000
           Z            0.00036  -0.00000   1.00000
 This molecule is an asymmetric top.
 Rotational symmetry number  1.
 Rotational temperatures (Kelvin)      0.26639     0.12067     0.08395
 Rotational constants (GHZ):           5.55063     2.51440     1.74932
    1 imaginary frequencies ignored.
 Zero-point vibrational energy     333898.5 (Joules/Mol)
                                   79.80365 (Kcal/Mol)
 Warning -- explicit consideration of   5 degrees of freedom as
           vibrations may cause significant error
 Vibrational temperatures:    299.16   494.42   593.93   684.05   760.24
          (Kelvin)            916.20  1022.48  1071.19  1147.87  1228.46
                             1308.72  1404.28  1429.88  1438.40  1463.40
                             1510.67  1528.51  1597.50  1698.73  1730.45
                             1765.33  1911.61  1950.02  2033.37  2112.12
                             2144.35  2160.62  2196.83  2335.76  2366.32
                             4347.08  4424.46  4459.53  4535.31  4537.79
                             4555.54  4567.60  4585.31
 
 Zero-point correction=                           0.127175 (Hartree/Particle)
 Thermal correction to Energy=                    0.132543
 Thermal correction to Enthalpy=                  0.133487
 Thermal correction to Gibbs Free Energy=         0.098220
 Sum of electronic and zero-point Energies=           -271.511696
 Sum of electronic and thermal Energies=              -271.506328
 Sum of electronic and thermal Enthalpies=            -271.505384
 Sum of electronic and thermal Free Energies=         -271.540651
 
                     E (Thermal)             CV                S
                      KCal/Mol        Cal/Mol-Kelvin    Cal/Mol-Kelvin
 Total                   83.172             21.331             74.226
 Electronic               0.000              0.000              0.000
 Translational            0.889              2.981             39.471
 Rotational               0.889              2.981             26.979
 Vibrational             81.395             15.370              7.776
 Vibration     1          0.641              1.829              2.062
 Vibration     2          0.722              1.588              1.195
 Vibration     3          0.777              1.442              0.917
 Vibration     4          0.832              1.305              0.722
 Vibration     5          0.883              1.187              0.591
                       Q            Log10(Q)             Ln(Q)
 Total Bot       0.663573D-45        -45.178112       -104.026446
 Total V=0       0.208149D+14         13.318375         30.666692
 Vib (Bot)       0.108809D-57        -57.963336       -133.465513
 Vib (Bot)    1  0.956011D+00         -0.019537         -0.044986
 Vib (Bot)    2  0.539105D+00         -0.268326         -0.617844
 Vib (Bot)    3  0.427688D+00         -0.368873         -0.849362
 Vib (Bot)    4  0.353145D+00         -0.452047         -1.040876
 Vib (Bot)    5  0.303120D+00         -0.518385         -1.193625
 Vib (V=0)       0.341312D+01          0.533151          1.227626
 Vib (V=0)    1  0.157887D+01          0.198346          0.456709
 Vib (V=0)    2  0.123528D+01          0.091765          0.211297
 Vib (V=0)    3  0.115796D+01          0.063695          0.146663
 Vib (V=0)    4  0.111214D+01          0.046158          0.106283
 Vib (V=0)    5  0.108471D+01          0.035312          0.081310
 Electronic      0.100000D+01          0.000000          0.000000
 Translational   0.347199D+08          7.540579         17.362824
 Rotational      0.175649D+06          5.244645         12.076242
 ***** Axes restored to original set *****
 -------------------------------------------------------------------
 Center     Atomic                   Forces (Hartrees/Bohr)
 Number     Number              X              Y              Z
 -------------------------------------------------------------------
      1        6          -0.000427390   -0.000015384   -0.000336793
      2        6           0.000580445   -0.000021313    0.000063970
      3        6          -0.000155586    0.000083156   -0.000044064
      4        6           0.000044302   -0.000083908    0.000039154
      5        6          -0.000045062   -0.000001422   -0.000033662
      6        6           0.000052536    0.000085655    0.000020971
      7        6          -0.000163281   -0.000075307   -0.000027070
      8        1           0.000079313    0.000010217    0.000131143
      9        1          -0.000007179    0.000064382    0.000083131
     10        1          -0.000012460   -0.000044340    0.000094792
     11        1           0.000056428    0.000032389   -0.000001077
     12        1          -0.000015877    0.000039097   -0.000006089
     13        1          -0.000019633    0.000001710    0.000007057
     14        1          -0.000019609   -0.000037797    0.000002157
     15        1           0.000053053   -0.000037135    0.000006379
 -------------------------------------------------------------------
 Cartesian Forces:  Max     0.000580445 RMS     0.000132204
 FormGI is forming the generalized inverse of G from B-inverse, IUseBI=4.

 GradGradGradGradGradGradGradGradGradGradGradGradGradGradGradGradGradGrad
 Berny optimization.
 Internal  Forces:  Max     0.000368190 RMS     0.000058633
 Search for a local minimum.
 Step number   1 out of a maximum of    2
 All quantities printed in internal units (Hartrees-Bohrs-Radians)
 Second derivative matrix not updated -- analytic derivatives used.
 ITU=  0
     Eigenvalues ---    0.00004   0.01607   0.01703   0.01736   0.02065
     Eigenvalues ---    0.02321   0.02411   0.02601   0.02772   0.02870
     Eigenvalues ---    0.05676   0.05859   0.10806   0.11361   0.11775
     Eigenvalues ---    0.12058   0.12215   0.12677   0.14018   0.14495
     Eigenvalues ---    0.18359   0.19375   0.19470   0.19890   0.28394
     Eigenvalues ---    0.30926   0.32820   0.33469   0.34232   0.35067
     Eigenvalues ---    0.35392   0.35479   0.35484   0.35724   0.40817
     Eigenvalues ---    0.41209   0.46155   0.46342   0.50369
 Angle between quadratic step and forces=  42.10 degrees.
 Linear search not attempted -- first point.
 Iteration  1 RMS(Cart)=  0.00034076 RMS(Int)=  0.00000019
 Iteration  2 RMS(Cart)=  0.00000016 RMS(Int)=  0.00000010
 Variable       Old X    -DE/DX   Delta X   Delta X   Delta X     New X
                                 (Linear)    (Quad)   (Total)
    R1        2.85520  -0.00037   0.00000  -0.00146  -0.00146   2.85374
    R2        2.06990   0.00015   0.00000   0.00060   0.00060   2.07050
    R3        2.06465  -0.00000   0.00000  -0.00002  -0.00002   2.06463
    R4        2.06465  -0.00000   0.00000  -0.00002  -0.00002   2.06463
    R5        2.64408   0.00012   0.00000   0.00037   0.00037   2.64445
    R6        2.64408   0.00012   0.00000   0.00037   0.00037   2.64445
    R7        2.63399   0.00000   0.00000  -0.00007  -0.00007   2.63392
    R8        2.05133   0.00006   0.00000   0.00017   0.00017   2.05151
    R9        2.63394   0.00001   0.00000  -0.00000  -0.00000   2.63394
   R10        2.04945   0.00004   0.00000   0.00013   0.00013   2.04958
   R11        2.63394   0.00001   0.00000  -0.00000  -0.00000   2.63394
   R12        2.04872   0.00002   0.00000   0.00004   0.00004   2.04875
   R13        2.63399   0.00000   0.00000  -0.00007  -0.00007   2.63392
   R14        2.04945   0.00004   0.00000   0.00013   0.00013   2.04958
   R15        2.05133   0.00006   0.00000   0.00017   0.00017   2.05151
    A1        1.93715   0.00001   0.00000  -0.00012  -0.00012   1.93703
    A2        1.94419  -0.00000   0.00000   0.00035   0.00035   1.94453
    A3        1.94419  -0.00000   0.00000   0.00035   0.00035   1.94453
    A4        1.87499  -0.00004   0.00000  -0.00090  -0.00090   1.87409
    A5        1.87499  -0.00004   0.00000  -0.00090  -0.00090   1.87409
    A6        1.88522   0.00008   0.00000   0.00117   0.00117   1.88639
    A7        2.11007   0.00003   0.00000   0.00020   0.00020   2.11027
    A8        2.11007   0.00003   0.00000   0.00020   0.00020   2.11027
    A9        2.06286  -0.00006   0.00000  -0.00039  -0.00039   2.06247
   A10        2.11230   0.00000   0.00000   0.00012   0.00012   2.11242
   A11        2.08428  -0.00003   0.00000  -0.00033  -0.00033   2.08395
   A12        2.08660   0.00003   0.00000   0.00021   0.00021   2.08681
   A13        2.09731   0.00004   0.00000   0.00018   0.00018   2.09749
   A14        2.09033  -0.00002   0.00000  -0.00015  -0.00015   2.09019
   A15        2.09554  -0.00002   0.00000  -0.00003  -0.00003   2.09550
   A16        2.08427  -0.00002   0.00000  -0.00021  -0.00021   2.08406
   A17        2.09945   0.00001   0.00000   0.00011   0.00011   2.09956
   A18        2.09945   0.00001   0.00000   0.00011   0.00011   2.09956
   A19        2.09731   0.00004   0.00000   0.00018   0.00018   2.09749
   A20        2.09554  -0.00002   0.00000  -0.00003  -0.00003   2.09550
   A21        2.09033  -0.00002   0.00000  -0.00015  -0.00015   2.09019
   A22        2.11230   0.00000   0.00000   0.00012   0.00012   2.11242
   A23        2.08428  -0.00003   0.00000  -0.00033  -0.00033   2.08395
   A24        2.08660   0.00003   0.00000   0.00021   0.00021   2.08681
    D1        1.56057   0.00000   0.00000   0.00014   0.00014   1.56071
    D2       -1.56057  -0.00000   0.00000  -0.00014  -0.00014  -1.56071
    D3       -0.52791   0.00005   0.00000   0.00112   0.00113  -0.52678
    D4        2.63414   0.00005   0.00000   0.00085   0.00085   2.63499
    D5       -2.63414  -0.00005   0.00000  -0.00085  -0.00085  -2.63499
    D6        0.52790  -0.00005   0.00000  -0.00112  -0.00112   0.52678
    D7       -3.11672   0.00000   0.00000   0.00019   0.00019  -3.11653
    D8        0.02752  -0.00000   0.00000  -0.00015  -0.00015   0.02737
    D9        0.00496   0.00001   0.00000   0.00046   0.00046   0.00543
   D10       -3.13399   0.00000   0.00000   0.00013   0.00013  -3.13386
   D11        3.11672  -0.00000   0.00000  -0.00019  -0.00019   3.11653
   D12       -0.02752   0.00000   0.00000   0.00015   0.00015  -0.02737
   D13       -0.00496  -0.00001   0.00000  -0.00046  -0.00046  -0.00543
   D14        3.13399  -0.00000   0.00000  -0.00013  -0.00013   3.13386
   D15       -0.00178  -0.00001   0.00000  -0.00036  -0.00036  -0.00214
   D16       -3.13925  -0.00000   0.00000  -0.00013  -0.00013  -3.13938
   D17        3.13717  -0.00000   0.00000  -0.00003  -0.00003   3.13714
   D18       -0.00031   0.00000   0.00000   0.00021   0.00021  -0.00010
   D19       -0.00153   0.00001   0.00000   0.00024   0.00024  -0.00129
   D20       -3.13832  -0.00000   0.00000  -0.00007  -0.00007  -3.13839
   D21        3.13594   0.00000   0.00000   0.00001   0.00001   3.13594
   D22       -0.00086  -0.00001   0.00000  -0.00031  -0.00031  -0.00116
   D23        0.00153  -0.00001   0.00000  -0.00024  -0.00024   0.00129
   D24       -3.13594  -0.00000   0.00000  -0.00001  -0.00001  -3.13594
   D25        3.13832   0.00000   0.00000   0.00007   0.00007   3.13839
   D26        0.00086   0.00001   0.00000   0.00031   0.00031   0.00116
   D27        0.00178   0.00001   0.00000   0.00036   0.00036   0.00214
   D28       -3.13717   0.00000   0.00000   0.00003   0.00003  -3.13714
   D29        3.13925   0.00000   0.00000   0.00013   0.00013   3.13938
   D30        0.00031  -0.00000   0.00000  -0.00021  -0.00021   0.00010
         Item               Value     Threshold  Converged?
 Maximum Force            0.000368     0.000450     YES
 RMS     Force            0.000059     0.000300     YES
 Maximum Displacement     0.001144     0.001800     YES
 RMS     Displacement     0.000341     0.001200     YES
 Predicted change in Energy=-6.290216D-07
 Optimization completed.
    -- Stationary point found.
                           ----------------------------
                           !   Optimized Parameters   !
                           ! (Angstroms and Degrees)  !
 --------------------------                            --------------------------
 ! Name  Definition              Value          Derivative Info.                !
 --------------------------------------------------------------------------------
 ! R1    R(1,2)                  1.5109         -DE/DX =   -0.0004              !
 ! R2    R(1,8)                  1.0953         -DE/DX =    0.0002              !
 ! R3    R(1,9)                  1.0926         -DE/DX =    0.0                 !
 ! R4    R(1,10)                 1.0926         -DE/DX =    0.0                 !
 ! R5    R(2,3)                  1.3992         -DE/DX =    0.0001              !
 ! R6    R(2,7)                  1.3992         -DE/DX =    0.0001              !
 ! R7    R(3,4)                  1.3938         -DE/DX =    0.0                 !
 ! R8    R(3,11)                 1.0855         -DE/DX =    0.0001              !
 ! R9    R(4,5)                  1.3938         -DE/DX =    0.0                 !
 ! R10   R(4,12)                 1.0845         -DE/DX =    0.0                 !
 ! R11   R(5,6)                  1.3938         -DE/DX =    0.0                 !
 ! R12   R(5,13)                 1.0841         -DE/DX =    0.0                 !
 ! R13   R(6,7)                  1.3938         -DE/DX =    0.0                 !
 ! R14   R(6,14)                 1.0845         -DE/DX =    0.0                 !
 ! R15   R(7,15)                 1.0855         -DE/DX =    0.0001              !
 ! A1    A(2,1,8)              110.9904         -DE/DX =    0.0                 !
 ! A2    A(2,1,9)              111.3937         -DE/DX =    0.0                 !
 ! A3    A(2,1,10)             111.3937         -DE/DX =    0.0                 !
 ! A4    A(8,1,9)              107.429          -DE/DX =    0.0                 !
 ! A5    A(8,1,10)             107.429          -DE/DX =    0.0                 !
 ! A6    A(9,1,10)             108.0152         -DE/DX =    0.0001              !
 ! A7    A(1,2,3)              120.8983         -DE/DX =    0.0                 !
 ! A8    A(1,2,7)              120.8983         -DE/DX =    0.0                 !
 ! A9    A(3,2,7)              118.1933         -DE/DX =   -0.0001              !
 ! A10   A(2,3,4)              121.026          -DE/DX =    0.0                 !
 ! A11   A(2,3,11)             119.4204         -DE/DX =    0.0                 !
 ! A12   A(4,3,11)             119.5534         -DE/DX =    0.0                 !
 ! A13   A(3,4,5)              120.1669         -DE/DX =    0.0                 !
 ! A14   A(3,4,12)             119.7673         -DE/DX =    0.0                 !
 ! A15   A(5,4,12)             120.0654         -DE/DX =    0.0                 !
 ! A16   A(4,5,6)              119.4201         -DE/DX =    0.0                 !
 ! A17   A(4,5,13)             120.2897         -DE/DX =    0.0                 !
 ! A18   A(6,5,13)             120.2897         -DE/DX =    0.0                 !
 ! A19   A(5,6,7)              120.1669         -DE/DX =    0.0                 !
 ! A20   A(5,6,14)             120.0654         -DE/DX =    0.0                 !
 ! A21   A(7,6,14)             119.7673         -DE/DX =    0.0                 !
 ! A22   A(2,7,6)              121.026          -DE/DX =    0.0                 !
 ! A23   A(2,7,15)             119.4204         -DE/DX =    0.0                 !
 ! A24   A(6,7,15)             119.5534         -DE/DX =    0.0                 !
 ! D1    D(8,1,2,3)             89.414          -DE/DX =    0.0                 !
 ! D2    D(8,1,2,7)            -89.4141         -DE/DX =    0.0                 !
 ! D3    D(9,1,2,3)            -30.2467         -DE/DX =    0.0001              !
 ! D4    D(9,1,2,7)            150.9251         -DE/DX =    0.0                 !
 ! D5    D(10,1,2,3)          -150.9252         -DE/DX =    0.0                 !
 ! D6    D(10,1,2,7)            30.2466         -DE/DX =   -0.0001              !
 ! D7    D(1,2,3,4)           -178.5747         -DE/DX =    0.0                 !
 ! D8    D(1,2,3,11)             1.5766         -DE/DX =    0.0                 !
 ! D9    D(7,2,3,4)              0.2844         -DE/DX =    0.0                 !
 ! D10   D(7,2,3,11)          -179.5642         -DE/DX =    0.0                 !
 ! D11   D(1,2,7,6)            178.5747         -DE/DX =    0.0                 !
 ! D12   D(1,2,7,15)            -1.5766         -DE/DX =    0.0                 !
 ! D13   D(3,2,7,6)             -0.2844         -DE/DX =    0.0                 !
 ! D14   D(3,2,7,15)           179.5642         -DE/DX =    0.0                 !
 ! D15   D(2,3,4,5)             -0.102          -DE/DX =    0.0                 !
 ! D16   D(2,3,4,12)          -179.866          -DE/DX =    0.0                 !
 ! D17   D(11,3,4,5)           179.7465         -DE/DX =    0.0                 !
 ! D18   D(11,3,4,12)           -0.0175         -DE/DX =    0.0                 !
 ! D19   D(3,4,5,6)             -0.0875         -DE/DX =    0.0                 !
 ! D20   D(3,4,5,13)          -179.8125         -DE/DX =    0.0                 !
 ! D21   D(12,4,5,6)           179.6759         -DE/DX =    0.0                 !
 ! D22   D(12,4,5,13)           -0.0491         -DE/DX =    0.0                 !
 ! D23   D(4,5,6,7)              0.0875         -DE/DX =    0.0                 !
 ! D24   D(4,5,6,14)          -179.6759         -DE/DX =    0.0                 !
 ! D25   D(13,5,6,7)           179.8125         -DE/DX =    0.0                 !
 ! D26   D(13,5,6,14)            0.0491         -DE/DX =    0.0                 !
 ! D27   D(5,6,7,2)              0.102          -DE/DX =    0.0                 !
 ! D28   D(5,6,7,15)          -179.7465         -DE/DX =    0.0                 !
 ! D29   D(14,6,7,2)           179.866          -DE/DX =    0.0                 !
 ! D30   D(14,6,7,15)            0.0175         -DE/DX =    0.0                 !
 --------------------------------------------------------------------------------
 GradGradGradGradGradGradGradGradGradGradGradGradGradGradGradGradGradGrad


 ----------------------------------------------------------------------

 Electric dipole moment (input orientation):
 (Debye = 10**-18 statcoulomb cm , SI units = C m)
                  (au)            (Debye)         (10**-30 SI)
   Tot        0.157964D+00      0.401504D+00      0.133927D+01
   x          0.157362D+00      0.399974D+00      0.133417D+01
   y         -0.632595D-02     -0.160790D-01     -0.536336D-01
   z          0.122371D-01      0.311037D-01      0.103751D+00

 Dipole polarizability, Alpha (input orientation).
 (esu units = cm**3 , SI units = C**2 m**2 J**-1)
 Alpha(0;0):
               (au)            (10**-24 esu)      (10**-40 SI)
   iso        0.799140D+02      0.118420D+02      0.131760D+02
   aniso      0.445365D+02      0.659963D+01      0.734308D+01
   xx         0.100699D+03      0.149220D+02      0.166030D+02
   yx        -0.630701D+00     -0.934602D-01     -0.103989D+00
   yy         0.874568D+02      0.129598D+02      0.144197D+02
   zx        -0.622803D-01     -0.922899D-02     -0.102686D-01
   zy        -0.388525D+01     -0.575734D+00     -0.640591D+00
   zz         0.515866D+02      0.764434D+01      0.850548D+01

 ----------------------------------------------------------------------

 Dipole orientation:
     6          0.33898494         -0.05026760          4.20222273
     6          0.13887034         -0.02059282          1.35419872
     6          0.35359140          2.24108564          0.00147924
     6          0.11439489          2.28227282         -2.62130540
     6         -0.34200088          0.05071475         -3.94399225
     6         -0.55281856         -2.21725963         -2.62130673
     6         -0.31196299         -2.24725855          0.00147794
     1         -1.51588408          0.22478325          5.07875054
     1          1.57546868          1.45514490          4.88605774
     1          1.08540401         -1.84971707          4.88605705
     1          0.71669237          3.98897640          1.01192505
     1          0.29185285          4.05662105         -3.63148211
     1         -0.52299362          0.07755387         -5.98452072
     1         -0.89789356         -3.96675216         -3.63148446
     1         -0.47170580         -4.02530488          1.01192270

 Electric dipole moment (dipole orientation):
 (Debye = 10**-18 statcoulomb cm , SI units = C m)
                  (au)            (Debye)         (10**-30 SI)
   Tot        0.157964D+00      0.401504D+00      0.133927D+01
   x          0.000000D+00      0.000000D+00      0.000000D+00
   y          0.000000D+00      0.000000D+00      0.000000D+00
   z          0.157964D+00      0.401504D+00      0.133927D+01

 Dipole polarizability, Alpha (dipole orientation).
 (esu units = cm**3 , SI units = C**2 m**2 J**-1)
 Alpha(0;0):
               (au)            (10**-24 esu)      (10**-40 SI)
   iso        0.799140D+02      0.118420D+02      0.131760D+02
   aniso      0.445365D+02      0.659963D+01      0.734308D+01
   xx         0.522346D+02      0.774038D+01      0.861233D+01
   yx         0.528016D+01      0.782440D+00      0.870581D+00
   yy         0.870599D+02      0.129009D+02      0.143542D+02
   zx         0.368377D+01      0.545879D+00      0.607372D+00
   zy        -0.546250D+00     -0.809459D-01     -0.900645D-01
   zz         0.100448D+03      0.148848D+02      0.165616D+02

 ----------------------------------------------------------------------
 Unable to Open any file for archive entry.
 1\1\GINC-CCC067\Freq\RB3LYP\6-311++G(d,p)\C7H8\ROOT\12-Jun-2024\0\\#N 
 Geom=AllCheck Guess=TCheck SCRF=Check GenChk RB3LYP/6-311++G(d,p) Freq
 \\CC1=CC=CC=C1\\0,1\C,2.2284271639,-0.1089720712,-0.0074977083\C,0.719
 2797653,-0.0368581293,-0.0181289976\C,0.0594637979,1.1910629294,-0.138
 8461776\C,-1.3323535097,1.2637209131,-0.1193974987\C,-2.092415336,0.10
 36768616,0.0196830548\C,-1.4483923757,-1.1268579425,0.1369778784\C,-0.
 056286521,-1.193571659,0.1168917107\H,2.6183876602,-0.0185563555,1.012
 0787022\H,2.6700771437,0.696207213,-0.5993880326\H,2.5848477689,-1.059
 6493166,-0.4110812651\H,0.6415495989,2.1003312522,-0.2517952681\H,-1.8
 226995589,2.22615253,-0.2167561593\H,-3.1751390615,0.1575547745,0.0320
 140975\H,-2.0296150804,-2.0366251154,0.2404014217\H,0.4348685545,-2.15
 76158997,0.2048442515\\Version=ES64L-G16RevC.02\State=1-A\HF=-271.6388
 712\RMSD=2.684e-09\RMSF=1.322e-04\ZeroPoint=0.1271752\Thermal=0.132543
 1\ETot=-271.5063281\HTot=-271.5053839\GTot=-271.540651\Dipole=0.157361
 9,-0.0063259,0.0122371\DipoleDeriv=-0.0272386,0.0069288,-0.0037245,-0.
 0048735,0.124045,0.0006866,-0.1137732,0.0060284,0.1284515,0.3825938,-0
 .0196857,0.0202782,-0.0140895,-0.0672399,-0.0014685,0.0724599,-0.00400
 14,-0.072281,-0.142202,0.0589446,-0.0116845,0.1317884,0.0467049,-0.016
 66,-0.0192502,-0.0200838,-0.1400151,0.0237679,-0.0335027,0.001887,-0.0
 412381,0.0804177,-0.0270399,-0.00156,-0.0265835,-0.131903,0.0378603,-0
 .0063942,-0.00467,-0.0065705,-0.0839929,-0.0070817,-0.0063144,-0.00700
 18,-0.1516992,0.0314505,0.0382074,-0.005416,0.0450334,0.0744622,-0.018
 4182,-0.010449,-0.018463,-0.13363,-0.1589282,-0.0401632,-0.0013752,-0.
 1129197,0.0625675,-0.0249406,0.0070044,-0.0215562,-0.1391516,-0.067597
 8,0.0035273,-0.0357414,-0.0021674,0.082288,-0.0172914,-0.0888411,-0.01
 47139,-0.0933725,-0.0141606,-0.0120868,0.0161845,-0.0834699,-0.0450705
 ,0.0879723,0.08013,0.0776812,0.018768,-0.0045115,0.0089004,0.006182,0.
 0922979,-0.0868681,-0.0672425,0.0542632,-0.0623891,0.0509165,0.0035262
 ,-0.0941268,0.0143924,-0.0821527,-0.0520927,0.0209732,0.0159564,0.0248
 766,0.1273783,0.022392,0.0719587,-0.0054545,0.078348,-0.0740969,0.0217
 457,-0.0048343,0.0238933,0.13337,-0.1140909,0.0092031,0.003564,0.00927
 14,0.0680042,0.0076633,0.0042006,0.0076324,0.1407017,0.0070435,-0.0795
 164,0.0108544,-0.0856516,-0.0591108,0.021458,0.0126037,0.0191954,0.133
 7323,0.0200953,0.0878056,-0.0052766,0.0763939,-0.0700177,0.0196436,-0.
 0015959,0.0154856,0.1287342\Polar=100.6986986,-0.630701,87.4567967,-0.
 0622803,-3.8852472,51.5865747\Quadrupole=2.047356,1.6924888,-3.7398448
 ,-0.0189712,-0.0443616,-0.5870857\PG=C01 [X(C7H8)]\NImag=1\\0.47633960
 ,0.00371042,0.57440774,-0.01007450,-0.00420534,0.53126642,-0.20611986,
 0.00606699,0.00333622,0.63353349,0.00558205,-0.08857939,0.00180336,0.0
 0072128,0.65055777,-0.00118540,0.00202284,-0.07017638,-0.00345868,-0.0
 5073730,0.18136731,-0.02073005,0.03050640,-0.00243293,-0.16446558,0.04
 148938,-0.00312642,0.68675022,0.00546851,0.00180591,0.00036780,0.10807
 163,-0.27030473,0.01995966,0.03488224,0.68939628,-0.00040553,0.0011792
 6,0.00438424,-0.00997190,0.02239574,-0.07125405,-0.01401517,-0.0625303
 8,0.14118198,0.00275309,0.00151219,0.00095985,-0.02163383,0.08019077,-
 0.00777102,-0.33121892,-0.02145940,0.00692385,0.67116793,0.00104944,-0
 .00449137,0.00073026,0.03204555,0.02962135,-0.00231310,0.04253815,-0.1
 2797572,0.00607898,-0.03083326,0.71231083,0.00050608,0.00231747,0.0064
 4137,-0.00330003,-0.00403964,0.00747230,0.00046788,0.00757069,-0.06261
 481,-0.00668857,-0.06266141,0.14031734,-0.00129262,-0.00005892,-0.0009
 2333,0.00193679,-0.00349668,0.00062064,-0.03313091,-0.02569247,0.00362
 215,-0.18847478,-0.12387369,0.01557871,0.73748738,0.00005860,-0.000470
 00,-0.00000715,-0.00357578,-0.07057327,0.00675563,-0.07256468,0.038392
 58,-0.00115407,-0.06062898,-0.26768194,0.02349508,-0.00519454,0.647639
 61,0.00017251,-0.00006034,-0.00095097,-0.00011703,0.00679144,-0.008197
 36,0.00873848,-0.00285267,0.00845764,0.00858608,0.02439746,-0.06464801
 ,-0.01032601,-0.05500344,0.13573154,0.00245489,-0.00195742,0.00137162,
 -0.03196477,-0.07405133,0.00875627,-0.04839322,0.02952136,-0.00175771,
 0.06349934,0.01750695,-0.00281298,-0.17140344,0.05151756,-0.00367596,0
 .67735298,-0.00161746,-0.00435390,0.00153299,-0.02603484,0.04014480,-0
 .00373551,0.03100763,-0.02086140,0.00054060,-0.02949219,-0.05819999,0.
 00764627,0.11481596,-0.28539702,0.02145596,0.03274029,0.70664913,0.000
 68038,0.00000136,0.00660210,0.00308492,-0.00195070,0.00727979,-0.00248
 532,0.00082153,-0.00718240,0.00218021,0.00667396,0.00736270,-0.0101679
 1,0.02233404,-0.06400429,-0.01340275,-0.05991785,0.13979400,-0.0239800
 0,-0.02786209,0.00381541,-0.17985609,-0.05010826,0.00684824,0.06186393
 ,-0.02797078,0.00114334,-0.05395006,-0.02763908,0.00386269,-0.02297576
 ,0.07867502,-0.00752104,-0.33127394,-0.02198940,0.00731767,0.67990427,
 -0.00297170,0.00480438,-0.00018740,-0.11665311,-0.25494640,0.02143076,
 0.01605470,-0.05720340,0.00651350,-0.02602972,-0.01505854,0.00140431,0
 .03176642,0.02781986,-0.00254214,0.04193727,-0.12790918,0.00611295,-0.
 03543613,0.69763564,0.00041275,-0.00093210,0.00463574,0.01404253,0.018
 97775,-0.07122189,-0.00350180,0.00808608,0.00925788,0.00428287,0.00162
 953,-0.00742842,-0.00274403,-0.00422426,0.00887520,0.00020089,0.007636
 73,-0.06262631,-0.00613717,-0.05647577,0.13978858,-0.07315584,-0.00761
 820,-0.08388069,-0.01543137,-0.00247762,-0.03007126,-0.00029369,-0.001
 26175,0.00051366,-0.00049623,-0.00003739,0.00145705,-0.00036095,0.0000
 5495,-0.00019597,-0.00036589,0.00033195,0.00145606,-0.00035595,0.00134
 676,0.00028017,0.08320565,-0.00721268,-0.04657054,-0.02000168,0.000582
 76,0.00013745,0.00186618,0.00197471,-0.00046883,-0.00040423,-0.0012177
 6,-0.00059306,-0.00039680,0.00010579,0.00118574,-0.00012266,0.00109626
 ,-0.00063032,0.00040277,-0.00190206,-0.00017478,0.00051729,0.00781052,
 0.04658257,-0.08009948,-0.02018522,-0.26924538,-0.00153487,0.00048102,
 0.00375618,0.00010135,-0.00054480,0.00049659,-0.00036080,0.00006099,0.
 00011864,0.00027809,-0.00014567,-0.00002839,-0.00060565,0.00013329,0.0
 0002556,0.00057729,0.00066346,0.00026479,0.09031378,0.02226274,0.29303
 873,-0.08624889,-0.07352137,0.05649742,-0.01406851,-0.02569478,0.01746
 519,0.00185682,-0.00194710,-0.00042696,-0.00018312,-0.00009156,-0.0004
 2437,-0.00000457,0.00021236,0.00012359,-0.00021808,-0.00145589,-0.0007
 4597,-0.00546818,0.00224264,0.00039744,0.00422012,0.00890641,-0.005251
 92,0.09653633,-0.07554158,-0.19127555,0.10577354,0.00019861,0.00106291
 ,-0.00268025,0.00184779,0.00032972,-0.00041772,-0.00061327,0.00009916,
 -0.00058119,0.00020852,0.00027689,-0.00006721,0.00012230,-0.00003570,0
 .00001177,-0.00022190,0.00035398,0.00056949,0.00207313,0.00260765,-0.0
 0187459,0.08288386,0.20521578,0.05848377,0.10614906,-0.12360427,-0.002
 36133,-0.00219909,0.00044811,-0.00045522,0.00042408,0.00059283,0.00036
 003,-0.00004464,-0.00002562,0.00009619,-0.00053094,0.00007526,-0.00086
 631,0.00019435,0.00008674,0.00005007,-0.00013120,0.00055826,0.01199613
 ,0.02349566,-0.01661840,-0.06119831,-0.11745551,0.13117911,-0.07204200
 ,0.06926016,0.03164253,-0.01133906,0.03007516,0.01166369,-0.00560262,-
 0.00154448,0.00074805,-0.00010596,0.00126988,-0.00103375,-0.00003926,-
 0.00014470,0.00016498,-0.00011338,0.00003216,-0.00038130,0.00184313,0.
 00167181,-0.00076894,0.00320437,-0.01011354,-0.00318422,0.00383786,-0.
 01095464,-0.00628558,0.08071735,0.07165092,-0.24710449,-0.08482472,0.0
 0056985,-0.00077987,0.00121616,0.00079786,0.00039869,-0.00057956,-0.00
 029985,-0.00016585,0.00011920,-0.00014198,0.00042311,-0.00001903,0.000
 70246,0.00015543,0.00057343,-0.00205161,0.00036281,0.00052891,-0.00004
 687,-0.00180117,-0.00082674,0.00722515,-0.01946782,-0.00951949,-0.0785
 6040,0.26716280,0.03311124,-0.08536795,-0.08198222,-0.00218896,0.00236
 979,-0.00043856,-0.00004413,0.00017644,0.00064799,-0.00083441,-0.00006
 721,0.00010476,0.00018193,0.00044521,-0.00003628,0.00021991,-0.0000303
 8,-0.00015163,-0.00007420,-0.00034524,0.00057343,0.00971742,-0.0276604
 6,-0.01119383,-0.00699508,0.01603034,0.00744208,-0.03328400,0.09428202
 ,0.08505106,0.00110739,0.00088174,-0.00038673,0.00965277,0.01224982,-0
 .00138396,-0.13592402,-0.12168414,0.01578618,-0.01229277,-0.02830216,0
 .00328108,-0.00544278,0.00184104,0.00003358,-0.00060677,0.00076278,-0.
 00008141,-0.00052666,0.00333249,-0.00019798,0.00005006,0.00006861,-0.0
 0007282,0.00012358,-0.00005152,0.00022598,0.00002647,-0.00015301,-0.00
 002619,0.14304208,-0.00170880,0.00085222,0.00013179,-0.01734588,-0.019
 35511,0.00292378,-0.12132210,-0.24898583,0.02618547,0.00294493,0.00451
 463,-0.00027601,0.00077400,0.00193374,0.00060587,0.00096895,0.00006508
 ,-0.00009709,0.00394434,-0.00334301,0.00104527,0.00025765,-0.00011327,
 -0.00005143,0.00113014,0.00033812,-0.00042911,0.00009275,0.00039464,-0
 .00018868,0.13143770,0.26401774,-0.00043204,-0.00129218,-0.00327208,0.
 00248643,0.00218439,0.00345330,0.01561997,0.02651622,-0.03939745,-0.00
 010831,0.00038818,0.00284890,0.00017794,0.00056936,0.00713761,-0.00006
 590,-0.00011950,-0.00070064,-0.00039080,0.00082119,0.00629944,-0.00071
 589,0.00032376,-0.00031159,0.00025160,0.00050733,0.00003035,0.00026903
 ,-0.00012782,-0.00000805,-0.01710271,-0.02934201,0.02852892,-0.0000787
 2,0.00135468,-0.00000610,-0.00546381,-0.00097959,0.00022663,-0.0092584
 9,0.02956633,-0.00308015,-0.11514160,0.11014069,-0.01060086,0.01162435
 ,-0.01641930,0.00163492,-0.00112376,-0.00330962,0.00051031,-0.00087601
 ,-0.00083662,0.00009950,-0.00011058,0.00001153,-0.00004260,0.00002749,
 -0.00005658,0.00003476,-0.00045074,0.00007755,-0.00003289,0.00097028,-
 0.00042197,-0.00003641,0.11863938,-0.00018486,-0.00008379,0.00001343,-
 0.00020951,0.00207875,0.00058173,-0.00155918,0.00189446,0.00013871,0.1
 1020995,-0.27501497,0.02437947,0.01465280,-0.01822484,0.00209635,-0.00
 419188,-0.00264189,0.00113165,-0.00078033,0.00036790,-0.00009434,0.000
 05153,-0.00001738,0.00001125,0.00001616,0.00001368,-0.00000415,0.00004
 008,-0.00001113,0.00000373,0.00037839,0.00075449,-0.00053571,-0.118918
 71,0.29107451,-0.00011669,-0.00007683,0.00009849,0.00044663,0.00045192
 ,0.00737278,0.00034907,-0.00033150,0.00301522,-0.01061960,0.02449831,-
 0.03863974,-0.00179161,0.00252208,0.00276581,0.00056545,0.00114254,0.0
 0697778,0.00014954,-0.00009336,-0.00078541,-0.00001149,0.00005708,0.00
 001414,0.00000033,0.00003995,-0.00003125,-0.00004261,-0.00001406,-0.00
 007128,-0.00014789,-0.00053847,-0.00396674,0.01138324,-0.02718342,0.02
 801311,0.00000826,0.00001277,0.00004411,0.00061583,-0.00009935,-0.0000
 2800,0.00050743,-0.00338412,0.00047972,-0.01274302,0.00379310,-0.00018
 001,-0.33381335,0.01373079,0.00359750,-0.01029042,-0.00220432,0.000418
 66,0.00102408,0.00290852,-0.00020099,-0.00000245,-0.00000217,-0.000025
 99,0.00000941,-0.00003748,-0.00001083,0.00000476,0.00003842,-0.0000165
 7,-0.00074466,0.00021485,0.00000319,0.00080926,-0.00032342,-0.00004397
 ,0.35445591,-0.00001446,0.00016158,-0.00012145,-0.00008258,-0.00135729
 ,0.00007278,-0.00240620,-0.00402553,0.00124489,-0.02739263,0.00578784,
 0.00008571,0.01371978,-0.05929750,0.00237538,0.02900915,0.00325328,-0.
 00055970,0.00191842,-0.00457285,0.00118279,-0.00001866,0.00001019,-0.0
 0000949,0.00009482,0.00005658,-0.00002981,-0.00007786,0.00003582,0.000
 02189,-0.00135183,0.00006914,0.00005794,0.00056370,0.00088081,-0.00052
 778,-0.01482586,0.05814335,-0.00020983,-0.00010912,-0.00093858,0.00012
 843,0.00006518,-0.00070318,0.00031991,0.00129917,0.00692500,0.00327596
 ,-0.00031978,0.00238837,0.00349482,0.00238037,-0.03510868,-0.00277856,
 -0.00016677,0.00247032,-0.00015474,0.00113402,0.00695567,-0.00017973,-
 0.00000202,-0.00008991,0.00005877,0.00013562,-0.00000878,0.00006328,-0
 .00015079,0.00001663,0.00020294,0.00002518,0.00026010,-0.00014215,-0.0
 0052297,-0.00383308,-0.00396353,-0.00329725,0.02523811,-0.00019143,-0.
 00131398,0.00027995,-0.00527410,0.00170781,-0.00006298,-0.00070776,0.0
 0094251,-0.00009426,-0.00041311,0.00311453,-0.00018768,0.01151196,0.01
 350969,-0.00155660,-0.13786554,-0.12330557,0.01454913,-0.01185198,-0.0
 2822177,0.00311472,-0.00011635,-0.00001149,-0.00004063,-0.00045864,-0.
 00003976,-0.00002118,0.00003153,0.00006052,0.00002205,0.00003542,-0.00
 010768,-0.00000496,0.00037839,0.00073050,-0.00008968,0.00078565,-0.000
 56615,-0.00001951,0.14316484,0.00016816,0.00004890,-0.00000380,0.00100
 309,0.00190945,0.00057092,0.00089807,0.00018786,-0.00013597,0.00398832
 ,-0.00338585,0.00102522,-0.01758672,-0.01812340,0.00246007,-0.12337845
 ,-0.25207526,0.02427339,0.00292785,0.00454582,-0.00019836,-0.00004447,
 -0.00002391,0.00000168,-0.00000502,-0.00000324,-0.00001516,-0.00001831
 ,-0.00000004,-0.00000584,-0.00010047,-0.00003460,-0.00010619,-0.000868
 82,-0.00101794,0.00015353,0.00032166,0.00091154,-0.00049603,0.13311099
 ,0.26629479,-0.00014467,0.00011244,0.00007851,0.00032635,0.00067116,0.
 00735237,-0.00003377,-0.00014232,-0.00077362,-0.00032174,0.00101816,0.
 00701109,0.00164327,0.00204534,0.00277677,0.01453418,0.02415619,-0.038
 85551,-0.00008958,0.00026093,0.00295734,-0.00000630,-0.00004732,0.0000
 2644,-0.00003687,0.00000386,-0.00007127,-0.00000027,-0.00004718,-0.000
 02157,-0.00001170,-0.00012795,-0.00110342,0.00007955,0.00010647,0.0001
 7467,-0.00011123,-0.00049153,-0.00384021,-0.01576749,-0.02704009,0.028
 26737,0.00117618,-0.00097338,-0.00024282,0.00987809,-0.01510867,0.0015
 0706,-0.00125315,-0.00350832,0.00053475,-0.00076696,-0.00068115,0.0000
 7475,-0.00562205,-0.00107201,0.00034096,-0.00968800,0.02971853,-0.0029
 3269,-0.11352079,0.10888841,-0.00927996,0.00000910,-0.00009688,-0.0000
 5152,0.00003838,0.00018252,-0.00004818,0.00002754,0.00013099,0.0002438
 7,0.00052959,-0.00085889,0.00004885,0.00005456,0.00008848,-0.00003070,
 -0.00062670,0.00143035,-0.00009608,0.00097111,-0.00041587,-0.00005973,
 0.11879310,0.00156343,0.00084830,-0.00100163,0.01464195,-0.01961641,0.
 00206572,-0.00414478,-0.00258004,0.00094477,-0.00087913,0.00023349,-0.
 00008837,0.00000174,0.00209645,0.00048495,-0.00154348,0.00183696,0.000
 18850,0.10849601,-0.27268221,0.02175101,-0.00042153,-0.00013033,0.0000
 2351,0.00000417,0.00042784,0.00009595,-0.00102807,0.00039707,0.0003363
 5,0.00069057,-0.00110797,0.00015503,0.00009673,-0.00005267,-0.00009998
 ,-0.00014338,-0.00005695,0.00002519,0.00038988,0.00076588,-0.00047816,
 -0.11772411,0.28962059,-0.00069858,0.00044666,-0.00333697,-0.00091870,
 0.00273499,0.00348928,0.00049809,0.00117999,0.00626297,0.00013559,-0.0
 0006966,-0.00070886,0.00025913,0.00051843,0.00715417,0.00031750,-0.000
 46893,0.00292180,-0.00939670,0.02143399,-0.03810430,-0.00067294,-0.000
 29031,-0.00025358,0.00028513,0.00000458,-0.00005315,0.00042911,-0.0006
 1033,0.00006744,-0.00011837,0.00013337,0.00020137,-0.00002776,-0.00012
 221,-0.00110450,0.00003793,-0.00000438,0.00026823,-0.00012088,-0.00048
 336,-0.00397895,0.00999144,-0.02440283,0.02717506\\0.00042739,0.000015
 38,0.00033679,-0.00058044,0.00002131,-0.00006397,0.00015559,-0.0000831
 6,0.00004406,-0.00004430,0.00008391,-0.00003915,0.00004506,0.00000142,
 0.00003366,-0.00005254,-0.00008565,-0.00002097,0.00016328,0.00007531,0
 .00002707,-0.00007931,-0.00001022,-0.00013114,0.00000718,-0.00006438,-
 0.00008313,0.00001246,0.00004434,-0.00009479,-0.00005643,-0.00003239,0
 .00000108,0.00001588,-0.00003910,0.00000609,0.00001963,-0.00000171,-0.
 00000706,0.00001961,0.00003780,-0.00000216,-0.00005305,0.00003713,-0.0
 0000638\\\@
 The archive entry for this job was punched.


 BLESSED ARE THOSE WHO NOUGHT EXPECT,
 FOR THEY SHALL NOT BE DISAPPOINTED..  WALCOT - ODE TO PITT
 Job cpu time:       0 days  0 hours 10 minutes  6.0 seconds.
 Elapsed time:       0 days  0 hours  1 minutes 18.3 seconds.
 File lengths (MBytes):  RWF=     67 Int=      0 D2E=      0 Chk=      5 Scr=      1
 Normal termination of Gaussian 16 at Wed Jun 12 21:55:57 2024.
