 Entering Gaussian System, Link 0=/apl/gaussian/16c02/g16/._.g16
 Initial command:
 /apl/gaussian/16c02/g16/l1.exe "/lwork/users/eso/6527419.ccpbs1/gaussian/Gau-1395417.inp" -scrdir="/lwork/users/eso/6527419.ccpbs1/gaussian/"
 Default CPUs for threads: 48,49,50,51,52,53,54,55
 Default is to use a total of   8 processors:
                                8 via shared-memory
                                1 via Linda
 Entering Link 1 = /apl/gaussian/16c02/g16/l1.exe PID=   1395418.
  
 Copyright (c) 1988-2021, Gaussian, Inc.  All Rights Reserved.
  
 This is part of the Gaussian(R) 16 program.  It is based on
 the Gaussian(R) 09 system (copyright 2009, Gaussian, Inc.),
 the Gaussian(R) 03 system (copyright 2003, Gaussian, Inc.),
 the Gaussian(R) 98 system (copyright 1998, Gaussian, Inc.),
 the Gaussian(R) 94 system (copyright 1995, Gaussian, Inc.),
 the Gaussian 92(TM) system (copyright 1992, Gaussian, Inc.),
 the Gaussian 90(TM) system (copyright 1990, Gaussian, Inc.),
 the Gaussian 88(TM) system (copyright 1988, Gaussian, Inc.),
 the Gaussian 86(TM) system (copyright 1986, Carnegie Mellon
 University), and the Gaussian 82(TM) system (copyright 1983,
 Carnegie Mellon University). Gaussian is a federally registered
 trademark of Gaussian, Inc.
  
 This software contains proprietary and confidential information,
 including trade secrets, belonging to Gaussian, Inc.
  
 This software is provided under written license and may be
 used, copied, transmitted, or stored only in accord with that
 written license.
  
 The following legend is applicable only to US Government
 contracts under FAR:
  
                    RESTRICTED RIGHTS LEGEND
  
 Use, reproduction and disclosure by the US Government is
 subject to restrictions as set forth in subparagraphs (a)
 and (c) of the Commercial Computer Software - Restricted
 Rights clause in FAR 52.227-19.
  
 Gaussian, Inc.
 340 Quinnipiac St., Bldg. 40, Wallingford CT 06492
  
  
 ---------------------------------------------------------------
 Warning -- This program may not be used in any manner that
 competes with the business of Gaussian, Inc. or will provide
 assistance to any competitor of Gaussian, Inc.  The licensee
 of this program is prohibited from giving any competitor of
 Gaussian, Inc. access to this program.  By using this program,
 the user acknowledges that Gaussian, Inc. is engaged in the
 business of creating and licensing software in the field of
 computational chemistry and represents and warrants to the
 licensee that it is not a competitor of Gaussian, Inc. and that
 it will not use this program in any manner prohibited above.
 ---------------------------------------------------------------
  

 Cite this work as:
 Gaussian 16, Revision C.02,
 M. J. Frisch, G. W. Trucks, H. B. Schlegel, G. E. Scuseria, 
 M. A. Robb, J. R. Cheeseman, G. Scalmani, V. Barone, 
 G. A. Petersson, H. Nakatsuji, X. Li, M. Caricato, A. V. Marenich, 
 J. Bloino, B. G. Janesko, R. Gomperts, B. Mennucci, H. P. Hratchian, 
 J. V. Ortiz, A. F. Izmaylov, J. L. Sonnenberg, D. Williams-Young, 
 F. Ding, F. Lipparini, F. Egidi, J. Goings, B. Peng, A. Petrone, 
 T. Henderson, D. Ranasinghe, V. G. Zakrzewski, J. Gao, N. Rega, 
 G. Zheng, W. Liang, M. Hada, M. Ehara, K. Toyota, R. Fukuda, 
 J. Hasegawa, M. Ishida, T. Nakajima, Y. Honda, O. Kitao, H. Nakai, 
 T. Vreven, K. Throssell, J. A. Montgomery, Jr., J. E. Peralta, 
 F. Ogliaro, M. J. Bearpark, J. J. Heyd, E. N. Brothers, K. N. Kudin, 
 V. N. Staroverov, T. A. Keith, R. Kobayashi, J. Normand, 
 K. Raghavachari, A. P. Rendell, J. C. Burant, S. S. Iyengar, 
 J. Tomasi, M. Cossi, J. M. Millam, M. Klene, C. Adamo, R. Cammi, 
 J. W. Ochterski, R. L. Martin, K. Morokuma, O. Farkas, 
 J. B. Foresman, and D. J. Fox, Gaussian, Inc., Wallingford CT, 2019.
 
 ******************************************
 Gaussian 16:  ES64L-G16RevC.02  7-Dec-2021
                12-Jun-2024 
 ******************************************
 %chk=CN(C)C=O.chk
 %mem=9600MB
 SetSPE:  set environment variable "OMP_PROC_BIND" = "true"
 SetSPE:  set environment variable "OMP_PLACES" = "{48},{49},{50},{51},{52},{53},{54},{55}"
 --------------------------------------------------------
 # opt freq b3lyp/6-311++g(d,p) pop=nbo geom=connectivity
 --------------------------------------------------------
 1/18=20,19=15,26=3,38=1,57=2/1,3;
 2/9=110,12=2,17=6,18=5,40=1/2;
 3/5=4,6=6,7=1111,11=2,25=1,30=1,71=1,74=-5/1,2,3;
 4//1;
 5/5=2,38=5/2;
 6/7=2,8=2,9=2,10=2,28=1,40=1/1,7;
 7//1,2,3,16;
 1/18=20,19=15,26=3/3(2);
 2/9=110/2;
 99//99;
 2/9=110/2;
 3/5=4,6=6,7=1111,11=2,25=1,30=1,71=1,74=-5/1,2,3;
 4/5=5,16=3,69=1/1;
 5/5=2,38=5/2;
 7//1,2,3,16;
 1/18=20,19=15,26=3/3(-5);
 2/9=110/2;
 6/7=2,8=2,9=2,10=2,19=2,28=1,40=1/1,7;
 99/9=1/99;
 --------
 CN(C)C=O
 --------
 Symbolic Z-matrix:
 Charge =  0 Multiplicity = 1
 C                     1.31105   0.06829  -0.41228 
 N                    -0.08915   0.1348   -0.04785 
 C                    -0.76678  -1.10651   0.27188 
 C                    -0.71896   1.34442   0.15978 
 O                    -1.8621    1.49978   0.56898 
 H                     1.87705  -0.33056   0.43449 
 H                     1.6997    1.05842  -0.66584 
 H                     1.42377  -0.59423  -1.27503 
 H                    -0.6571   -1.79788  -0.56852 
 H                    -0.3047   -1.53846   1.16436 
 H                    -1.83081  -0.94581   0.46458 
 H                    -0.08198   2.20775  -0.09456 
 

 GradGradGradGradGradGradGradGradGradGradGradGradGradGradGradGradGradGrad
 Berny optimization.
 Initialization pass.
                           ----------------------------
                           !    Initial Parameters    !
                           ! (Angstroms and Degrees)  !
 --------------------------                            --------------------------
 ! Name  Definition              Value          Derivative Info.                !
 --------------------------------------------------------------------------------
 ! R1    R(1,2)                  1.4484         estimate D2E/DX2                !
 ! R2    R(1,6)                  1.0938         estimate D2E/DX2                !
 ! R3    R(1,7)                  1.0935         estimate D2E/DX2                !
 ! R4    R(1,8)                  1.0936         estimate D2E/DX2                !
 ! R5    R(2,3)                  1.4499         estimate D2E/DX2                !
 ! R6    R(2,4)                  1.3795         estimate D2E/DX2                !
 ! R7    R(3,9)                  1.0938         estimate D2E/DX2                !
 ! R8    R(3,10)                 1.0939         estimate D2E/DX2                !
 ! R9    R(3,11)                 1.0932         estimate D2E/DX2                !
 ! R10   R(4,5)                  1.2241         estimate D2E/DX2                !
 ! R11   R(4,12)                 1.1026         estimate D2E/DX2                !
 ! A1    A(2,1,6)              108.7963         estimate D2E/DX2                !
 ! A2    A(2,1,7)              111.1224         estimate D2E/DX2                !
 ! A3    A(2,1,8)              109.0238         estimate D2E/DX2                !
 ! A4    A(6,1,7)              109.0124         estimate D2E/DX2                !
 ! A5    A(6,1,8)              109.6628         estimate D2E/DX2                !
 ! A6    A(7,1,8)              109.2069         estimate D2E/DX2                !
 ! A7    A(1,2,3)              117.903          estimate D2E/DX2                !
 ! A8    A(1,2,4)              121.2997         estimate D2E/DX2                !
 ! A9    A(3,2,4)              120.2747         estimate D2E/DX2                !
 ! A10   A(2,3,9)              108.9573         estimate D2E/DX2                !
 ! A11   A(2,3,10)             108.6967         estimate D2E/DX2                !
 ! A12   A(2,3,11)             111.5862         estimate D2E/DX2                !
 ! A13   A(9,3,10)             109.5681         estimate D2E/DX2                !
 ! A14   A(9,3,11)             109.0238         estimate D2E/DX2                !
 ! A15   A(10,3,11)            108.9875         estimate D2E/DX2                !
 ! A16   A(2,4,5)              126.0143         estimate D2E/DX2                !
 ! A17   A(2,4,12)             112.8362         estimate D2E/DX2                !
 ! A18   A(5,4,12)             121.1468         estimate D2E/DX2                !
 ! D1    D(6,1,2,3)            -62.0719         estimate D2E/DX2                !
 ! D2    D(6,1,2,4)            109.6554         estimate D2E/DX2                !
 ! D3    D(7,1,2,3)            177.9019         estimate D2E/DX2                !
 ! D4    D(7,1,2,4)            -10.3709         estimate D2E/DX2                !
 ! D5    D(8,1,2,3)             57.4875         estimate D2E/DX2                !
 ! D6    D(8,1,2,4)           -130.7852         estimate D2E/DX2                !
 ! D7    D(1,2,3,9)            -55.6727         estimate D2E/DX2                !
 ! D8    D(1,2,3,10)            63.6749         estimate D2E/DX2                !
 ! D9    D(1,2,3,11)          -176.1072         estimate D2E/DX2                !
 ! D10   D(4,2,3,9)            132.5117         estimate D2E/DX2                !
 ! D11   D(4,2,3,10)          -108.1407         estimate D2E/DX2                !
 ! D12   D(4,2,3,11)            12.0772         estimate D2E/DX2                !
 ! D13   D(1,2,4,5)           -173.9455         estimate D2E/DX2                !
 ! D14   D(1,2,4,12)             6.6521         estimate D2E/DX2                !
 ! D15   D(3,2,4,5)             -2.4124         estimate D2E/DX2                !
 ! D16   D(3,2,4,12)           178.1852         estimate D2E/DX2                !
 --------------------------------------------------------------------------------
 Trust Radius=3.00D-01 FncErr=1.00D-07 GrdErr=1.00D-06 EigMax=2.50D+02 EigMin=1.00D-04
 Number of steps in this run=     55 maximum allowed number of steps=    100.
 GradGradGradGradGradGradGradGradGradGradGradGradGradGradGradGradGradGrad

                          Input orientation:                          
 ---------------------------------------------------------------------
 Center     Atomic      Atomic             Coordinates (Angstroms)
 Number     Number       Type             X           Y           Z
 ---------------------------------------------------------------------
      1          6           0        1.311053    0.068286   -0.412276
      2          7           0       -0.089153    0.134803   -0.047848
      3          6           0       -0.766777   -1.106508    0.271881
      4          6           0       -0.718962    1.344415    0.159779
      5          8           0       -1.862097    1.499783    0.568977
      6          1           0        1.877050   -0.330563    0.434488
      7          1           0        1.699700    1.058415   -0.665838
      8          1           0        1.423772   -0.594228   -1.275026
      9          1           0       -0.657097   -1.797880   -0.568522
     10          1           0       -0.304703   -1.538459    1.164365
     11          1           0       -1.830808   -0.945810    0.464585
     12          1           0       -0.081978    2.207747   -0.094563
 ---------------------------------------------------------------------
                    Distance matrix (angstroms):
                    1          2          3          4          5
     1  C    0.000000
     2  N    1.448382   0.000000
     3  C    2.483061   1.449915   0.000000
     4  C    2.465099   1.379467   2.453952   0.000000
     5  O    3.616756   2.320985   2.842665   1.224067   0.000000
     6  H    1.093820   2.077299   2.760137   3.101660   4.165270
     7  H    1.093478   2.105936   3.413169   2.571646   3.795520
     8  H    1.093604   2.079999   2.730176   3.226192   4.310704
     9  H    2.716727   2.080607   1.093755   3.226185   3.690597
    10  H    2.770937   2.077433   1.093902   3.080872   3.465671
    11  H    3.415928   2.112740   1.093215   2.564028   2.448020
    12  H    2.572697   2.073483   3.404045   1.102624   2.027393
                    6          7          8          9         10
     6  H    0.000000
     7  H    1.780851   0.000000
     8  H    1.788133   1.782828   0.000000
     9  H    3.095311   3.704374   2.505583   0.000000
    10  H    2.598418   3.756465   3.135255   1.787282   0.000000
    11  H    3.758675   4.214173   3.707040   1.780710   1.780427
    12  H    3.249724   2.195836   3.392910   4.074365   3.958354
                   11         12
    11  H    0.000000
    12  H    3.649106   0.000000
 Stoichiometry    C3H7NO
 Framework group  C1[X(C3H7NO)]
 Deg. of freedom    30
 Full point group                 C1      NOp   1
 Largest Abelian subgroup         C1      NOp   1
 Largest concise Abelian subgroup C1      NOp   1
                         Standard orientation:                         
 ---------------------------------------------------------------------
 Center     Atomic      Atomic             Coordinates (Angstroms)
 Number     Number       Type             X           Y           Z
 ---------------------------------------------------------------------
      1          6           0       -1.584019   -0.779346    0.022479
      2          7           0       -0.353900   -0.018970   -0.057820
      3          6           0       -0.444710    1.426824    0.002903
      4          6           0        0.876845   -0.640765   -0.018236
      5          8           0        1.964753   -0.081396    0.025389
      6          1           0       -2.055837   -0.585196    0.990020
      7          1           0       -1.391277   -1.851630   -0.071082
      8          1           0       -2.252300   -0.462298   -0.783033
      9          1           0       -1.121608    1.773654   -0.783111
     10          1           0       -0.842311    1.712423    0.981151
     11          1           0        0.532380    1.897331   -0.135072
     12          1           0        0.801531   -1.740597   -0.040126
 ---------------------------------------------------------------------
 Rotational constants (GHZ):           8.8905711           4.1354205           2.9300614
 Standard basis: 6-311++G(d,p) (5D, 7F)
 There are   164 symmetry adapted cartesian basis functions of A   symmetry.
 There are   159 symmetry adapted basis functions of A   symmetry.
   159 basis functions,   243 primitive gaussians,   164 cartesian basis functions
    20 alpha electrons       20 beta electrons
       nuclear repulsion energy       180.7971106713 Hartrees.
 NAtoms=   12 NActive=   12 NUniq=   12 SFac= 1.00D+00 NAtFMM=   60 NAOKFM=F Big=F
 Integral buffers will be    131072 words long.
 Raffenetti 2 integral format.
 Two-electron integral symmetry is turned on.
 One-electron integrals computed using PRISM.
 NBasis=   159 RedAO= T EigKep=  1.93D-04  NBF=   159
 NBsUse=   159 1.00D-06 EigRej= -1.00D+00 NBFU=   159
 ExpMin= 3.60D-02 ExpMax= 8.59D+03 ExpMxC= 1.30D+03 IAcc=3 IRadAn=         5 AccDes= 0.00D+00
 Harris functional with IExCor=  402 and IRadAn=       5 diagonalized for initial guess.
 HarFok:  IExCor=  402 AccDes= 0.00D+00 IRadAn=         5 IDoV= 1 UseB2=F ITyADJ=14
 ICtDFT=  3500011 ScaDFX=  1.000000  1.000000  1.000000  1.000000
 FoFCou: FMM=F IPFlag=           0 FMFlag=      100000 FMFlg1=           0
         NFxFlg=           0 DoJE=T BraDBF=F KetDBF=T FulRan=T
         wScrn=  0.000000 ICntrl=       500 IOpCl=  0 I1Cent=   200000004 NGrid=           0
         NMat0=    1 NMatS0=      1 NMatT0=    0 NMatD0=    1 NMtDS0=    0 NMtDT0=    0
 Petite list used in FoFCou.
 Keep R1 ints in memory in canonical form, NReq=88851254.
 Requested convergence on RMS density matrix=1.00D-08 within 128 cycles.
 Requested convergence on MAX density matrix=1.00D-06.
 Requested convergence on             energy=1.00D-06.
 No special actions if energy rises.
 SCF Done:  E(RB3LYP) =  -248.588828891     A.U. after   12 cycles
            NFock= 12  Conv=0.45D-08     -V/T= 2.0043

 **********************************************************************

            Population analysis using the SCF Density.

 **********************************************************************

 Orbital symmetries:
       Occupied  (A) (A) (A) (A) (A) (A) (A) (A) (A) (A) (A) (A)
                 (A) (A) (A) (A) (A) (A) (A) (A)
       Virtual   (A) (A) (A) (A) (A) (A) (A) (A) (A) (A) (A) (A)
                 (A) (A) (A) (A) (A) (A) (A) (A) (A) (A) (A) (A)
                 (A) (A) (A) (A) (A) (A) (A) (A) (A) (A) (A) (A)
                 (A) (A) (A) (A) (A) (A) (A) (A) (A) (A) (A) (A)
                 (A) (A) (A) (A) (A) (A) (A) (A) (A) (A) (A) (A)
                 (A) (A) (A) (A) (A) (A) (A) (A) (A) (A) (A) (A)
                 (A) (A) (A) (A) (A) (A) (A) (A) (A) (A) (A) (A)
                 (A) (A) (A) (A) (A) (A) (A) (A) (A) (A) (A) (A)
                 (A) (A) (A) (A) (A) (A) (A) (A) (A) (A) (A) (A)
                 (A) (A) (A) (A) (A) (A) (A) (A) (A) (A) (A) (A)
                 (A) (A) (A) (A) (A) (A) (A) (A) (A) (A) (A) (A)
                 (A) (A) (A) (A) (A) (A) (A)
 The electronic state is 1-A.
 Alpha  occ. eigenvalues --  -19.09423 -14.35547 -10.27143 -10.22140 -10.20858
 Alpha  occ. eigenvalues --   -1.03805  -0.94909  -0.74276  -0.70994  -0.57900
 Alpha  occ. eigenvalues --   -0.52321  -0.49137  -0.47616  -0.42219  -0.42134
 Alpha  occ. eigenvalues --   -0.41263  -0.39930  -0.38364  -0.26546  -0.25379
 Alpha virt. eigenvalues --   -0.01790  -0.00169   0.00660   0.01760   0.02786
 Alpha virt. eigenvalues --    0.03506   0.04825   0.05257   0.05871   0.06991
 Alpha virt. eigenvalues --    0.08119   0.08960   0.10770   0.11031   0.11801
 Alpha virt. eigenvalues --    0.12511   0.12636   0.13009   0.13314   0.15404
 Alpha virt. eigenvalues --    0.16092   0.16506   0.18431   0.19186   0.19576
 Alpha virt. eigenvalues --    0.21167   0.21420   0.24439   0.25844   0.26265
 Alpha virt. eigenvalues --    0.27299   0.28362   0.29135   0.30182   0.32055
 Alpha virt. eigenvalues --    0.34047   0.37343   0.39147   0.41369   0.45711
 Alpha virt. eigenvalues --    0.45790   0.47438   0.52755   0.54646   0.56595
 Alpha virt. eigenvalues --    0.57494   0.61312   0.61482   0.62855   0.64397
 Alpha virt. eigenvalues --    0.65278   0.68735   0.69501   0.70199   0.73524
 Alpha virt. eigenvalues --    0.82069   0.83503   0.88145   0.89150   0.98906
 Alpha virt. eigenvalues --    1.02480   1.05443   1.10170   1.10961   1.16133
 Alpha virt. eigenvalues --    1.18733   1.22918   1.25825   1.31575   1.39833
 Alpha virt. eigenvalues --    1.43174   1.44056   1.44991   1.51538   1.53721
 Alpha virt. eigenvalues --    1.54197   1.54577   1.55294   1.59800   1.63653
 Alpha virt. eigenvalues --    1.66726   1.69091   1.70933   1.74438   1.74744
 Alpha virt. eigenvalues --    1.80547   1.82053   1.86829   1.94392   2.02032
 Alpha virt. eigenvalues --    2.03577   2.03751   2.12643   2.14431   2.20513
 Alpha virt. eigenvalues --    2.38632   2.41698   2.41897   2.43786   2.44539
 Alpha virt. eigenvalues --    2.48481   2.49110   2.51178   2.53128   2.55791
 Alpha virt. eigenvalues --    2.57974   2.60204   2.65020   2.70223   2.71623
 Alpha virt. eigenvalues --    2.78622   2.84969   2.87748   2.92258   2.95063
 Alpha virt. eigenvalues --    2.98046   3.06036   3.35853   3.38538   3.49926
 Alpha virt. eigenvalues --    3.54588   3.62988   3.68506   3.73654   3.76111
 Alpha virt. eigenvalues --    3.77477   3.81753   3.97769   4.01332   4.87676
 Alpha virt. eigenvalues --    4.93548   5.04304   5.18486   5.75785  23.86930
 Alpha virt. eigenvalues --   23.91397  23.93600  35.49614  49.99126
          Condensed to atoms (all electrons):
               1          2          3          4          5          6
     1  C    4.988041   0.253672  -0.072989  -0.076057   0.016296   0.385264
     2  N    0.253672   7.296651   0.198327   0.127972  -0.171879  -0.069677
     3  C   -0.072989   0.198327   5.042805  -0.022186  -0.027721   0.016422
     4  C   -0.076057   0.127972  -0.022186   4.970779   0.463339  -0.005016
     5  O    0.016296  -0.171879  -0.027721   0.463339   8.093959   0.001333
     6  H    0.385264  -0.069677   0.016422  -0.005016   0.001333   0.622624
     7  H    0.410108  -0.040650   0.002090   0.001288   0.002472  -0.028274
     8  H    0.421399  -0.070278  -0.005789   0.001014   0.000402  -0.082165
     9  H   -0.000914  -0.052418   0.399608   0.000148   0.000086  -0.002731
    10  H   -0.002646  -0.056236   0.414051  -0.016469  -0.004123   0.013298
    11  H    0.000532  -0.077654   0.403546   0.023642   0.031401  -0.000797
    12  H   -0.000289  -0.279150   0.002393   0.403997  -0.026028   0.000701
               7          8          9         10         11         12
     1  C    0.410108   0.421399  -0.000914  -0.002646   0.000532  -0.000289
     2  N   -0.040650  -0.070278  -0.052418  -0.056236  -0.077654  -0.279150
     3  C    0.002090  -0.005789   0.399608   0.414051   0.403546   0.002393
     4  C    0.001288   0.001014   0.000148  -0.016469   0.023642   0.403997
     5  O    0.002472   0.000402   0.000086  -0.004123   0.031401  -0.026028
     6  H   -0.028274  -0.082165  -0.002731   0.013298  -0.000797   0.000701
     7  H    0.547440  -0.025092  -0.000498   0.000505  -0.002959  -0.000088
     8  H   -0.025092   0.606010   0.010280  -0.003539   0.000378   0.000651
     9  H   -0.000498   0.010280   0.601837  -0.068961  -0.024072  -0.002540
    10  H    0.000505  -0.003539  -0.068961   0.598399  -0.021667  -0.004375
    11  H   -0.002959   0.000378  -0.024072  -0.021667   0.476140   0.013795
    12  H   -0.000088   0.000651  -0.002540  -0.004375   0.013795   0.806348
 Mulliken charges:
               1
     1  C   -0.322416
     2  N   -0.058680
     3  C   -0.350557
     4  C    0.127549
     5  O   -0.379538
     6  H    0.149017
     7  H    0.133658
     8  H    0.146730
     9  H    0.140176
    10  H    0.151762
    11  H    0.177715
    12  H    0.084585
 Sum of Mulliken charges =  -0.00000
 Mulliken charges with hydrogens summed into heavy atoms:
               1
     1  C    0.106988
     2  N   -0.058680
     3  C    0.119096
     4  C    0.212134
     5  O   -0.379538
 Electronic spatial extent (au):  <R**2>=            447.6447
 Charge=             -0.0000 electrons
 Dipole moment (field-independent basis, Debye):
    X=             -4.1954    Y=             -0.4642    Z=              0.0022  Tot=              4.2210
 Quadrupole moment (field-independent basis, Debye-Ang):
   XX=            -38.2376   YY=            -27.8258   ZZ=            -31.5054
   XY=             -0.0230   XZ=             -0.1364   YZ=             -0.0822
 Traceless Quadrupole moment (field-independent basis, Debye-Ang):
   XX=             -5.7147   YY=              4.6972   ZZ=              1.0175
   XY=             -0.0230   XZ=             -0.1364   YZ=             -0.0822
 Octapole moment (field-independent basis, Debye-Ang**2):
  XXX=            -17.5599  YYY=             -1.6489  ZZZ=              0.5914  XYY=              1.7482
  XXY=             -0.6243  XXZ=             -0.9749  XZZ=              0.1269  YZZ=              0.6587
  YYZ=             -0.4909  XYZ=              0.1029
 Hexadecapole moment (field-independent basis, Debye-Ang**3):
 XXXX=           -384.9974 YYYY=           -192.3842 ZZZZ=            -46.4737 XXXY=              3.6405
 XXXZ=              1.2883 YYYX=              1.3922 YYYZ=             -0.2151 ZZZX=             -0.3311
 ZZZY=              0.0912 XXYY=            -89.0559 XXZZ=            -62.9844 YYZZ=            -41.9804
 XXYZ=             -0.6771 YYXZ=              0.2591 ZZXY=             -1.3133
 N-N= 1.807971106713D+02 E-N=-9.418264476184D+02  KE= 2.475140032518D+02
 ******************************Gaussian NBO Version 3.1******************************
             N A T U R A L   A T O M I C   O R B I T A L   A N D
          N A T U R A L   B O N D   O R B I T A L   A N A L Y S I S
 ******************************Gaussian NBO Version 3.1******************************
       /RESON  / : Allow strongly delocalized NBO set

 Analyzing the SCF density

 Job title: CN(C)C=O                                                        

 Storage needed:     76599 in NPA,    101767 in NBO (1258290360 available)
 GSVD:  LWork=        4887 too small for GESVD, short by       35010 words or       35010 for optimal perf.


 NATURAL POPULATIONS:  Natural atomic orbital occupancies 
                                                          
   NAO  Atom  No  lang   Type(AO)    Occupancy      Energy
 ----------------------------------------------------------
     1    C    1  S      Cor( 1S)     1.99932     -10.08493
     2    C    1  S      Val( 2S)     1.06287      -0.26100
     3    C    1  S      Ryd( 4S)     0.00090       0.87188
     4    C    1  S      Ryd( 3S)     0.00011       0.41596
     5    C    1  S      Ryd( 5S)     0.00000      23.41534
     6    C    1  px     Val( 2p)     0.95465      -0.10254
     7    C    1  px     Ryd( 4p)     0.00240       0.55124
     8    C    1  px     Ryd( 3p)     0.00015       0.28671
     9    C    1  px     Ryd( 5p)     0.00007       2.96381
    10    C    1  py     Val( 2p)     1.12127      -0.11640
    11    C    1  py     Ryd( 4p)     0.00269       0.65089
    12    C    1  py     Ryd( 3p)     0.00014       0.33490
    13    C    1  py     Ryd( 5p)     0.00004       2.93804
    14    C    1  pz     Val( 2p)     1.19711      -0.12201
    15    C    1  pz     Ryd( 4p)     0.00034       0.56865
    16    C    1  pz     Ryd( 3p)     0.00009       0.27921
    17    C    1  pz     Ryd( 5p)     0.00002       2.92475
    18    C    1  dxy    Ryd( 3d)     0.00094       2.07285
    19    C    1  dxz    Ryd( 3d)     0.00123       2.09010
    20    C    1  dyz    Ryd( 3d)     0.00043       1.80728
    21    C    1  dx2y2  Ryd( 3d)     0.00082       2.13581
    22    C    1  dz2    Ryd( 3d)     0.00091       2.10251
 
    23    N    2  S      Cor( 1S)     1.99938     -14.19623
    24    N    2  S      Val( 2S)     1.23497      -0.54140
    25    N    2  S      Ryd( 3S)     0.00168       0.92251
    26    N    2  S      Ryd( 4S)     0.00017       1.15255
    27    N    2  S      Ryd( 5S)     0.00000      35.12023
    28    N    2  px     Val( 2p)     1.29714      -0.25658
    29    N    2  px     Ryd( 4p)     0.00175       0.99536
    30    N    2  px     Ryd( 3p)     0.00040       0.68169
    31    N    2  px     Ryd( 5p)     0.00011       4.35628
    32    N    2  py     Val( 2p)     1.29075      -0.25303
    33    N    2  py     Ryd( 4p)     0.00119       1.13484
    34    N    2  py     Ryd( 3p)     0.00032       0.72564
    35    N    2  py     Ryd( 5p)     0.00004       4.32753
    36    N    2  pz     Val( 2p)     1.66838      -0.25783
    37    N    2  pz     Ryd( 3p)     0.00550       0.51949
    38    N    2  pz     Ryd( 4p)     0.00059       0.64057
    39    N    2  pz     Ryd( 5p)     0.00000       3.81995
    40    N    2  dxy    Ryd( 3d)     0.00088       2.84083
    41    N    2  dxz    Ryd( 3d)     0.00045       2.22172
    42    N    2  dyz    Ryd( 3d)     0.00032       2.21334
    43    N    2  dx2y2  Ryd( 3d)     0.00072       2.86119
    44    N    2  dz2    Ryd( 3d)     0.00048       2.59282
 
    45    C    3  S      Cor( 1S)     1.99931     -10.07231
    46    C    3  S      Val( 2S)     1.06507      -0.25054
    47    C    3  S      Ryd( 4S)     0.00111       0.89026
    48    C    3  S      Ryd( 3S)     0.00009       0.69847
    49    C    3  S      Ryd( 5S)     0.00000      23.18026
    50    C    3  px     Val( 2p)     1.23114      -0.11656
    51    C    3  px     Ryd( 4p)     0.00316       0.62020
    52    C    3  px     Ryd( 3p)     0.00011       0.29624
    53    C    3  px     Ryd( 5p)     0.00003       3.04582
    54    C    3  py     Val( 2p)     0.86209      -0.08118
    55    C    3  py     Ryd( 4p)     0.00263       0.54587
    56    C    3  py     Ryd( 3p)     0.00021       0.26655
    57    C    3  py     Ryd( 5p)     0.00010       3.03514
    58    C    3  pz     Val( 2p)     1.19225      -0.11010
    59    C    3  pz     Ryd( 4p)     0.00111       0.55962
    60    C    3  pz     Ryd( 3p)     0.00023       0.24658
    61    C    3  pz     Ryd( 5p)     0.00004       3.00985
    62    C    3  dxy    Ryd( 3d)     0.00063       2.06396
    63    C    3  dxz    Ryd( 3d)     0.00077       2.07751
    64    C    3  dyz    Ryd( 3d)     0.00085       1.84358
    65    C    3  dx2y2  Ryd( 3d)     0.00120       2.17217
    66    C    3  dz2    Ryd( 3d)     0.00086       2.11270
 
    67    C    4  S      Cor( 1S)     1.99944     -10.15054
    68    C    4  S      Val( 2S)     0.84915      -0.16745
    69    C    4  S      Ryd( 3S)     0.01025       0.67069
    70    C    4  S      Ryd( 4S)     0.00031       0.80586
    71    C    4  S      Ryd( 5S)     0.00004      22.76374
    72    C    4  px     Val( 2p)     0.76638       0.00306
    73    C    4  px     Ryd( 4p)     0.01365       0.99559
    74    C    4  px     Ryd( 3p)     0.00052       0.55486
    75    C    4  px     Ryd( 5p)     0.00015       2.52952
    76    C    4  py     Val( 2p)     1.01205      -0.05984
    77    C    4  py     Ryd( 4p)     0.00495       1.16564
    78    C    4  py     Ryd( 3p)     0.00091       0.62059
    79    C    4  py     Ryd( 5p)     0.00015       2.41581
    80    C    4  pz     Val( 2p)     0.78663      -0.12337
    81    C    4  pz     Ryd( 4p)     0.00190       0.70900
    82    C    4  pz     Ryd( 3p)     0.00070       0.32423
    83    C    4  pz     Ryd( 5p)     0.00007       2.34718
    84    C    4  dxy    Ryd( 3d)     0.00259       2.49800
    85    C    4  dxz    Ryd( 3d)     0.00425       1.64454
    86    C    4  dyz    Ryd( 3d)     0.00074       1.53558
    87    C    4  dx2y2  Ryd( 3d)     0.00366       2.47915
    88    C    4  dz2    Ryd( 3d)     0.00062       1.97356
 
    89    O    5  S      Cor( 1S)     1.99977     -18.84098
    90    O    5  S      Val( 2S)     1.71103      -0.87510
    91    O    5  S      Ryd( 3S)     0.00479       0.80875
    92    O    5  S      Ryd( 4S)     0.00015       1.41011
    93    O    5  S      Ryd( 5S)     0.00000      49.75982
    94    O    5  px     Val( 2p)     1.61442      -0.27519
    95    O    5  px     Ryd( 3p)     0.00124       0.78677
    96    O    5  px     Ryd( 4p)     0.00010       0.90799
    97    O    5  px     Ryd( 5p)     0.00009       5.23777
    98    O    5  py     Val( 2p)     1.78970      -0.25501
    99    O    5  py     Ryd( 3p)     0.00256       0.69357
   100    O    5  py     Ryd( 4p)     0.00014       0.97989
   101    O    5  py     Ryd( 5p)     0.00003       4.99501
   102    O    5  pz     Val( 2p)     1.49174      -0.23854
   103    O    5  pz     Ryd( 3p)     0.00085       0.58338
   104    O    5  pz     Ryd( 4p)     0.00006       0.96089
   105    O    5  pz     Ryd( 5p)     0.00002       4.86135
   106    O    5  dxy    Ryd( 3d)     0.00127       3.43774
   107    O    5  dxz    Ryd( 3d)     0.00128       3.06190
   108    O    5  dyz    Ryd( 3d)     0.00034       2.91695
   109    O    5  dx2y2  Ryd( 3d)     0.00134       3.35664
   110    O    5  dz2    Ryd( 3d)     0.00039       3.09105
 
   111    H    6  S      Val( 1S)     0.81262       0.00534
   112    H    6  S      Ryd( 3S)     0.00124       0.50986
   113    H    6  S      Ryd( 4S)     0.00012       2.00342
   114    H    6  S      Ryd( 2S)     0.00010       0.43265
   115    H    6  px     Ryd( 2p)     0.00013       1.88882
   116    H    6  py     Ryd( 2p)     0.00016       1.75590
   117    H    6  pz     Ryd( 2p)     0.00035       2.46518
 
   118    H    7  S      Val( 1S)     0.79449       0.00384
   119    H    7  S      Ryd( 3S)     0.00097       0.67469
   120    H    7  S      Ryd( 2S)     0.00017       0.38161
   121    H    7  S      Ryd( 4S)     0.00011       1.85341
   122    H    7  px     Ryd( 2p)     0.00013       1.70567
   123    H    7  py     Ryd( 2p)     0.00038       2.62824
   124    H    7  pz     Ryd( 2p)     0.00017       1.72358
 
   125    H    8  S      Val( 1S)     0.80770       0.00583
   126    H    8  S      Ryd( 3S)     0.00117       0.47828
   127    H    8  S      Ryd( 4S)     0.00012       2.27830
   128    H    8  S      Ryd( 2S)     0.00008       0.18246
   129    H    8  px     Ryd( 2p)     0.00018       2.06513
   130    H    8  py     Ryd( 2p)     0.00017       1.78783
   131    H    8  pz     Ryd( 2p)     0.00029       2.24917
 
   132    H    9  S      Val( 1S)     0.81019       0.01145
   133    H    9  S      Ryd( 3S)     0.00091       0.48477
   134    H    9  S      Ryd( 4S)     0.00012       2.26947
   135    H    9  S      Ryd( 2S)     0.00006       0.20311
   136    H    9  px     Ryd( 2p)     0.00021       2.10052
   137    H    9  py     Ryd( 2p)     0.00013       1.78779
   138    H    9  pz     Ryd( 2p)     0.00028       2.23311
 
   139    H   10  S      Val( 1S)     0.81245       0.01276
   140    H   10  S      Ryd( 3S)     0.00106       0.49937
   141    H   10  S      Ryd( 4S)     0.00011       2.16001
   142    H   10  S      Ryd( 2S)     0.00008       0.31633
   143    H   10  px     Ryd( 2p)     0.00017       1.89317
   144    H   10  py     Ryd( 2p)     0.00013       1.75917
   145    H   10  pz     Ryd( 2p)     0.00033       2.48933
 
   146    H   11  S      Val( 1S)     0.76409       0.04060
   147    H   11  S      Ryd( 3S)     0.00113       0.76694
   148    H   11  S      Ryd( 4S)     0.00013       1.94514
   149    H   11  S      Ryd( 2S)     0.00010       0.27804
   150    H   11  px     Ryd( 2p)     0.00036       2.48932
   151    H   11  py     Ryd( 2p)     0.00013       1.88799
   152    H   11  pz     Ryd( 2p)     0.00014       1.75653
 
   153    H   12  S      Val( 1S)     0.88812      -0.02813
   154    H   12  S      Ryd( 2S)     0.00225       0.55344
   155    H   12  S      Ryd( 4S)     0.00032       1.28003
   156    H   12  S      Ryd( 3S)     0.00009       0.86577
   157    H   12  px     Ryd( 2p)     0.00011       1.90761
   158    H   12  py     Ryd( 2p)     0.00077       2.64164
   159    H   12  pz     Ryd( 2p)     0.00008       1.57128

 WARNING:  Population inversion found on atom  C    1
           Population inversion found on atom  N    2
           Population inversion found on atom  C    3
           Population inversion found on atom  C    4
           Population inversion found on atom  H    6
           Population inversion found on atom  H    7
           Population inversion found on atom  H    8
           Population inversion found on atom  H    9
           Population inversion found on atom  H   10
           Population inversion found on atom  H   11
           Population inversion found on atom  H   12


 Summary of Natural Population Analysis:                  
                                                          
                                       Natural Population 
                Natural  -----------------------------------------------
    Atom  No    Charge         Core      Valence    Rydberg      Total
 -----------------------------------------------------------------------
      C    1   -0.34649      1.99932     4.33590    0.01127     6.34649
      N    2   -0.50522      1.99938     5.49123    0.01461     7.50522
      C    3   -0.36299      1.99931     4.35055    0.01313     6.36299
      C    4    0.54089      1.99944     3.41421    0.04546     5.45911
      O    5   -0.62130      1.99977     6.60689    0.01464     8.62130
      H    6    0.18527      0.00000     0.81262    0.00211     0.81473
      H    7    0.20358      0.00000     0.79449    0.00193     0.79642
      H    8    0.19029      0.00000     0.80770    0.00202     0.80971
      H    9    0.18811      0.00000     0.81019    0.00169     0.81189
      H   10    0.18567      0.00000     0.81245    0.00189     0.81433
      H   11    0.23392      0.00000     0.76409    0.00199     0.76608
      H   12    0.10827      0.00000     0.88812    0.00362     0.89173
 =======================================================================
   * Total *   -0.00000      9.99721    29.88843    0.11436    40.00000

                                 Natural Population      
 --------------------------------------------------------
   Core                       9.99721 ( 99.9721% of  10)
   Valence                   29.88843 ( 99.6281% of  30)
   Natural Minimal Basis     39.88564 ( 99.7141% of  40)
   Natural Rydberg Basis      0.11436 (  0.2859% of  40)
 --------------------------------------------------------

    Atom  No          Natural Electron Configuration
 ----------------------------------------------------------------------------
      C    1      [core]2S( 1.06)2p( 3.27)4p( 0.01)
      N    2      [core]2S( 1.23)2p( 4.26)3p( 0.01)
      C    3      [core]2S( 1.07)2p( 3.29)4p( 0.01)
      C    4      [core]2S( 0.85)2p( 2.57)3S( 0.01)3d( 0.01)4p( 0.02)
      O    5      [core]2S( 1.71)2p( 4.90)
      H    6            1S( 0.81)
      H    7            1S( 0.79)
      H    8            1S( 0.81)
      H    9            1S( 0.81)
      H   10            1S( 0.81)
      H   11            1S( 0.76)
      H   12            1S( 0.89)


 NATURAL BOND ORBITAL ANALYSIS:

                       Occupancies       Lewis Structure    Low   High
           Occ.    -------------------  -----------------   occ   occ
  Cycle   Thresh.   Lewis   Non-Lewis     CR  BD  3C  LP    (L)   (NL)   Dev
 =============================================================================
   1(1)    1.90    39.02657   0.97343      5  13   0   2     3      2    0.19
   2(2)    1.90    38.80129   1.19871      5  13   0   2     3      2    0.18
   3(3)    1.90    38.15418   1.84582      5  14   0   1     2      2    1.19
   4(4)    1.90    38.80129   1.19871      5  13   0   2     3      2    0.18
   5(5)    1.90    38.15418   1.84582      5  14   0   1     2      2    1.19
   6(6)    1.90    38.80129   1.19871      5  13   0   2     3      2    0.18
   7(7)    1.90    38.15418   1.84582      5  14   0   1     2      2    1.19
   8(8)    1.90    38.80129   1.19871      5  13   0   2     3      2    0.18
   9(9)    1.90    38.15418   1.84582      5  14   0   1     2      2    1.19
  10(1)    1.80    39.38559   0.61441      5  12   0   3     1      1    0.19
  11(2)    1.80    39.14706   0.85294      5  12   0   3     1      1    0.69
  12(3)    1.80    39.38559   0.61441      5  12   0   3     1      1    0.19
  13(1)    1.70    38.85481   1.14519      5  13   0   2     2      2    0.19
  14(2)    1.70    39.14706   0.85294      5  12   0   3     1      1    0.69
  15(3)    1.70    38.85481   1.14519      5  13   0   2     2      2    0.19
  16(4)    1.70    39.14706   0.85294      5  12   0   3     1      1    0.69
  17(5)    1.70    38.85481   1.14519      5  13   0   2     2      2    0.19
  18(6)    1.70    39.14706   0.85294      5  12   0   3     1      1    0.69
  19(7)    1.70    38.85481   1.14519      5  13   0   2     2      2    0.19
  20(8)    1.70    39.14706   0.85294      5  12   0   3     1      1    0.69
  21(9)    1.70    38.85481   1.14519      5  13   0   2     2      2    0.19
  22(1)    1.60    39.38636   0.61364      5  12   0   3     0      1    0.19
  23(2)    1.60    39.38636   0.61364      5  12   0   3     0      1    0.19
  24(1)    1.50    39.38636   0.61364      5  12   0   3     0      1    0.19
  25(2)    1.50    39.38636   0.61364      5  12   0   3     0      1    0.19
  26(1)    1.60    39.38636   0.61364      5  12   0   3     0      1    0.19
 -----------------------------------------------------------------------------

 Structure accepted: RESONANCE keyword permits strongly delocalized structure

 --------------------------------------------------------
   Core                      9.99720 ( 99.972% of  10)
   Valence Lewis            29.38916 ( 97.964% of  30)
  ==================       ============================
   Total Lewis              39.38636 ( 98.466% of  40)
  -----------------------------------------------------
   Valence non-Lewis         0.54336 (  1.358% of  40)
   Rydberg non-Lewis         0.07028 (  0.176% of  40)
  ==================       ============================
   Total non-Lewis           0.61364 (  1.534% of  40)
 --------------------------------------------------------


       (Occupancy)   Bond orbital/ Coefficients/ Hybrids
 ---------------------------------------------------------------------------------
     1. (1.98985) BD ( 1) C   1 - N   2  
                ( 37.16%)   0.6096* C   1 s( 24.16%)p 3.13( 75.70%)d 0.01(  0.14%)
                                           -0.0001 -0.4907 -0.0295 -0.0003 -0.0004
                                           -0.7442  0.0392  0.0054  0.0034 -0.4456
                                            0.0212  0.0042  0.0030  0.0495 -0.0061
                                            0.0011  0.0005 -0.0278  0.0028  0.0015
                                           -0.0148  0.0190
                ( 62.84%)   0.7927* N   2 s( 32.72%)p 2.06( 67.25%)d 0.00(  0.03%)
                                            0.0001 -0.5720 -0.0080  0.0016 -0.0000
                                            0.6906 -0.0087 -0.0093 -0.0006  0.4397
                                           -0.0041 -0.0062 -0.0004 -0.0453 -0.0010
                                            0.0009  0.0003 -0.0134  0.0029  0.0021
                                           -0.0051  0.0108
     2. (1.98976) BD ( 1) C   1 - H   6  
                ( 59.68%)   0.7725* C   1 s( 25.04%)p 2.99( 74.90%)d 0.00(  0.06%)
                                           -0.0000  0.5003 -0.0086  0.0014  0.0001
                                           -0.3723  0.0054  0.0037 -0.0001  0.1585
                                            0.0139  0.0023  0.0000  0.7648  0.0084
                                            0.0027  0.0019 -0.0043 -0.0154  0.0075
                                            0.0008  0.0176
                ( 40.32%)   0.6350* H   6 s( 99.96%)p 0.00(  0.04%)
                                            0.9998  0.0034  0.0005 -0.0002  0.0079
                                           -0.0030 -0.0172
     3. (1.98911) BD ( 1) C   1 - H   7  
                ( 60.24%)   0.7761* C   1 s( 25.64%)p 2.90( 74.30%)d 0.00(  0.06%)
                                            0.0001 -0.5064  0.0027  0.0024  0.0003
                                           -0.1665 -0.0167  0.0007  0.0009  0.8421
                                            0.0093  0.0011  0.0003  0.0754  0.0013
                                            0.0004  0.0001  0.0104  0.0007 -0.0036
                                            0.0182  0.0113
                ( 39.76%)   0.6306* H   7 s( 99.96%)p 0.00(  0.04%)
                                           -0.9998 -0.0013 -0.0002  0.0004  0.0016
                                           -0.0205 -0.0019
     4. (1.99013) BD ( 1) C   1 - H   8  
                ( 59.85%)   0.7736* C   1 s( 25.25%)p 2.96( 74.69%)d 0.00(  0.06%)
                                           -0.0000  0.5024 -0.0061  0.0008 -0.0000
                                           -0.5250  0.0015  0.0021 -0.0004  0.2550
                                            0.0152  0.0015 -0.0001 -0.6371 -0.0076
                                           -0.0028 -0.0015 -0.0089  0.0189 -0.0096
                                            0.0035  0.0083
                ( 40.15%)   0.6336* H   8 s( 99.96%)p 0.00(  0.04%)
                                            0.9998  0.0028  0.0003 -0.0000  0.0118
                                           -0.0048  0.0148
     5. (1.98877) BD ( 1) N   2 - C   3  
                ( 63.22%)   0.7951* N   2 s( 32.33%)p 2.09( 67.64%)d 0.00(  0.03%)
                                           -0.0001  0.5686  0.0041 -0.0016  0.0000
                                           -0.0494  0.0018  0.0005 -0.0006  0.8202
                                           -0.0113 -0.0108 -0.0003  0.0304  0.0012
                                           -0.0008 -0.0004 -0.0017 -0.0002  0.0031
                                           -0.0131 -0.0110
                ( 36.78%)   0.6065* C   3 s( 23.91%)p 3.18( 75.95%)d 0.01(  0.14%)
                                            0.0002  0.4880  0.0300  0.0009  0.0005
                                            0.0667 -0.0054  0.0015  0.0008 -0.8668
                                            0.0461  0.0069  0.0019 -0.0386  0.0059
                                           -0.0016 -0.0005 -0.0030 -0.0001  0.0023
                                           -0.0318 -0.0187
     6. (1.98988) BD ( 1) N   2 - C   4  
                ( 63.98%)   0.7998* N   2 s( 34.57%)p 1.89( 65.39%)d 0.00(  0.04%)
                                           -0.0000  0.5880 -0.0035  0.0028  0.0000
                                            0.7209 -0.0112 -0.0077  0.0008 -0.3649
                                            0.0096  0.0023 -0.0007  0.0273  0.0012
                                           -0.0002 -0.0003 -0.0138  0.0028 -0.0014
                                            0.0108 -0.0106
                ( 36.02%)   0.6002* C   4 s( 33.04%)p 2.02( 66.84%)d 0.00(  0.12%)
                                            0.0001  0.5745 -0.0136  0.0152  0.0006
                                           -0.7012  0.0366  0.0053 -0.0035  0.4182
                                           -0.0115 -0.0013  0.0047 -0.0125  0.0048
                                           -0.0005 -0.0004 -0.0266  0.0004 -0.0005
                                            0.0172 -0.0144
     7. (1.98902) BD ( 1) C   3 - H   9  
                ( 59.60%)   0.7720* C   3 s( 24.90%)p 3.01( 75.03%)d 0.00(  0.06%)
                                           -0.0001  0.4990 -0.0059  0.0004 -0.0001
                                           -0.5415 -0.0117  0.0002  0.0002  0.2657
                                           -0.0123 -0.0016  0.0011 -0.6214 -0.0062
                                           -0.0020 -0.0005 -0.0067  0.0198 -0.0082
                                            0.0084  0.0070
                ( 40.40%)   0.6356* H   9 s( 99.96%)p 0.00(  0.04%)
                                            0.9998  0.0018  0.0004 -0.0002  0.0105
                                           -0.0072  0.0146
     8. (1.98847) BD ( 1) C   3 - H  10  
                ( 59.56%)   0.7718* C   3 s( 24.90%)p 3.01( 75.04%)d 0.00(  0.06%)
                                           -0.0001  0.4989 -0.0084  0.0012  0.0001
                                           -0.3202 -0.0088 -0.0003 -0.0003  0.2204
                                           -0.0143 -0.0035  0.0010  0.7739  0.0086
                                            0.0027  0.0011 -0.0028 -0.0149  0.0081
                                            0.0033  0.0182
                ( 40.44%)   0.6359* H  10 s( 99.96%)p 0.00(  0.04%)
                                            0.9998  0.0026  0.0005 -0.0003  0.0054
                                           -0.0053 -0.0172
     9. (1.98948) BD ( 1) C   3 - H  11  
                ( 61.79%)   0.7861* C   3 s( 26.38%)p 2.79( 73.56%)d 0.00(  0.06%)
                                           -0.0001  0.5136 -0.0027 -0.0020 -0.0003
                                            0.7735  0.0177  0.0011 -0.0006  0.3529
                                           -0.0025  0.0022  0.0013 -0.1112 -0.0038
                                           -0.0014 -0.0004  0.0148 -0.0045 -0.0025
                                            0.0153 -0.0101
                ( 38.21%)   0.6182* H  11 s( 99.96%)p 0.00(  0.04%)
                                            0.9998  0.0016  0.0002 -0.0002 -0.0189
                                           -0.0069  0.0021
    10. (1.99754) BD ( 1) C   4 - O   5  
                ( 29.63%)   0.5444* C   4 s(  1.15%)p85.49( 98.40%)d 0.39(  0.45%)
                                            0.0000  0.1067 -0.0113  0.0009 -0.0001
                                            0.0994 -0.0157 -0.0021  0.0006  0.0501
                                           -0.0038 -0.0011  0.0010  0.9847  0.0347
                                            0.0205 -0.0020  0.0031  0.0588  0.0327
                                            0.0021  0.0007
                ( 70.37%)   0.8388* O   5 s(  1.30%)p75.85( 98.59%)d 0.09(  0.11%)
                                            0.0000  0.1137 -0.0078  0.0002  0.0000
                                           -0.1508  0.0032 -0.0002 -0.0001 -0.0896
                                            0.0019 -0.0003 -0.0001  0.9773 -0.0051
                                            0.0014 -0.0037  0.0053 -0.0290 -0.0143
                                            0.0037 -0.0048
    11. (1.99545) BD ( 2) C   4 - O   5  
                ( 35.51%)   0.5959* C   4 s( 33.60%)p 1.97( 66.22%)d 0.01(  0.18%)
                                           -0.0001  0.5751 -0.0717 -0.0046 -0.0021
                                            0.6987 -0.0698 -0.0007  0.0027  0.3811
                                           -0.0163 -0.0068  0.0005 -0.1533 -0.0094
                                           -0.0040  0.0004  0.0314 -0.0085 -0.0050
                                            0.0175 -0.0213
                ( 64.49%)   0.8030* O   5 s( 38.02%)p 1.63( 61.87%)d 0.00(  0.11%)
                                            0.0000  0.6149 -0.0455  0.0017 -0.0000
                                           -0.6772  0.0181  0.0006 -0.0010 -0.3414
                                            0.0105 -0.0026 -0.0010 -0.2078  0.0018
                                           -0.0003  0.0006  0.0223  0.0072  0.0035
                                            0.0177 -0.0147
    12. (1.98233) BD ( 1) C   4 - H  12  
                ( 57.00%)   0.7550* C   4 s( 32.71%)p 2.05( 67.20%)d 0.00(  0.08%)
                                            0.0004 -0.5696 -0.0510  0.0071 -0.0005
                                            0.0237  0.0213  0.0001 -0.0028  0.8183
                                            0.0237 -0.0235 -0.0022  0.0174  0.0008
                                           -0.0006 -0.0002 -0.0062  0.0005 -0.0008
                                            0.0260  0.0104
                ( 43.00%)   0.6557* H  12 s( 99.94%)p 0.00(  0.06%)
                                           -0.9996 -0.0093 -0.0009  0.0003  0.0034
                                           -0.0246 -0.0005
    13. (1.99932) CR ( 1) C   1           s(100.00%)p 0.00(  0.00%)
                                            1.0000  0.0000 -0.0000 -0.0000 -0.0000
                                           -0.0001  0.0000  0.0000  0.0000 -0.0001
                                            0.0000  0.0000  0.0000  0.0000 -0.0000
                                            0.0000  0.0000 -0.0000  0.0000  0.0000
                                           -0.0000  0.0000
    14. (1.99938) CR ( 1) N   2           s(100.00%)p 0.00(  0.00%)
                                            1.0000  0.0001  0.0000 -0.0000 -0.0000
                                           -0.0001  0.0000  0.0000  0.0000 -0.0000
                                            0.0000  0.0000  0.0000  0.0002  0.0000
                                            0.0000  0.0000  0.0000  0.0000 -0.0000
                                           -0.0000 -0.0000
    15. (1.99930) CR ( 1) C   3           s(100.00%)p 0.00(  0.00%)
                                            1.0000  0.0000 -0.0000 -0.0000 -0.0000
                                           -0.0000  0.0000 -0.0000 -0.0000  0.0002
                                           -0.0000 -0.0000 -0.0000 -0.0000 -0.0000
                                            0.0000  0.0000  0.0000  0.0000 -0.0000
                                            0.0000  0.0000
    16. (1.99944) CR ( 1) C   4           s(100.00%)p 0.00(  0.00%)
                                            1.0000  0.0002  0.0000 -0.0000 -0.0000
                                            0.0001 -0.0000 -0.0000  0.0000 -0.0003
                                           -0.0000  0.0000  0.0000 -0.0000 -0.0000
                                           -0.0000  0.0000  0.0000 -0.0000 -0.0000
                                           -0.0000 -0.0000
    17. (1.99977) CR ( 1) O   5           s(100.00%)p 0.00(  0.00%)
                                            1.0000  0.0003  0.0000  0.0000  0.0000
                                            0.0003 -0.0000 -0.0000  0.0000  0.0000
                                           -0.0000 -0.0000  0.0000  0.0000 -0.0000
                                           -0.0000  0.0000 -0.0000 -0.0000 -0.0000
                                           -0.0000  0.0000
    18. (1.67189) LP ( 1) N   2           s(  0.35%)p99.99( 99.64%)d 0.03(  0.01%)
                                            0.0002  0.0593 -0.0025  0.0027  0.0002
                                           -0.0131  0.0008 -0.0010 -0.0000 -0.0050
                                           -0.0024 -0.0004  0.0000 -0.9976 -0.0243
                                           -0.0180 -0.0008 -0.0001 -0.0081  0.0056
                                            0.0005 -0.0026
    19. (1.98464) LP ( 1) O   5           s( 60.91%)p 0.64( 39.08%)d 0.00(  0.01%)
                                           -0.0004  0.7801  0.0238 -0.0008  0.0000
                                            0.5587 -0.0046 -0.0030  0.0051  0.2795
                                           -0.0029 -0.0017  0.0025  0.0213 -0.0003
                                           -0.0001  0.0002 -0.0063 -0.0006 -0.0003
                                           -0.0054  0.0061
    20. (1.85284) LP ( 2) O   5           s(  0.01%)p 1.00( 99.92%)d 0.00(  0.07%)
                                           -0.0001 -0.0030 -0.0031  0.0061 -0.0001
                                            0.4509  0.0074 -0.0032 -0.0022 -0.8920
                                           -0.0128 -0.0039  0.0009 -0.0119 -0.0002
                                           -0.0002 -0.0001  0.0161 -0.0002  0.0010
                                           -0.0211  0.0007
    21. (0.00271) RY*( 1) C   1           s(  0.64%)p99.99( 88.69%)d16.65( 10.67%)
                                           -0.0000  0.0027  0.0698 -0.0387 -0.0059
                                           -0.0138  0.4852 -0.0917 -0.0092  0.0218
                                           -0.7957  0.0839  0.0438  0.0012 -0.0106
                                            0.0097 -0.0012  0.1354  0.0412  0.0080
                                           -0.2942 -0.0074
    22. (0.00099) RY*( 2) C   1           s(  2.44%)p 7.19( 17.56%)d32.78( 80.00%)
                                           -0.0000  0.0014 -0.1073  0.1135  0.0010
                                            0.0095  0.2064  0.1000 -0.0646  0.0063
                                            0.0831  0.0619 -0.0143 -0.0191  0.2856
                                           -0.1419  0.0749  0.0073 -0.7798 -0.4223
                                           -0.0734  0.0900
    23. (0.00057) RY*( 3) C   1           s(  6.53%)p13.53( 88.37%)d 0.78(  5.09%)
                                            0.0000 -0.0074  0.2534  0.0291  0.0147
                                           -0.0463 -0.7911 -0.0347  0.1670 -0.0268
                                           -0.4446  0.0772  0.0471  0.0006  0.1130
                                           -0.0850 -0.0106  0.0726 -0.1894 -0.0972
                                           -0.0145  0.0119
    24. (0.00027) RY*( 4) C   1           s( 31.10%)p 1.90( 59.23%)d 0.31(  9.67%)
                                            0.0000 -0.0023  0.3089  0.4606 -0.0586
                                           -0.0121 -0.0154  0.4825 -0.2508 -0.0061
                                            0.0350  0.1691 -0.2811  0.0042 -0.4127
                                            0.1301  0.0062  0.2589 -0.0349 -0.0305
                                           -0.1066 -0.1273
    25. (0.00017) RY*( 5) C   1           s( 30.21%)p 1.66( 50.12%)d 0.65( 19.67%)
                                           -0.0000 -0.0008  0.4191 -0.3438 -0.0908
                                            0.0018  0.0703 -0.1137 -0.0947  0.0061
                                            0.1203  0.6563  0.1105  0.0022 -0.0869
                                            0.0957  0.0142 -0.3989 -0.0827 -0.0390
                                           -0.0064 -0.1709
    26. (0.00010) RY*( 6) C   1           s( 14.74%)p 4.72( 69.66%)d 1.06( 15.60%)
    27. (0.00005) RY*( 7) C   1           s(  7.78%)p 7.71( 60.03%)d 4.14( 32.19%)
    28. (0.00003) RY*( 8) C   1           s(  0.50%)p81.73( 40.61%)d99.99( 58.89%)
    29. (0.00000) RY*( 9) C   1           s(  5.81%)p15.87( 92.14%)d 0.35(  2.05%)
    30. (0.00000) RY*(10) C   1           s( 97.35%)p 0.02(  2.04%)d 0.01(  0.61%)
    31. (0.00000) RY*(11) C   1           s(  0.62%)p92.23( 56.73%)d69.36( 42.66%)
    32. (0.00000) RY*(12) C   1           s(  0.33%)p99.99( 95.25%)d13.20(  4.41%)
    33. (0.00000) RY*(13) C   1           s( 12.38%)p 1.49( 18.43%)d 5.59( 69.19%)
    34. (0.00000) RY*(14) C   1           s( 37.59%)p 1.58( 59.36%)d 0.08(  3.05%)
    35. (0.00000) RY*(15) C   1           s( 39.42%)p 1.27( 49.90%)d 0.27( 10.68%)
    36. (0.00001) RY*(16) C   1           s(  3.03%)p12.44( 37.70%)d19.56( 59.27%)
    37. (0.00001) RY*(17) C   1           s(  9.45%)p 1.54( 14.58%)d 8.04( 75.98%)
    38. (0.00478) RY*( 1) N   2           s(  2.26%)p41.95( 94.71%)d 1.34(  3.03%)
                                            0.0000 -0.0022  0.1445 -0.0409 -0.0026
                                            0.0004 -0.0022 -0.0140  0.0068  0.0004
                                            0.0484  0.0094 -0.0071 -0.0240  0.9664
                                           -0.0986 -0.0113  0.0133  0.1406 -0.0900
                                           -0.0171 -0.0441
    39. (0.00225) RY*( 2) N   2           s( 29.45%)p 2.25( 66.29%)d 0.14(  4.27%)
                                           -0.0000 -0.0023  0.5407 -0.0461  0.0012
                                            0.0074  0.6571 -0.2530  0.1063  0.0004
                                            0.3706 -0.0019 -0.0887  0.0003 -0.1000
                                            0.0214  0.0074 -0.1297 -0.0099  0.0236
                                           -0.1588  0.0004
    40. (0.00148) RY*( 3) N   2           s( 49.73%)p 0.63( 31.47%)d 0.38( 18.80%)
                                           -0.0000 -0.0045  0.7011  0.0756 -0.0008
                                            0.0089 -0.5016  0.1750  0.1203 -0.0016
                                            0.0025 -0.0530 -0.0551  0.0007 -0.1091
                                           -0.0091  0.0071  0.4048 -0.0277  0.0029
                                           -0.1320 -0.0771
    41. (0.00090) RY*( 4) N   2           s( 12.34%)p 5.76( 71.15%)d 1.34( 16.51%)
                                           -0.0000  0.0001  0.2870  0.2021  0.0135
                                            0.0025  0.1833 -0.1572  0.1385 -0.0007
                                           -0.7355  0.3042 -0.0198  0.0014  0.0041
                                            0.0058  0.0053 -0.1040  0.0012 -0.0305
                                            0.3901  0.0343
    42. (0.00026) RY*( 5) N   2           s( 17.08%)p 1.59( 27.08%)d 3.27( 55.84%)
                                            0.0000 -0.0024  0.0877  0.4037 -0.0123
                                           -0.0224 -0.3458 -0.1900  0.0857  0.0084
                                            0.3079 -0.0644 -0.0152 -0.0028 -0.0705
                                            0.0547 -0.0030 -0.5136  0.4658 -0.0367
                                            0.2741 -0.0330
    43. (0.00022) RY*( 6) N   2           s(  0.52%)p 7.83(  4.10%)d99.99( 95.38%)
                                            0.0000  0.0001 -0.0287  0.0655  0.0109
                                            0.0024  0.0740  0.0791  0.0762  0.0018
                                            0.0787 -0.0598 -0.0470  0.0041  0.0736
                                           -0.0774  0.0046  0.1679  0.0863  0.9206
                                            0.2630  0.0378
    44. (0.00022) RY*( 7) N   2           s(  7.02%)p 1.14(  7.97%)d12.12( 85.02%)
                                            0.0000 -0.0023  0.0484  0.2602 -0.0103
                                           -0.0058 -0.1279  0.0026  0.0125  0.0062
                                            0.1964 -0.0376 -0.0231  0.0059  0.1182
                                           -0.0925 -0.0004 -0.2627 -0.8559  0.0200
                                            0.2196 -0.0022
    45. (0.00018) RY*( 8) N   2           s(  1.71%)p13.71( 23.48%)d43.68( 74.80%)
                                           -0.0000 -0.0019  0.0945  0.0806 -0.0412
                                           -0.0047 -0.1299 -0.0057 -0.2377 -0.0135
                                           -0.2231  0.2450  0.2209  0.0030  0.0214
                                           -0.0463 -0.0071 -0.4403 -0.0356  0.3426
                                           -0.6447 -0.1411
    46. (0.00006) RY*( 9) N   2           s(  2.64%)p24.53( 64.66%)d12.41( 32.71%)
    47. (0.00004) RY*(10) N   2           s( 29.46%)p 2.01( 59.08%)d 0.39( 11.46%)
    48. (0.00003) RY*(11) N   2           s( 41.28%)p 1.22( 50.19%)d 0.21(  8.53%)
    49. (0.00000) RY*(12) N   2           s(  0.01%)p99.99( 99.97%)d 1.57(  0.02%)
    50. (0.00000) RY*(13) N   2           s( 98.39%)p 0.01(  1.09%)d 0.01(  0.52%)
    51. (0.00000) RY*(14) N   2           s(  0.96%)p96.89( 92.54%)d 6.81(  6.51%)
    52. (0.00001) RY*(15) N   2           s(  4.24%)p19.03( 80.60%)d 3.58( 15.17%)
    53. (0.00000) RY*(16) N   2           s(  0.19%)p99.99( 98.13%)d 8.90(  1.68%)
    54. (0.00000) RY*(17) N   2           s(  2.76%)p10.01( 27.59%)d25.26( 69.65%)
    55. (0.00295) RY*( 1) C   3           s(  0.38%)p99.99( 90.87%)d23.15(  8.75%)
                                            0.0000 -0.0038  0.0486  0.0367  0.0074
                                            0.0244 -0.9351  0.1412  0.0405  0.0093
                                            0.0548 -0.0706  0.0048  0.0004 -0.0567
                                           -0.0272 -0.0118 -0.2909 -0.0081 -0.0358
                                            0.0377 -0.0099
    56. (0.00197) RY*( 2) C   3           s(  7.64%)p 7.83( 59.87%)d 4.25( 32.49%)
                                            0.0000 -0.0028  0.2447 -0.1276 -0.0154
                                           -0.0099  0.0629 -0.0811  0.0208  0.0185
                                            0.3266  0.0247 -0.0365  0.0194 -0.6730
                                           -0.1016 -0.1224  0.0518  0.0763 -0.5578
                                           -0.0233 -0.0685
    57. (0.00107) RY*( 3) C   3           s( 15.89%)p 4.61( 73.19%)d 0.69( 10.92%)
                                            0.0000 -0.0085  0.3967  0.0367  0.0085
                                           -0.0129  0.0041 -0.1100  0.0673  0.0502
                                            0.7666 -0.2192 -0.0642 -0.0030  0.2616
                                            0.0288  0.0584  0.1171 -0.0574  0.3022
                                           -0.0233 -0.0192
    58. (0.00027) RY*( 4) C   3           s( 29.30%)p 2.27( 66.60%)d 0.14(  4.09%)
                                           -0.0000  0.0002  0.4101  0.3484 -0.0585
                                           -0.0011  0.0609  0.0439 -0.0241 -0.0039
                                           -0.2902 -0.4792  0.4168  0.0021 -0.1258
                                            0.3919  0.0526  0.0035  0.0271 -0.0233
                                            0.0588 -0.1902
    59. (0.00021) RY*( 5) C   3           s(  1.61%)p51.79( 83.40%)d 9.31( 14.99%)
                                           -0.0000 -0.0006  0.0993  0.0680 -0.0403
                                           -0.0026 -0.0203 -0.1358 -0.0011 -0.0007
                                           -0.1497 -0.1381  0.2857 -0.0026 -0.2136
                                           -0.8020  0.0560  0.1034 -0.1512  0.3255
                                           -0.0794 -0.0638
    60. (0.00011) RY*( 6) C   3           s( 29.10%)p 1.21( 35.07%)d 1.23( 35.83%)
                                           -0.0000  0.0008  0.5090 -0.1788  0.0008
                                           -0.0016  0.0495  0.0494 -0.1634 -0.0178
                                           -0.2626 -0.0215 -0.4122  0.0030  0.1835
                                           -0.2134  0.0141 -0.0783  0.0344 -0.0855
                                            0.5862  0.0078
    61. (0.00005) RY*( 7) C   3           s(  0.71%)p52.47( 37.49%)d86.49( 61.79%)
    62. (0.00003) RY*( 8) C   3           s( 24.76%)p 2.33( 57.78%)d 0.71( 17.46%)
    63. (0.00002) RY*( 9) C   3           s(  9.98%)p 3.98( 39.71%)d 5.04( 50.31%)
    64. (0.00000) RY*(10) C   3           s(  1.58%)p46.45( 73.58%)d15.68( 24.84%)
    65. (0.00000) RY*(11) C   3           s( 99.18%)p 0.01(  0.54%)d 0.00(  0.28%)
    66. (0.00000) RY*(12) C   3           s(  0.42%)p99.99( 85.93%)d32.64( 13.66%)
    67. (0.00001) RY*(13) C   3           s( 36.59%)p 1.21( 44.30%)d 0.52( 19.12%)
    68. (0.00000) RY*(14) C   3           s( 19.66%)p 3.34( 65.76%)d 0.74( 14.57%)
    69. (0.00000) RY*(15) C   3           s(  0.48%)p99.99( 54.07%)d93.77( 45.45%)
    70. (0.00000) RY*(16) C   3           s( 20.31%)p 1.21( 24.49%)d 2.72( 55.20%)
    71. (0.00000) RY*(17) C   3           s(  2.31%)p 3.36(  7.77%)d38.85( 89.91%)
    72. (0.01255) RY*( 1) C   4           s( 11.22%)p 7.57( 85.00%)d 0.34(  3.78%)
                                            0.0000  0.0457  0.3256  0.0570 -0.0293
                                            0.0839  0.8430 -0.0155  0.0698  0.0094
                                            0.3454 -0.0671  0.0288  0.0049  0.0491
                                            0.0041 -0.0014 -0.0950 -0.0348 -0.0100
                                            0.1655  0.0094
    73. (0.00790) RY*( 2) C   4           s( 30.09%)p 0.59( 17.86%)d 1.73( 52.05%)
                                            0.0000  0.0156  0.5452 -0.0574 -0.0061
                                           -0.0047 -0.1573 -0.2104  0.0391  0.0669
                                            0.2878  0.1378  0.0312 -0.0039 -0.0227
                                           -0.0132  0.0118  0.4094  0.0644  0.0316
                                           -0.5887  0.0336
    74. (0.00575) RY*( 3) C   4           s(  0.45%)p12.53(  5.62%)d99.99( 93.93%)
                                            0.0000  0.0014 -0.0254  0.0619 -0.0009
                                            0.0040  0.0249 -0.0476 -0.0209 -0.0053
                                            0.0228  0.0026  0.0197 -0.0515 -0.1468
                                           -0.1524  0.0671 -0.0701  0.9592  0.0767
                                            0.0663  0.0632
    75. (0.00306) RY*( 4) C   4           s( 16.63%)p 4.24( 70.46%)d 0.78( 12.90%)
                                            0.0000 -0.0072  0.3997  0.0805  0.0046
                                            0.0427  0.1691  0.1871  0.0713  0.0470
                                           -0.7537  0.2169  0.1213 -0.0031  0.0464
                                           -0.0012  0.0011 -0.2677  0.0268  0.0031
                                           -0.2336  0.0450
    76. (0.00047) RY*( 5) C   4           s( 24.53%)p 2.37( 58.02%)d 0.71( 17.45%)
                                            0.0000  0.0058  0.4711  0.1265  0.0855
                                            0.0062 -0.3982  0.2730 -0.0088  0.0186
                                            0.2124 -0.1463 -0.0600 -0.0232  0.5056
                                           -0.0146 -0.1421 -0.2352  0.0634 -0.0098
                                            0.3262  0.0930
    77. (0.00037) RY*( 6) C   4           s( 11.42%)p 6.48( 73.94%)d 1.28( 14.64%)
                                            0.0000  0.0048  0.3229  0.0881 -0.0458
                                            0.0066 -0.2186  0.0743 -0.1209  0.0154
                                            0.1410 -0.0041  0.1104  0.0325 -0.7653
                                            0.1065  0.2027 -0.2853 -0.1456  0.0190
                                            0.2084  0.0037
    78. (0.00016) RY*( 7) C   4           s(  7.52%)p 8.03( 60.38%)d 4.27( 32.11%)
                                           -0.0000  0.0058  0.1335 -0.0611  0.2314
                                           -0.0132  0.0316  0.1066  0.3770  0.0043
                                           -0.2208 -0.2241 -0.5396  0.0062 -0.1838
                                           -0.0393  0.1535  0.3985 -0.0218  0.0839
                                            0.2261  0.3219
    79. (0.00007) RY*( 8) C   4           s( 17.73%)p 2.61( 46.23%)d 2.03( 36.04%)
    80. (0.00003) RY*( 9) C   4           s(  4.04%)p15.48( 62.53%)d 8.28( 33.43%)
    81. (0.00001) RY*(10) C   4           s(  0.57%)p 4.42(  2.53%)d99.99( 96.90%)
    82. (0.00000) RY*(11) C   4           s(  0.03%)p99.99( 96.15%)d99.99(  3.81%)
    83. (0.00000) RY*(12) C   4           s(  0.07%)p99.99( 99.28%)d 9.96(  0.66%)
    84. (0.00000) RY*(13) C   4           s(  4.80%)p16.62( 79.80%)d 3.21( 15.40%)
    85. (0.00000) RY*(14) C   4           s( 93.22%)p 0.04(  3.64%)d 0.03(  3.14%)
    86. (0.00000) RY*(15) C   4           s( 57.88%)p 0.01(  0.40%)d 0.72( 41.72%)
    87. (0.00000) RY*(16) C   4           s(  8.91%)p 8.26( 73.53%)d 1.97( 17.57%)
    88. (0.00000) RY*(17) C   4           s( 10.39%)p 6.35( 65.98%)d 2.28( 23.63%)
    89. (0.00300) RY*( 1) O   5           s( 10.01%)p 8.86( 88.73%)d 0.13(  1.25%)
                                           -0.0000  0.0023  0.2922  0.1212  0.0011
                                           -0.0181  0.4382 -0.1069 -0.0088  0.0037
                                           -0.8188 -0.1053 -0.0379 -0.0007 -0.0233
                                           -0.0022 -0.0028 -0.0396  0.0006 -0.0023
                                            0.1048  0.0004
    90. (0.00100) RY*( 2) O   5           s(  2.00%)p48.15( 96.26%)d 0.87(  1.74%)
                                           -0.0000  0.0020  0.1385 -0.0283  0.0009
                                           -0.0074 -0.1108 -0.0289  0.0061 -0.0051
                                           -0.0383  0.0124  0.0091  0.0087  0.9410
                                           -0.2394  0.0686  0.0054  0.1287 -0.0267
                                            0.0026  0.0113
    91. (0.00083) RY*( 3) O   5           s( 82.78%)p 0.20( 16.45%)d 0.01(  0.77%)
                                           -0.0000  0.0102  0.9056  0.0862 -0.0063
                                           -0.0390 -0.0501  0.0764  0.0703 -0.0278
                                            0.2646  0.2370  0.0888 -0.0033 -0.1158
                                            0.0375 -0.0048 -0.0692 -0.0161  0.0007
                                           -0.0511  0.0064
    92. (0.00013) RY*( 4) O   5           s(  8.36%)p10.77( 90.08%)d 0.19(  1.55%)
                                            0.0000 -0.0100 -0.0476  0.2848  0.0113
                                            0.0220  0.7741 -0.1417 -0.1332  0.0112
                                            0.4847 -0.0877 -0.0796  0.0021  0.1180
                                           -0.0170  0.0024  0.0116  0.0198 -0.0002
                                            0.1151 -0.0418
    93. (0.00005) RY*( 5) O   5           s( 24.90%)p 1.45( 36.17%)d 1.56( 38.93%)
    94. (0.00003) RY*( 6) O   5           s( 11.51%)p 6.77( 77.97%)d 0.91( 10.52%)
    95. (0.00001) RY*( 7) O   5           s(  8.61%)p10.18( 87.68%)d 0.43(  3.70%)
    96. (0.00000) RY*( 8) O   5           s( 11.09%)p 6.79( 75.33%)d 1.22( 13.58%)
    97. (0.00000) RY*( 9) O   5           s(  2.50%)p38.27( 95.57%)d 0.77(  1.93%)
    98. (0.00000) RY*(10) O   5           s( 99.60%)p 0.00(  0.36%)d 0.00(  0.04%)
    99. (0.00000) RY*(11) O   5           s(  0.39%)p99.99( 99.50%)d 0.31(  0.12%)
   100. (0.00000) RY*(12) O   5           s(  0.00%)p 1.00( 99.95%)d 0.00(  0.04%)
   101. (0.00000) RY*(13) O   5           s( 30.88%)p 0.69( 21.31%)d 1.55( 47.81%)
   102. (0.00000) RY*(14) O   5           s(  0.00%)p 1.00(  1.89%)d51.96( 98.11%)
   103. (0.00000) RY*(15) O   5           s(  0.02%)p10.01(  0.21%)d99.99( 99.77%)
   104. (0.00000) RY*(16) O   5           s(  4.23%)p 1.69(  7.15%)d20.93( 88.62%)
   105. (0.00001) RY*(17) O   5           s(  2.88%)p 2.05(  5.91%)d31.63( 91.21%)
   106. (0.00127) RY*( 1) H   6           s( 98.76%)p 0.01(  1.24%)
                                           -0.0020  0.9938  0.0056 -0.0017  0.0071
                                            0.0917  0.0626
   107. (0.00018) RY*( 2) H   6           s( 45.02%)p 1.22( 54.98%)
                                            0.0058 -0.0823  0.6643 -0.0459  0.2856
                                            0.5740  0.3725
   108. (0.00014) RY*( 3) H   6           s( 23.85%)p 3.19( 76.15%)
                                           -0.0009  0.0369  0.2090  0.4398  0.5061
                                           -0.6459  0.2969
   109. (0.00009) RY*( 4) H   6           s( 69.07%)p 0.45( 30.93%)
   110. (0.00007) RY*( 5) H   6           s( 51.19%)p 0.95( 48.81%)
   111. (0.00004) RY*( 6) H   6           s( 12.14%)p 7.23( 87.86%)
   112. (0.00100) RY*( 1) H   7           s( 96.99%)p 0.03(  3.01%)
                                           -0.0014  0.9848  0.0074  0.0055 -0.1733
                                           -0.0063  0.0033
   113. (0.00018) RY*( 2) H   7           s( 82.62%)p 0.21( 17.38%)
                                            0.0001 -0.0808  0.8882  0.1753 -0.4151
                                           -0.0360 -0.0130
   114. (0.00018) RY*( 3) H   7           s(  1.95%)p50.39( 98.05%)
                                           -0.0003  0.0156  0.0410  0.1324  0.1158
                                           -0.0684  0.9810
   115. (0.00013) RY*( 4) H   7           s( 80.45%)p 0.24( 19.55%)
                                           -0.0031 -0.0741 -0.3574  0.8193 -0.4158
                                            0.1459 -0.0352
   116. (0.00007) RY*( 5) H   7           s( 32.71%)p 2.06( 67.29%)
   117. (0.00003) RY*( 6) H   7           s(  5.32%)p17.79( 94.68%)
   118. (0.00119) RY*( 1) H   8           s( 99.20%)p 0.01(  0.80%)
                                           -0.0016  0.9960  0.0021 -0.0000 -0.0298
                                            0.0765 -0.0352
   119. (0.00016) RY*( 2) H   8           s( 51.21%)p 0.95( 48.79%)
                                            0.0044 -0.0372  0.6856  0.2015  0.3520
                                            0.3913 -0.4593
   120. (0.00014) RY*( 3) H   8           s(  4.15%)p23.09( 95.85%)
                                           -0.0029  0.0648  0.1291  0.1436  0.2555
                                           -0.8917 -0.3133
   121. (0.00010) RY*( 4) H   8           s( 82.43%)p 0.21( 17.57%)
   122. (0.00006) RY*( 5) H   8           s( 41.06%)p 1.44( 58.94%)
   123. (0.00004) RY*( 6) H   8           s( 21.98%)p 3.55( 78.02%)
   124. (0.00091) RY*( 1) H   9           s( 99.92%)p 0.00(  0.08%)
                                           -0.0018  0.9996  0.0025  0.0001  0.0119
                                           -0.0181 -0.0192
   125. (0.00017) RY*( 2) H   9           s( 42.04%)p 1.38( 57.96%)
                                            0.0016 -0.0235  0.6436  0.0751  0.2268
                                           -0.4976 -0.5297
   126. (0.00013) RY*( 3) H   9           s(  3.59%)p26.87( 96.41%)
                                            0.0014  0.0070  0.1891  0.0095 -0.8330
                                           -0.4358  0.2833
   127. (0.00007) RY*( 4) H   9           s( 66.55%)p 0.50( 33.45%)
   128. (0.00006) RY*( 5) H   9           s( 57.14%)p 0.75( 42.86%)
   129. (0.00003) RY*( 6) H   9           s( 30.80%)p 2.25( 69.20%)
   130. (0.00108) RY*( 1) H  10           s( 98.63%)p 0.01(  1.37%)
                                           -0.0027  0.9931  0.0077 -0.0017  0.0316
                                           -0.1069  0.0354
   131. (0.00019) RY*( 2) H  10           s( 37.24%)p 1.69( 62.76%)
                                            0.0029 -0.0926  0.5955 -0.0956  0.3069
                                           -0.5768  0.4480
   132. (0.00014) RY*( 3) H  10           s(  7.90%)p11.66( 92.10%)
                                           -0.0029  0.0017 -0.1874  0.2095  0.9180
                                            0.2786  0.0239
   133. (0.00009) RY*( 4) H  10           s( 86.39%)p 0.16( 13.61%)
   134. (0.00006) RY*( 5) H  10           s( 54.19%)p 0.85( 45.81%)
   135. (0.00003) RY*( 6) H  10           s( 15.68%)p 5.38( 84.32%)
   136. (0.00117) RY*( 1) H  11           s( 96.55%)p 0.04(  3.45%)
                                           -0.0029  0.9825 -0.0058 -0.0111 -0.1180
                                            0.1434  0.0003
   137. (0.00018) RY*( 2) H  11           s( 51.88%)p 0.93( 48.12%)
                                            0.0033  0.1313  0.4222  0.5686  0.4000
                                           -0.5095  0.2484
   138. (0.00015) RY*( 3) H  11           s( 33.50%)p 1.98( 66.50%)
                                            0.0015  0.0086  0.5689 -0.1066  0.0067
                                           -0.0373 -0.8146
   139. (0.00012) RY*( 4) H  11           s( 67.48%)p 0.48( 32.52%)
                                            0.0020 -0.0302  0.6405 -0.5135  0.0785
                                            0.2568  0.5031
   140. (0.00004) RY*( 5) H  11           s( 23.34%)p 3.28( 76.66%)
   141. (0.00002) RY*( 6) H  11           s( 27.28%)p 2.67( 72.72%)
   142. (0.00242) RY*( 1) H  12           s( 95.71%)p 0.04(  4.29%)
                                           -0.0046  0.9783  0.0051 -0.0019  0.1236
                                           -0.1660  0.0056
   143. (0.00032) RY*( 2) H  12           s( 98.92%)p 0.01(  1.08%)
                                            0.0008 -0.0159  0.9944 -0.0054  0.0023
                                           -0.0641 -0.0818
   144. (0.00011) RY*( 3) H  12           s( 60.61%)p 0.65( 39.39%)
                                           -0.0130  0.0592  0.0345  0.7754  0.2880
                                            0.5535 -0.0679
   145. (0.00007) RY*( 4) H  12           s(  1.28%)p76.98( 98.72%)
   146. (0.00006) RY*( 5) H  12           s( 36.47%)p 1.74( 63.53%)
   147. (0.00006) RY*( 6) H  12           s(  7.07%)p13.14( 92.93%)
   148. (0.01622) BD*( 1) C   1 - N   2  
                ( 62.84%)   0.7927* C   1 s( 24.16%)p 3.13( 75.70%)d 0.01(  0.14%)
                                           -0.0001 -0.4907 -0.0295 -0.0003 -0.0004
                                           -0.7442  0.0392  0.0054  0.0034 -0.4456
                                            0.0212  0.0042  0.0030  0.0495 -0.0061
                                            0.0011  0.0005 -0.0278  0.0028  0.0015
                                           -0.0148  0.0190
                ( 37.16%)  -0.6096* N   2 s( 32.72%)p 2.06( 67.25%)d 0.00(  0.03%)
                                            0.0001 -0.5720 -0.0080  0.0016 -0.0000
                                            0.6906 -0.0087 -0.0093 -0.0006  0.4397
                                           -0.0041 -0.0062 -0.0004 -0.0453 -0.0010
                                            0.0009  0.0003 -0.0134  0.0029  0.0021
                                           -0.0051  0.0108
   149. (0.01797) BD*( 1) C   1 - H   6  
                ( 40.32%)   0.6350* C   1 s( 25.04%)p 2.99( 74.90%)d 0.00(  0.06%)
                                            0.0000 -0.5003  0.0086 -0.0014 -0.0001
                                            0.3723 -0.0054 -0.0037  0.0001 -0.1585
                                           -0.0139 -0.0023 -0.0000 -0.7648 -0.0084
                                           -0.0027 -0.0019  0.0043  0.0154 -0.0075
                                           -0.0008 -0.0176
                ( 59.68%)  -0.7725* H   6 s( 99.96%)p 0.00(  0.04%)
                                           -0.9998 -0.0034 -0.0005  0.0002 -0.0079
                                            0.0030  0.0172
   150. (0.00646) BD*( 1) C   1 - H   7  
                ( 39.76%)   0.6306* C   1 s( 25.64%)p 2.90( 74.30%)d 0.00(  0.06%)
                                           -0.0001  0.5064 -0.0027 -0.0024 -0.0003
                                            0.1665  0.0167 -0.0007 -0.0009 -0.8421
                                           -0.0093 -0.0011 -0.0003 -0.0754 -0.0013
                                           -0.0004 -0.0001 -0.0104 -0.0007  0.0036
                                           -0.0182 -0.0113
                ( 60.24%)  -0.7761* H   7 s( 99.96%)p 0.00(  0.04%)
                                            0.9998  0.0013  0.0002 -0.0004 -0.0016
                                            0.0205  0.0019
   151. (0.01498) BD*( 1) C   1 - H   8  
                ( 40.15%)   0.6336* C   1 s( 25.25%)p 2.96( 74.69%)d 0.00(  0.06%)
                                            0.0000 -0.5024  0.0061 -0.0008  0.0000
                                            0.5250 -0.0015 -0.0021  0.0004 -0.2550
                                           -0.0152 -0.0015  0.0001  0.6371  0.0076
                                            0.0028  0.0015  0.0089 -0.0189  0.0096
                                           -0.0035 -0.0083
                ( 59.85%)  -0.7736* H   8 s( 99.96%)p 0.00(  0.04%)
                                           -0.9998 -0.0028 -0.0003  0.0000 -0.0118
                                            0.0048 -0.0148
   152. (0.02100) BD*( 1) N   2 - C   3  
                ( 36.78%)   0.6065* N   2 s( 32.33%)p 2.09( 67.64%)d 0.00(  0.03%)
                                            0.0001 -0.5686 -0.0041  0.0016 -0.0000
                                            0.0494 -0.0018 -0.0005  0.0006 -0.8202
                                            0.0113  0.0108  0.0003 -0.0304 -0.0012
                                            0.0008  0.0004  0.0017  0.0002 -0.0031
                                            0.0131  0.0110
                ( 63.22%)  -0.7951* C   3 s( 23.91%)p 3.18( 75.95%)d 0.01(  0.14%)
                                           -0.0002 -0.4880 -0.0300 -0.0009 -0.0005
                                           -0.0667  0.0054 -0.0015 -0.0008  0.8668
                                           -0.0461 -0.0069 -0.0019  0.0386 -0.0059
                                            0.0016  0.0005  0.0030  0.0001 -0.0023
                                            0.0318  0.0187
   153. (0.08045) BD*( 1) N   2 - C   4  
                ( 36.02%)   0.6002* N   2 s( 34.57%)p 1.89( 65.39%)d 0.00(  0.04%)
                                            0.0000 -0.5880  0.0035 -0.0028 -0.0000
                                           -0.7209  0.0112  0.0077 -0.0008  0.3649
                                           -0.0096 -0.0023  0.0007 -0.0273 -0.0012
                                            0.0002  0.0003  0.0138 -0.0028  0.0014
                                           -0.0108  0.0106
                ( 63.98%)  -0.7998* C   4 s( 33.04%)p 2.02( 66.84%)d 0.00(  0.12%)
                                           -0.0001 -0.5745  0.0136 -0.0152 -0.0006
                                            0.7012 -0.0366 -0.0053  0.0035 -0.4182
                                            0.0115  0.0013 -0.0047  0.0125 -0.0048
                                            0.0005  0.0004  0.0266 -0.0004  0.0005
                                           -0.0172  0.0144
   154. (0.01168) BD*( 1) C   3 - H   9  
                ( 40.40%)   0.6356* C   3 s( 24.90%)p 3.01( 75.03%)d 0.00(  0.06%)
                                            0.0001 -0.4990  0.0059 -0.0004  0.0001
                                            0.5415  0.0117 -0.0002 -0.0002 -0.2657
                                            0.0123  0.0016 -0.0011  0.6214  0.0062
                                            0.0020  0.0005  0.0067 -0.0198  0.0082
                                           -0.0084 -0.0070
                ( 59.60%)  -0.7720* H   9 s( 99.96%)p 0.00(  0.04%)
                                           -0.9998 -0.0018 -0.0004  0.0002 -0.0105
                                            0.0072 -0.0146
   155. (0.01449) BD*( 1) C   3 - H  10  
                ( 40.44%)   0.6359* C   3 s( 24.90%)p 3.01( 75.04%)d 0.00(  0.06%)
                                            0.0001 -0.4989  0.0084 -0.0012 -0.0001
                                            0.3202  0.0088  0.0003  0.0003 -0.2204
                                            0.0143  0.0035 -0.0010 -0.7739 -0.0086
                                           -0.0027 -0.0011  0.0028  0.0149 -0.0081
                                           -0.0033 -0.0182
                ( 59.56%)  -0.7718* H  10 s( 99.96%)p 0.00(  0.04%)
                                           -0.9998 -0.0026 -0.0005  0.0003 -0.0054
                                            0.0053  0.0172
   156. (0.00679) BD*( 1) C   3 - H  11  
                ( 38.21%)   0.6182* C   3 s( 26.38%)p 2.79( 73.56%)d 0.00(  0.06%)
                                            0.0001 -0.5136  0.0027  0.0020  0.0003
                                           -0.7735 -0.0177 -0.0011  0.0006 -0.3529
                                            0.0025 -0.0022 -0.0013  0.1112  0.0038
                                            0.0014  0.0004 -0.0148  0.0045  0.0025
                                           -0.0153  0.0101
                ( 61.79%)  -0.7861* H  11 s( 99.96%)p 0.00(  0.04%)
                                           -0.9998 -0.0016 -0.0002  0.0002  0.0189
                                            0.0069 -0.0021
   157. (0.27579) BD*( 1) C   4 - O   5  
                ( 70.37%)   0.8388* C   4 s(  1.15%)p85.49( 98.40%)d 0.39(  0.45%)
                                            0.0000  0.1067 -0.0113  0.0009 -0.0001
                                            0.0994 -0.0157 -0.0021  0.0006  0.0501
                                           -0.0038 -0.0011  0.0010  0.9847  0.0347
                                            0.0205 -0.0020  0.0031  0.0588  0.0327
                                            0.0021  0.0007
                ( 29.63%)  -0.5444* O   5 s(  1.30%)p75.85( 98.59%)d 0.09(  0.11%)
                                            0.0000  0.1137 -0.0078  0.0002  0.0000
                                           -0.1508  0.0032 -0.0002 -0.0001 -0.0896
                                            0.0019 -0.0003 -0.0001  0.9773 -0.0051
                                            0.0014 -0.0037  0.0053 -0.0290 -0.0143
                                            0.0037 -0.0048
   158. (0.01375) BD*( 2) C   4 - O   5  
                ( 64.49%)   0.8030* C   4 s( 33.60%)p 1.97( 66.22%)d 0.01(  0.18%)
                                           -0.0001  0.5751 -0.0717 -0.0046 -0.0021
                                            0.6987 -0.0698 -0.0007  0.0027  0.3811
                                           -0.0163 -0.0068  0.0005 -0.1533 -0.0094
                                           -0.0040  0.0004  0.0314 -0.0085 -0.0050
                                            0.0175 -0.0213
                ( 35.51%)  -0.5959* O   5 s( 38.02%)p 1.63( 61.87%)d 0.00(  0.11%)
                                            0.0000  0.6149 -0.0455  0.0017 -0.0000
                                           -0.6772  0.0181  0.0006 -0.0010 -0.3414
                                            0.0105 -0.0026 -0.0010 -0.2078  0.0018
                                           -0.0003  0.0006  0.0223  0.0072  0.0035
                                            0.0177 -0.0147
   159. (0.06378) BD*( 1) C   4 - H  12  
                ( 43.00%)   0.6557* C   4 s( 32.71%)p 2.05( 67.20%)d 0.00(  0.08%)
                                           -0.0004  0.5696  0.0510 -0.0071  0.0005
                                           -0.0237 -0.0213 -0.0001  0.0028 -0.8183
                                           -0.0237  0.0235  0.0022 -0.0174 -0.0008
                                            0.0006  0.0002  0.0062 -0.0005  0.0008
                                           -0.0260 -0.0104
                ( 57.00%)  -0.7550* H  12 s( 99.94%)p 0.00(  0.06%)
                                            0.9996  0.0093  0.0009 -0.0003 -0.0034
                                            0.0246  0.0005


 NHO Directionality and "Bond Bending" (deviations from line of nuclear centers)

         [Thresholds for printing:  angular deviation  >  1.0 degree]
                                    hybrid p-character > 25.0%
                                    orbital occupancy  >  0.10e

                                Line of Centers        Hybrid 1              Hybrid 2
                                ---------------  -------------------   ------------------
                NBO               Theta   Phi    Theta   Phi    Dev    Theta   Phi    Dev
 ========================================================================================
     2. BD (   1) C   1 - H   6    27.8  157.6    27.4  154.3   1.6      --     --    --
     3. BD (   1) C   1 - H   7    94.9  280.2    95.1  282.0   1.8      --     --    --
     4. BD (   1) C   1 - H   8   137.4  154.6   137.8  152.5   1.5      --     --    --
     6. BD (   1) N   2 - C   4    88.4  333.2     --     --    --      90.6  148.2   5.1
     7. BD (   1) C   3 - H   9   135.9  152.9   136.0  155.4   1.8      --     --    --
     8. BD (   1) C   3 - H  10    26.6  144.3    26.2  148.3   1.8      --     --    --
     9. BD (   1) C   3 - H  11    97.3   25.7    97.7   24.1   1.7      --     --    --
    10. BD (   1) C   4 - O   5    88.0   27.2     5.2   29.3  82.8     10.1  210.8  82.0
    11. BD (   2) C   4 - O   5    88.0   27.2   102.9   29.6  15.1    105.5  206.9  13.5
    18. LP (   1) N   2             --     --    179.2  209.9   --       --     --    --
    19. LP (   1) O   5             --     --     88.1   26.5   --       --     --    --
    20. LP (   2) O   5             --     --     90.7  296.5   --       --     --    --
   157. BD*(   1) C   4 - O   5    88.0   27.2     5.2   29.3  82.8     10.1  210.8  82.0


 Second Order Perturbation Theory Analysis of Fock Matrix in NBO Basis

     Threshold for printing:   0.50 kcal/mol
                                                                              E(2)  E(j)-E(i) F(i,j)
         Donor NBO (i)                     Acceptor NBO (j)                 kcal/mol   a.u.    a.u. 
 ===================================================================================================

 within unit  1
   1. BD (   1) C   1 - N   2        / 55. RY*(   1) C   3                    1.01    1.53    0.035
   1. BD (   1) C   1 - N   2        / 75. RY*(   4) C   4                    1.60    1.79    0.048
   1. BD (   1) C   1 - N   2        /152. BD*(   1) N   2 - C   3            0.72    1.10    0.025
   1. BD (   1) C   1 - N   2        /153. BD*(   1) N   2 - C   4            0.69    1.20    0.026
   1. BD (   1) C   1 - N   2        /156. BD*(   1) C   3 - H  11            0.78    1.16    0.027
   1. BD (   1) C   1 - N   2        /158. BD*(   2) C   4 - O   5            2.25    1.34    0.049
   2. BD (   1) C   1 - H   6        / 38. RY*(   1) N   2                    0.77    1.16    0.027
   2. BD (   1) C   1 - H   6        /153. BD*(   1) N   2 - C   4            1.44    0.98    0.034
   3. BD (   1) C   1 - H   7        /152. BD*(   1) N   2 - C   3            4.22    0.88    0.055
   4. BD (   1) C   1 - H   8        / 38. RY*(   1) N   2                    0.58    1.17    0.023
   4. BD (   1) C   1 - H   8        /153. BD*(   1) N   2 - C   4            2.51    0.98    0.045
   5. BD (   1) N   2 - C   3        / 21. RY*(   1) C   1                    0.97    1.56    0.035
   5. BD (   1) N   2 - C   3        / 72. RY*(   1) C   4                    1.59    1.90    0.049
   5. BD (   1) N   2 - C   3        / 75. RY*(   4) C   4                    0.57    1.78    0.028
   5. BD (   1) N   2 - C   3        /148. BD*(   1) C   1 - N   2            0.62    1.09    0.023
   5. BD (   1) N   2 - C   3        /150. BD*(   1) C   1 - H   7            0.87    1.13    0.028
   5. BD (   1) N   2 - C   3        /153. BD*(   1) N   2 - C   4            0.93    1.19    0.030
   5. BD (   1) N   2 - C   3        /159. BD*(   1) C   4 - H  12            1.36    1.11    0.035
   6. BD (   1) N   2 - C   4        / 21. RY*(   1) C   1                    0.89    1.63    0.034
   6. BD (   1) N   2 - C   4        / 55. RY*(   1) C   3                    0.72    1.59    0.030
   6. BD (   1) N   2 - C   4        / 89. RY*(   1) O   5                    0.76    1.44    0.030
   6. BD (   1) N   2 - C   4        /148. BD*(   1) C   1 - N   2            0.95    1.15    0.030
   6. BD (   1) N   2 - C   4        /152. BD*(   1) N   2 - C   3            0.88    1.16    0.029
   6. BD (   1) N   2 - C   4        /158. BD*(   2) C   4 - O   5            0.70    1.39    0.028
   7. BD (   1) C   3 - H   9        / 38. RY*(   1) N   2                    0.58    1.16    0.023
   7. BD (   1) C   3 - H   9        /153. BD*(   1) N   2 - C   4            2.50    0.97    0.045
   8. BD (   1) C   3 - H  10        / 38. RY*(   1) N   2                    0.69    1.15    0.025
   8. BD (   1) C   3 - H  10        /153. BD*(   1) N   2 - C   4            1.32    0.97    0.032
   9. BD (   1) C   3 - H  11        /148. BD*(   1) C   1 - N   2            4.25    0.86    0.054
  10. BD (   1) C   4 - O   5        /157. BD*(   1) C   4 - O   5            1.23    0.41    0.022
  11. BD (   2) C   4 - O   5        / 72. RY*(   1) C   4                    1.00    2.17    0.042
  11. BD (   2) C   4 - O   5        /148. BD*(   1) C   1 - N   2            1.91    1.36    0.046
  11. BD (   2) C   4 - O   5        /153. BD*(   1) N   2 - C   4            0.88    1.46    0.033
  12. BD (   1) C   4 - H  12        / 39. RY*(   2) N   2                    0.80    1.77    0.034
  12. BD (   1) C   4 - H  12        / 89. RY*(   1) O   5                    0.96    1.18    0.030
  12. BD (   1) C   4 - H  12        /152. BD*(   1) N   2 - C   3            5.70    0.89    0.064
  13. CR (   1) C   1                / 39. RY*(   2) N   2                    0.64   11.31    0.076
  13. CR (   1) C   1                /112. RY*(   1) H   7                    0.53   10.79    0.067
  13. CR (   1) C   1                /152. BD*(   1) N   2 - C   3            0.86   10.43    0.085
  13. CR (   1) C   1                /153. BD*(   1) N   2 - C   4            0.81   10.53    0.084
  14. CR (   1) N   2                / 23. RY*(   3) C   1                    1.42   15.07    0.131
  14. CR (   1) N   2                / 57. RY*(   3) C   3                    1.26   15.02    0.123
  14. CR (   1) N   2                / 72. RY*(   1) C   4                    0.68   15.34    0.092
  14. CR (   1) N   2                / 73. RY*(   2) C   4                    0.62   15.77    0.088
  14. CR (   1) N   2                / 76. RY*(   5) C   4                    0.76   15.36    0.097
  15. CR (   1) C   3                / 41. RY*(   4) N   2                    0.54   11.61    0.071
  15. CR (   1) C   3                /136. RY*(   1) H  11                    0.64   10.87    0.075
  15. CR (   1) C   3                /148. BD*(   1) C   1 - N   2            0.89   10.41    0.086
  15. CR (   1) C   3                /153. BD*(   1) N   2 - C   4            0.77   10.52    0.082
  16. CR (   1) C   4                /148. BD*(   1) C   1 - N   2            1.17   10.49    0.099
  16. CR (   1) C   4                /152. BD*(   1) N   2 - C   3            1.21   10.49    0.101
  17. CR (   1) O   5                / 72. RY*(   1) C   4                    5.50   19.99    0.297
  18. LP (   1) N   2                / 22. RY*(   2) C   1                    1.12    1.85    0.044
  18. LP (   1) N   2                / 56. RY*(   2) C   3                    1.49    1.16    0.041
  18. LP (   1) N   2                / 74. RY*(   3) C   4                    1.47    1.85    0.051
  18. LP (   1) N   2                / 77. RY*(   6) C   4                    0.63    1.49    0.030
  18. LP (   1) N   2                /149. BD*(   1) C   1 - H   6            5.97    0.64    0.060
  18. LP (   1) N   2                /151. BD*(   1) C   1 - H   8            4.54    0.64    0.052
  18. LP (   1) N   2                /154. BD*(   1) C   3 - H   9            4.14    0.64    0.050
  18. LP (   1) N   2                /155. BD*(   1) C   3 - H  10            5.86    0.64    0.060
  18. LP (   1) N   2                /157. BD*(   1) C   4 - O   5           55.20    0.29    0.114
  19. LP (   1) O   5                / 72. RY*(   1) C   4                   13.56    1.84    0.141
  19. LP (   1) O   5                / 73. RY*(   2) C   4                    0.66    2.27    0.034
  19. LP (   1) O   5                / 80. RY*(   9) C   4                    0.74    3.76    0.047
  19. LP (   1) O   5                / 87. RY*(  16) C   4                    0.55    3.57    0.040
  19. LP (   1) O   5                / 91. RY*(   3) O   5                    0.54    1.34    0.024
  19. LP (   1) O   5                /153. BD*(   1) N   2 - C   4            0.89    1.13    0.029
  19. LP (   1) O   5                /159. BD*(   1) C   4 - H  12            0.93    1.05    0.028
  20. LP (   2) O   5                / 73. RY*(   2) C   4                    3.06    1.83    0.069
  20. LP (   2) O   5                / 76. RY*(   5) C   4                    0.75    1.42    0.030
  20. LP (   2) O   5                /153. BD*(   1) N   2 - C   4           24.02    0.69    0.117
  20. LP (   2) O   5                /159. BD*(   1) C   4 - H  12           20.62    0.61    0.102
 157. BD*(   1) C   4 - O   5        / 74. RY*(   3) C   4                    2.31    1.56    0.143
 157. BD*(   1) C   4 - O   5        / 90. RY*(   2) O   5                    1.76    0.74    0.087
 157. BD*(   1) C   4 - O   5        /158. BD*(   2) C   4 - O   5            3.60    0.55    0.104


 Natural Bond Orbitals (Summary):

                                                            Principal Delocalizations
           NBO                        Occupancy    Energy   (geminal,vicinal,remote)
 ====================================================================================
 Molecular unit  1  (C3H7NO)
     1. BD (   1) C   1 - N   2          1.98985    -0.75931  158(v),75(v),55(v),156(v)
                                                    152(g),153(g)
     2. BD (   1) C   1 - H   6          1.98976    -0.53505  153(v),38(v)
     3. BD (   1) C   1 - H   7          1.98911    -0.54298  152(v)
     4. BD (   1) C   1 - H   8          1.99013    -0.53632  153(v),38(v)
     5. BD (   1) N   2 - C   3          1.98877    -0.75018  72(v),159(v),21(v),153(g)
                                                    150(v),148(g),75(v)
     6. BD (   1) N   2 - C   4          1.98988    -0.81471  148(g),21(v),152(g),89(v)
                                                    55(v),158(g)
     7. BD (   1) C   3 - H   9          1.98902    -0.52633  153(v),38(v)
     8. BD (   1) C   3 - H  10          1.98847    -0.52478  153(v),38(v)
     9. BD (   1) C   3 - H  11          1.98948    -0.52369  148(v)
    10. BD (   1) C   4 - O   5          1.99754    -0.38820  157(g)
    11. BD (   2) C   4 - O   5          1.99545    -1.02076  148(v),72(g),153(g)
    12. BD (   1) C   4 - H  12          1.98233    -0.54672  152(v),89(v),39(v)
    13. CR (   1) C   1                  1.99932   -10.08495  152(v),153(v),39(v),112(v)
    14. CR (   1) N   2                  1.99938   -14.19642  23(v),57(v),76(v),72(v)
                                                    73(v)
    15. CR (   1) C   3                  1.99930   -10.07234  148(v),153(v),136(v),41(v)
    16. CR (   1) C   4                  1.99944   -10.15085  152(v),148(v)
    17. CR (   1) O   5                  1.99977   -18.84213  72(v)
    18. LP (   1) N   2                  1.67189    -0.25954  157(v),149(v),155(v),151(v)
                                                    154(v),56(v),74(v),22(v)
                                                    77(v)
    19. LP (   1) O   5                  1.98464    -0.68922  72(v),159(v),153(v),80(v)
                                                    73(v),87(v),91(g)
    20. LP (   2) O   5                  1.85284    -0.24937  153(v),159(v),73(v),76(v)
    21. RY*(   1) C   1                  0.00271     0.81324   
    22. RY*(   2) C   1                  0.00099     1.59052   
    23. RY*(   3) C   1                  0.00057     0.87670   
    24. RY*(   4) C   1                  0.00027     1.29350   
    25. RY*(   5) C   1                  0.00017     0.97069   
    26. RY*(   6) C   1                  0.00010     0.85969   
    27. RY*(   7) C   1                  0.00005     2.44998   
    28. RY*(   8) C   1                  0.00003     1.56312   
    29. RY*(   9) C   1                  0.00000     2.69328   
    30. RY*(  10) C   1                  0.00000    22.90553   
    31. RY*(  11) C   1                  0.00000     1.01639   
    32. RY*(  12) C   1                  0.00000     2.81084   
    33. RY*(  13) C   1                  0.00000     1.45728   
    34. RY*(  14) C   1                  0.00000     0.51427   
    35. RY*(  15) C   1                  0.00000     0.88000   
    36. RY*(  16) C   1                  0.00001     1.85075   
    37. RY*(  17) C   1                  0.00001     1.84219   
    38. RY*(   1) N   2                  0.00478     0.62964   
    39. RY*(   2) N   2                  0.00225     1.22726   
    40. RY*(   3) N   2                  0.00148     1.51357   
    41. RY*(   4) N   2                  0.00090     1.53737   
    42. RY*(   5) N   2                  0.00026     1.89274   
    43. RY*(   6) N   2                  0.00022     2.20348   
    44. RY*(   7) N   2                  0.00022     2.10351   
    45. RY*(   8) N   2                  0.00018     2.66120   
    46. RY*(   9) N   2                  0.00006     3.36611   
    47. RY*(  10) N   2                  0.00004     1.66786   
    48. RY*(  11) N   2                  0.00003     1.57608   
    49. RY*(  12) N   2                  0.00000     3.81954   
    50. RY*(  13) N   2                  0.00000    34.46931   
    51. RY*(  14) N   2                  0.00000     3.10407   
    52. RY*(  15) N   2                  0.00001     1.65671   
    53. RY*(  16) N   2                  0.00000     0.60557   
    54. RY*(  17) N   2                  0.00000     3.08408   
    55. RY*(   1) C   3                  0.00295     0.77424   
    56. RY*(   2) C   3                  0.00197     0.90037   
    57. RY*(   3) C   3                  0.00107     0.82689   
    58. RY*(   4) C   3                  0.00027     1.26645   
    59. RY*(   5) C   3                  0.00021     0.86479   
    60. RY*(   6) C   3                  0.00011     1.91760   
    61. RY*(   7) C   3                  0.00005     2.18700   
    62. RY*(   8) C   3                  0.00003     0.78261   
    63. RY*(   9) C   3                  0.00002     2.06566   
    64. RY*(  10) C   3                  0.00000     2.60749   
    65. RY*(  11) C   3                  0.00000    22.91399   
    66. RY*(  12) C   3                  0.00000     2.70092   
    67. RY*(  13) C   3                  0.00001     1.06023   
    68. RY*(  14) C   3                  0.00000     0.92064   
    69. RY*(  15) C   3                  0.00000     1.60369   
    70. RY*(  16) C   3                  0.00000     1.25859   
    71. RY*(  17) C   3                  0.00000     1.99135   
    72. RY*(   1) C   4                  0.01255     1.14735   
    73. RY*(   2) C   4                  0.00790     1.57789   
    74. RY*(   3) C   4                  0.00575     1.59061   
    75. RY*(   4) C   4                  0.00306     1.02593   
    76. RY*(   5) C   4                  0.00047     1.16579   
    77. RY*(   6) C   4                  0.00037     1.23527   
    78. RY*(   7) C   4                  0.00016     3.31803   
    79. RY*(   8) C   4                  0.00007     3.61588   
    80. RY*(   9) C   4                  0.00003     3.07353   
    81. RY*(  10) C   4                  0.00001     1.60954   
    82. RY*(  11) C   4                  0.00000     0.33875   
    83. RY*(  12) C   4                  0.00000     2.57841   
    84. RY*(  13) C   4                  0.00000     3.17823   
    85. RY*(  14) C   4                  0.00000     0.80985   
    86. RY*(  15) C   4                  0.00000    12.56728   
    87. RY*(  16) C   4                  0.00000     2.87962   
    88. RY*(  17) C   4                  0.00000     4.26921   
    89. RY*(   1) O   5                  0.00300     0.62938   
    90. RY*(   2) O   5                  0.00100     0.77114   
    91. RY*(   3) O   5                  0.00083     0.65012   
    92. RY*(   4) O   5                  0.00013     1.12951   
    93. RY*(   5) O   5                  0.00005     3.75747   
    94. RY*(   6) O   5                  0.00003     1.85815   
    95. RY*(   7) O   5                  0.00001     1.37112   
    96. RY*(   8) O   5                  0.00000     3.71501   
    97. RY*(   9) O   5                  0.00000     4.79317   
    98. RY*(  10) O   5                  0.00000    49.49199   
    99. RY*(  11) O   5                  0.00000     0.80217   
   100. RY*(  12) O   5                  0.00000     4.88783   
   101. RY*(  13) O   5                  0.00000     2.07986   
   102. RY*(  14) O   5                  0.00000     3.03450   
   103. RY*(  15) O   5                  0.00000     2.91304   
   104. RY*(  16) O   5                  0.00000     2.99172   
   105. RY*(  17) O   5                  0.00001     2.96628   
   106. RY*(   1) H   6                  0.00127     0.51758   
   107. RY*(   2) H   6                  0.00018     1.87270   
   108. RY*(   3) H   6                  0.00014     1.65512   
   109. RY*(   4) H   6                  0.00009     0.71471   
   110. RY*(   5) H   6                  0.00007     2.00106   
   111. RY*(   6) H   6                  0.00004     2.29221   
   112. RY*(   1) H   7                  0.00100     0.70870   
   113. RY*(   2) H   7                  0.00018     0.45327   
   114. RY*(   3) H   7                  0.00018     1.70721   
   115. RY*(   4) H   7                  0.00013     2.15298   
   116. RY*(   5) H   7                  0.00007     1.41069   
   117. RY*(   6) H   7                  0.00003     2.53237   
   118. RY*(   1) H   8                  0.00119     0.47863   
   119. RY*(   2) H   8                  0.00016     1.97731   
   120. RY*(   3) H   8                  0.00014     1.74976   
   121. RY*(   4) H   8                  0.00010     1.26428   
   122. RY*(   5) H   8                  0.00006     1.62829   
   123. RY*(   6) H   8                  0.00004     1.94063   
   124. RY*(   1) H   9                  0.00091     0.48691   
   125. RY*(   2) H   9                  0.00017     1.93636   
   126. RY*(   3) H   9                  0.00013     1.79441   
   127. RY*(   4) H   9                  0.00007     1.74208   
   128. RY*(   5) H   9                  0.00006     1.24153   
   129. RY*(   6) H   9                  0.00003     1.87561   
   130. RY*(   1) H  10                  0.00108     0.52069   
   131. RY*(   2) H  10                  0.00019     1.79540   
   132. RY*(   3) H  10                  0.00014     1.74023   
   133. RY*(   4) H  10                  0.00009     1.01958   
   134. RY*(   5) H  10                  0.00006     1.76926   
   135. RY*(   6) H  10                  0.00003     2.27013   
   136. RY*(   1) H  11                  0.00117     0.80025   
   137. RY*(   2) H  11                  0.00018     1.52862   
   138. RY*(   3) H  11                  0.00015     1.79436   
   139. RY*(   4) H  11                  0.00012     1.28844   
   140. RY*(   5) H  11                  0.00004     1.97866   
   141. RY*(   6) H  11                  0.00002     1.73167   
   142. RY*(   1) H  12                  0.00242     0.64712   
   143. RY*(   2) H  12                  0.00032     1.29536   
   144. RY*(   3) H  12                  0.00011     1.42066   
   145. RY*(   4) H  12                  0.00007     1.62500   
   146. RY*(   5) H  12                  0.00006     1.99985   
   147. RY*(   6) H  12                  0.00006     1.82578   
   148. BD*(   1) C   1 - N   2          0.01622     0.33911   
   149. BD*(   1) C   1 - H   6          0.01797     0.37599   
   150. BD*(   1) C   1 - H   7          0.00646     0.37697   
   151. BD*(   1) C   1 - H   8          0.01498     0.37688   
   152. BD*(   1) N   2 - C   3          0.02100     0.34194   
   153. BD*(   1) N   2 - C   4          0.08045     0.44337   
   154. BD*(   1) C   3 - H   9          0.01168     0.38458   
   155. BD*(   1) C   3 - H  10          0.01449     0.38442   
   156. BD*(   1) C   3 - H  11          0.00679     0.40410   
   157. BD*(   1) C   4 - O   5          0.27579     0.02680  158(g),74(g),90(g)
   158. BD*(   2) C   4 - O   5          0.01375     0.57632   
   159. BD*(   1) C   4 - H  12          0.06378     0.36027   
       -------------------------------
              Total Lewis   39.38636  ( 98.4659%)
        Valence non-Lewis    0.54336  (  1.3584%)
        Rydberg non-Lewis    0.07028  (  0.1757%)
       -------------------------------
            Total unit  1   40.00000  (100.0000%)
           Charge unit  1    0.00000
 Calling FoFJK, ICntrl=      2127 FMM=F ISym2X=0 I1Cent= 0 IOpClX= 0 NMat=1 NMatS=1 NMatT=0.
 ***** Axes restored to original set *****
 -------------------------------------------------------------------
 Center     Atomic                   Forces (Hartrees/Bohr)
 Number     Number              X              Y              Z
 -------------------------------------------------------------------
      1        6          -0.002658419   -0.002923699    0.001588319
      2        7          -0.015194966    0.024227760    0.001166079
      3        6           0.001638216   -0.002721117    0.000249094
      4        6          -0.006511308   -0.008173466    0.002146959
      5        8           0.010688078   -0.004283518   -0.004161505
      6        1           0.005260798   -0.001186032   -0.001596820
      7        1          -0.002309689   -0.001342598    0.000611592
      8        1           0.003818117    0.000116642   -0.000226174
      9        1          -0.000224807   -0.002342610    0.001227750
     10        1          -0.001397024   -0.004699204    0.000779556
     11        1           0.004348508    0.004276783   -0.000992181
     12        1           0.002542495   -0.000948939   -0.000792670
 -------------------------------------------------------------------
 Cartesian Forces:  Max     0.024227760 RMS     0.005875763

 GradGradGradGradGradGradGradGradGradGradGradGradGradGradGradGradGradGrad
 Berny optimization.
 FormGI is forming the generalized inverse of G from B-inverse, IUseBI=4.
 Internal  Forces:  Max     0.015245474 RMS     0.004126922
 Search for a local minimum.
 Step number   1 out of a maximum of   55
 All quantities printed in internal units (Hartrees-Bohrs-Radians)
 Mixed Optimization -- RFO/linear search
 Second derivative matrix not updated -- first step.
 ITU=  0
     Eigenvalues ---    0.01031   0.01052   0.01314   0.01963   0.01964
     Eigenvalues ---    0.07480   0.07543   0.07774   0.07775   0.16000
     Eigenvalues ---    0.16000   0.16000   0.16000   0.16000   0.16000
     Eigenvalues ---    0.16000   0.22000   0.24736   0.24828   0.33394
     Eigenvalues ---    0.34366   0.34375   0.34382   0.34399   0.34414
     Eigenvalues ---    0.34444   0.38256   0.38458   0.49200   0.93604
 RFO step:  Lambda=-2.93458873D-03 EMin= 1.03149450D-02
 Linear search not attempted -- first point.
 Iteration  1 RMS(Cart)=  0.03479404 RMS(Int)=  0.00090074
 Iteration  2 RMS(Cart)=  0.00081682 RMS(Int)=  0.00036000
 Iteration  3 RMS(Cart)=  0.00000035 RMS(Int)=  0.00036000
 Variable       Old X    -DE/DX   Delta X   Delta X   Delta X     New X
                                 (Linear)    (Quad)   (Total)
    R1        2.73704   0.00412   0.00000   0.01064   0.01064   2.74769
    R2        2.06702   0.00192   0.00000   0.00553   0.00553   2.07255
    R3        2.06637  -0.00218   0.00000  -0.00628  -0.00628   2.06010
    R4        2.06661   0.00050   0.00000   0.00144   0.00144   2.06806
    R5        2.73994   0.00294   0.00000   0.00762   0.00762   2.74756
    R6        2.60682  -0.01525   0.00000  -0.03080  -0.03080   2.57601
    R7        2.06690   0.00052   0.00000   0.00149   0.00149   2.06838
    R8        2.06718   0.00190   0.00000   0.00549   0.00549   2.07266
    R9        2.06588  -0.00378   0.00000  -0.01088  -0.01088   2.05500
   R10        2.31315  -0.01192   0.00000  -0.01269  -0.01269   2.30046
   R11        2.08366   0.00091   0.00000   0.00270   0.00270   2.08635
    A1        1.89885   0.00761   0.00000   0.04989   0.04952   1.94837
    A2        1.93945  -0.00486   0.00000  -0.03310  -0.03281   1.90664
    A3        1.90282   0.00484   0.00000   0.02970   0.02923   1.93205
    A4        1.90263  -0.00159   0.00000  -0.00997  -0.00960   1.89302
    A5        1.91398  -0.00474   0.00000  -0.02240  -0.02345   1.89053
    A6        1.90602  -0.00130   0.00000  -0.01423  -0.01405   1.89197
    A7        2.05780  -0.00137   0.00000  -0.00506  -0.00507   2.05272
    A8        2.11708   0.00127   0.00000   0.00548   0.00547   2.12254
    A9        2.09919   0.00012   0.00000   0.00089   0.00088   2.10007
   A10        1.90166   0.00381   0.00000   0.02448   0.02405   1.92571
   A11        1.89711   0.00745   0.00000   0.04825   0.04807   1.94518
   A12        1.94755  -0.00915   0.00000  -0.05991  -0.05949   1.88805
   A13        1.91232  -0.00391   0.00000  -0.01612  -0.01705   1.89527
   A14        1.90282   0.00161   0.00000   0.00481   0.00495   1.90778
   A15        1.90219   0.00017   0.00000  -0.00136  -0.00071   1.90148
   A16        2.19936  -0.00245   0.00000  -0.01099  -0.01101   2.18836
   A17        1.96936  -0.00156   0.00000  -0.01165  -0.01167   1.95769
   A18        2.11441   0.00401   0.00000   0.02254   0.02252   2.13693
    D1       -1.08336  -0.00047   0.00000   0.00041  -0.00015  -1.08351
    D2        1.91385  -0.00031   0.00000   0.01081   0.01025   1.92410
    D3        3.10497  -0.00039   0.00000   0.00106   0.00114   3.10611
    D4       -0.18101  -0.00023   0.00000   0.01147   0.01154  -0.16947
    D5        1.00335   0.00112   0.00000   0.02016   0.02065   1.02400
    D6       -2.28263   0.00128   0.00000   0.03056   0.03105  -2.25158
    D7       -0.97167  -0.00102   0.00000  -0.01635  -0.01679  -0.98846
    D8        1.11134   0.00083   0.00000   0.00663   0.00725   1.11859
    D9       -3.07365   0.00022   0.00000  -0.00072  -0.00094  -3.07459
   D10        2.31277  -0.00128   0.00000  -0.02704  -0.02746   2.28531
   D11       -1.88741   0.00057   0.00000  -0.00406  -0.00341  -1.89083
   D12        0.21079  -0.00003   0.00000  -0.01141  -0.01161   0.19918
   D13       -3.03592  -0.00038   0.00000  -0.02065  -0.02067  -3.05659
   D14        0.11610  -0.00012   0.00000  -0.00950  -0.00951   0.10659
   D15       -0.04210  -0.00033   0.00000  -0.01048  -0.01046  -0.05256
   D16        3.10992  -0.00008   0.00000   0.00068   0.00069   3.11061
         Item               Value     Threshold  Converged?
 Maximum Force            0.015245     0.000450     NO 
 RMS     Force            0.004127     0.000300     NO 
 Maximum Displacement     0.111082     0.001800     NO 
 RMS     Displacement     0.034752     0.001200     NO 
 Predicted change in Energy=-1.499604D-03
 GradGradGradGradGradGradGradGradGradGradGradGradGradGradGradGradGradGrad

                          Input orientation:                          
 ---------------------------------------------------------------------
 Center     Atomic      Atomic             Coordinates (Angstroms)
 Number     Number       Type             X           Y           Z
 ---------------------------------------------------------------------
      1          6           0        1.312970    0.070242   -0.407847
      2          7           0       -0.091725    0.140078   -0.038914
      3          6           0       -0.767223   -1.107023    0.281086
      4          6           0       -0.720236    1.333529    0.158247
      5          8           0       -1.865147    1.471287    0.548306
      6          1           0        1.926525   -0.326930    0.409870
      7          1           0        1.670201    1.070595   -0.653044
      8          1           0        1.451330   -0.570459   -1.284203
      9          1           0       -0.686463   -1.808756   -0.555018
     10          1           0       -0.339178   -1.577188    1.174789
     11          1           0       -1.816049   -0.887028    0.465833
     12          1           0       -0.075008    2.191654   -0.099104
 ---------------------------------------------------------------------
                    Distance matrix (angstroms):
                    1          2          3          4          5
     1  C    0.000000
     2  N    1.454014   0.000000
     3  C    2.487525   1.453946   0.000000
     4  C    2.459732   1.363167   2.444093   0.000000
     5  O    3.602441   2.293899   2.815054   1.217351   0.000000
     6  H    1.096748   2.119631   2.807385   3.134610   4.198753
     7  H    1.090158   2.085043   3.399361   2.538015   3.755328
     8  H    1.094368   2.106330   2.767672   3.228240   4.304165
     9  H    2.747730   2.101911   1.094541   3.222396   3.655859
    10  H    2.819282   2.117383   1.096806   3.106579   3.466160
    11  H    3.386804   2.069543   1.087458   2.495253   2.360267
    12  H    2.553859   2.052527   3.391899   1.104051   2.035354
                    6          7          8          9         10
     6  H    0.000000
     7  H    1.774420   0.000000
     8  H    1.776232   1.771815   0.000000
     9  H    3.155079   3.722115   2.575897   0.000000
    10  H    2.698455   3.793328   3.204070   1.779456   0.000000
    11  H    3.784667   4.151881   3.720027   1.779799   1.777664
    12  H    3.257062   2.146946   3.370970   4.072470   3.987074
                   11         12
    11  H    0.000000
    12  H    3.581712   0.000000
 Stoichiometry    C3H7NO
 Framework group  C1[X(C3H7NO)]
 Deg. of freedom    30
 Full point group                 C1      NOp   1
 Largest Abelian subgroup         C1      NOp   1
 Largest concise Abelian subgroup C1      NOp   1
                         Standard orientation:                         
 ---------------------------------------------------------------------
 Center     Atomic      Atomic             Coordinates (Angstroms)
 Number     Number       Type             X           Y           Z
 ---------------------------------------------------------------------
      1          6           0       -1.595174   -0.756673    0.019642
      2          7           0       -0.344276   -0.018854   -0.051307
      3          6           0       -0.413843    1.432387    0.003639
      4          6           0        0.862156   -0.652134   -0.010072
      5          8           0        1.947047   -0.100733    0.020160
      6          1           0       -2.114602   -0.581515    0.969573
      7          1           0       -1.388660   -1.823387   -0.069333
      8          1           0       -2.263201   -0.464854   -0.796583
      9          1           0       -1.059852    1.812686   -0.793897
     10          1           0       -0.806925    1.778916    0.967168
     11          1           0        0.591283    1.825490   -0.129615
     12          1           0        0.756680   -1.750977   -0.028700
 ---------------------------------------------------------------------
 Rotational constants (GHZ):           8.8930783           4.1814436           2.9516687
 Standard basis: 6-311++G(d,p) (5D, 7F)
 There are   164 symmetry adapted cartesian basis functions of A   symmetry.
 There are   159 symmetry adapted basis functions of A   symmetry.
   159 basis functions,   243 primitive gaussians,   164 cartesian basis functions
    20 alpha electrons       20 beta electrons
       nuclear repulsion energy       181.3200361395 Hartrees.
 NAtoms=   12 NActive=   12 NUniq=   12 SFac= 1.00D+00 NAtFMM=   60 NAOKFM=F Big=F
 Integral buffers will be    131072 words long.
 Raffenetti 2 integral format.
 Two-electron integral symmetry is turned on.
 One-electron integrals computed using PRISM.
 NBasis=   159 RedAO= T EigKep=  1.99D-04  NBF=   159
 NBsUse=   159 1.00D-06 EigRej= -1.00D+00 NBFU=   159
 Initial guess from the checkpoint file:  "CN(C)C=O.chk"
 B after Tr=    -0.000000    0.000000    0.000000
         Rot=    0.999969    0.001250    0.001093    0.007681 Ang=   0.90 deg.
 ExpMin= 3.60D-02 ExpMax= 8.59D+03 ExpMxC= 1.30D+03 IAcc=3 IRadAn=         5 AccDes= 0.00D+00
 Harris functional with IExCor=  402 and IRadAn=       5 diagonalized for initial guess.
 HarFok:  IExCor=  402 AccDes= 0.00D+00 IRadAn=         5 IDoV= 1 UseB2=F ITyADJ=14
 ICtDFT=  3500011 ScaDFX=  1.000000  1.000000  1.000000  1.000000
 FoFCou: FMM=F IPFlag=           0 FMFlag=      100000 FMFlg1=           0
         NFxFlg=           0 DoJE=T BraDBF=F KetDBF=T FulRan=T
         wScrn=  0.000000 ICntrl=       500 IOpCl=  0 I1Cent=   200000004 NGrid=           0
         NMat0=    1 NMatS0=      1 NMatT0=    0 NMatD0=    1 NMtDS0=    0 NMtDT0=    0
 Petite list used in FoFCou.
 Keep R1 ints in memory in canonical form, NReq=88851254.
 Requested convergence on RMS density matrix=1.00D-08 within 128 cycles.
 Requested convergence on MAX density matrix=1.00D-06.
 Requested convergence on             energy=1.00D-06.
 No special actions if energy rises.
 SCF Done:  E(RB3LYP) =  -248.590134053     A.U. after   10 cycles
            NFock= 10  Conv=0.69D-08     -V/T= 2.0042
 Calling FoFJK, ICntrl=      2127 FMM=F ISym2X=0 I1Cent= 0 IOpClX= 0 NMat=1 NMatS=1 NMatT=0.
 ***** Axes restored to original set *****
 -------------------------------------------------------------------
 Center     Atomic                   Forces (Hartrees/Bohr)
 Number     Number              X              Y              Z
 -------------------------------------------------------------------
      1        6          -0.001345004    0.000945523   -0.000086411
      2        7           0.003503058   -0.001154222    0.001310387
      3        6          -0.001357419   -0.000482543   -0.000354806
      4        6          -0.002132848   -0.002126063   -0.000871781
      5        8           0.000819676    0.001087178   -0.000005611
      6        1          -0.000701042   -0.000096347    0.000103046
      7        1           0.000845068    0.000511013   -0.000225901
      8        1          -0.000238873   -0.000023750   -0.000149124
      9        1           0.000402300    0.000325794    0.000044265
     10        1           0.000477935    0.000673817   -0.000436003
     11        1          -0.000749077   -0.000214039    0.000454320
     12        1           0.000476226    0.000553638    0.000217619
 -------------------------------------------------------------------
 Cartesian Forces:  Max     0.003503058 RMS     0.001000967

 GradGradGradGradGradGradGradGradGradGradGradGradGradGradGradGradGradGrad
 Berny optimization.
 Using GEDIIS/GDIIS optimizer.
 FormGI is forming the generalized inverse of G from B-inverse, IUseBI=4.
 Internal  Forces:  Max     0.001752587 RMS     0.000626099
 Search for a local minimum.
 Step number   2 out of a maximum of   55
 All quantities printed in internal units (Hartrees-Bohrs-Radians)
 Mixed Optimization -- En-DIIS/RFO-DIIS
 Update second derivatives using D2CorX and points    1    2
 DE= -1.31D-03 DEPred=-1.50D-03 R= 8.70D-01
 TightC=F SS=  1.41D+00  RLast= 1.33D-01 DXNew= 5.0454D-01 4.0016D-01
 Trust test= 8.70D-01 RLast= 1.33D-01 DXMaxT set to 4.00D-01
 ITU=  1  0
 Use linear search instead of GDIIS.
     Eigenvalues ---    0.01029   0.01048   0.01304   0.01958   0.01976
     Eigenvalues ---    0.07385   0.07542   0.07651   0.07788   0.15815
     Eigenvalues ---    0.16000   0.16000   0.16000   0.16000   0.16000
     Eigenvalues ---    0.17534   0.22741   0.24786   0.25055   0.33353
     Eigenvalues ---    0.34369   0.34374   0.34385   0.34396   0.34422
     Eigenvalues ---    0.34797   0.38173   0.38887   0.48278   0.92621
 RFO step:  Lambda=-8.08129166D-05 EMin= 1.02894235D-02
 Quartic linear search produced a step of -0.09861.
 Iteration  1 RMS(Cart)=  0.00611751 RMS(Int)=  0.00006807
 Iteration  2 RMS(Cart)=  0.00006636 RMS(Int)=  0.00004451
 Iteration  3 RMS(Cart)=  0.00000000 RMS(Int)=  0.00004451
 Variable       Old X    -DE/DX   Delta X   Delta X   Delta X     New X
                                 (Linear)    (Quad)   (Total)
    R1        2.74769  -0.00136  -0.00105  -0.00185  -0.00290   2.74478
    R2        2.07255  -0.00028  -0.00055  -0.00004  -0.00058   2.07197
    R3        2.06010   0.00080   0.00062   0.00129   0.00191   2.06201
    R4        2.06806   0.00010  -0.00014   0.00045   0.00031   2.06837
    R5        2.74756   0.00025  -0.00075   0.00154   0.00079   2.74835
    R6        2.57601  -0.00013   0.00304  -0.00413  -0.00109   2.57492
    R7        2.06838  -0.00021  -0.00015  -0.00037  -0.00052   2.06787
    R8        2.07266  -0.00046  -0.00054  -0.00051  -0.00105   2.07162
    R9        2.05500   0.00076   0.00107   0.00060   0.00168   2.05667
   R10        2.30046  -0.00065   0.00125  -0.00222  -0.00097   2.29949
   R11        2.08635   0.00066  -0.00027   0.00211   0.00185   2.08820
    A1        1.94837  -0.00109  -0.00488  -0.00044  -0.00529   1.94308
    A2        1.90664   0.00120   0.00324   0.00345   0.00666   1.91331
    A3        1.93205  -0.00037  -0.00288   0.00135  -0.00149   1.93056
    A4        1.89302   0.00003   0.00095  -0.00054   0.00038   1.89341
    A5        1.89053   0.00042   0.00231  -0.00230   0.00010   1.89063
    A6        1.89197  -0.00018   0.00139  -0.00166  -0.00029   1.89168
    A7        2.05272   0.00072   0.00050   0.00251   0.00297   2.05570
    A8        2.12254  -0.00066  -0.00054  -0.00111  -0.00169   2.12085
    A9        2.10007  -0.00003  -0.00009   0.00060   0.00047   2.10054
   A10        1.92571  -0.00051  -0.00237  -0.00001  -0.00236   1.92335
   A11        1.94518  -0.00131  -0.00474  -0.00238  -0.00712   1.93807
   A12        1.88805   0.00104   0.00587  -0.00040   0.00543   1.89348
   A13        1.89527   0.00044   0.00168  -0.00218  -0.00043   1.89484
   A14        1.90778   0.00019  -0.00049   0.00400   0.00349   1.91127
   A15        1.90148   0.00017   0.00007   0.00115   0.00117   1.90265
   A16        2.18836   0.00175   0.00109   0.00590   0.00686   2.19522
   A17        1.95769  -0.00081   0.00115  -0.00454  -0.00351   1.95417
   A18        2.13693  -0.00092  -0.00222  -0.00082  -0.00316   2.13377
    D1       -1.08351   0.00018   0.00001   0.00344   0.00351  -1.08000
    D2        1.92410   0.00042  -0.00101   0.02039   0.01942   1.94352
    D3        3.10611   0.00004  -0.00011   0.00212   0.00200   3.10811
    D4       -0.16947   0.00027  -0.00114   0.01906   0.01792  -0.15155
    D5        1.02400  -0.00026  -0.00204   0.00115  -0.00093   1.02307
    D6       -2.25158  -0.00003  -0.00306   0.01810   0.01499  -2.23659
    D7       -0.98846   0.00042   0.00166   0.00309   0.00479  -0.98367
    D8        1.11859  -0.00024  -0.00072  -0.00125  -0.00201   1.11658
    D9       -3.07459  -0.00015   0.00009  -0.00152  -0.00140  -3.07599
   D10        2.28531   0.00024   0.00271  -0.01348  -0.01075   2.27456
   D11       -1.89083  -0.00041   0.00034  -0.01783  -0.01755  -1.90838
   D12        0.19918  -0.00033   0.00114  -0.01810  -0.01695   0.18223
   D13       -3.05659   0.00012   0.00204   0.00124   0.00329  -3.05330
   D14        0.10659  -0.00052   0.00094  -0.02651  -0.02556   0.08103
   D15       -0.05256   0.00041   0.00103   0.01877   0.01979  -0.03277
   D16        3.11061  -0.00023  -0.00007  -0.00897  -0.00905   3.10156
         Item               Value     Threshold  Converged?
 Maximum Force            0.001753     0.000450     NO 
 RMS     Force            0.000626     0.000300     NO 
 Maximum Displacement     0.016516     0.001800     NO 
 RMS     Displacement     0.006131     0.001200     NO 
 Predicted change in Energy=-5.654517D-05
 GradGradGradGradGradGradGradGradGradGradGradGradGradGradGradGradGradGrad

                          Input orientation:                          
 ---------------------------------------------------------------------
 Center     Atomic      Atomic             Coordinates (Angstroms)
 Number     Number       Type             X           Y           Z
 ---------------------------------------------------------------------
      1          6           0        1.311182    0.072440   -0.407302
      2          7           0       -0.091273    0.138932   -0.035293
      3          6           0       -0.768274   -1.108472    0.282234
      4          6           0       -0.723378    1.331804    0.149507
      5          8           0       -1.865208    1.478277    0.543799
      6          1           0        1.921713   -0.330858    0.409266
      7          1           0        1.674018    1.072713   -0.649077
      8          1           0        1.446902   -0.565793   -1.286073
      9          1           0       -0.684741   -1.807574   -0.555443
     10          1           0       -0.333003   -1.576998    1.172621
     11          1           0       -1.817962   -0.892786    0.472313
     12          1           0       -0.069975    2.188314   -0.096552
 ---------------------------------------------------------------------
                    Distance matrix (angstroms):
                    1          2          3          4          5
     1  C    0.000000
     2  N    1.452477   0.000000
     3  C    2.488804   1.454363   0.000000
     4  C    2.456719   1.362590   2.444296   0.000000
     5  O    3.601447   2.296963   2.821870   1.216838   0.000000
     6  H    1.096439   2.114343   2.803007   3.135032   4.199028
     7  H    1.091170   2.089241   3.404364   2.540152   3.756801
     8  H    1.094532   2.104060   2.767867   3.220540   4.300782
     9  H    2.745925   2.100392   1.094268   3.217786   3.660416
    10  H    2.814275   2.112322   1.096252   3.108100   3.475309
    11  H    3.390711   2.074502   1.088346   2.500224   2.372610
    12  H    2.545797   2.050408   3.391150   1.105029   2.033977
                    6          7          8          9         10
     6  H    0.000000
     7  H    1.775233   0.000000
     8  H    1.776180   1.772582   0.000000
     9  H    3.147214   3.724052   2.572886   0.000000
    10  H    2.686879   3.790473   3.199340   1.778508   0.000000
    11  H    3.782182   4.161084   3.722658   1.782500   1.778674
    12  H    3.250984   2.142746   3.361693   4.068862   3.982155
                   11         12
    11  H    0.000000
    12  H    3.587791   0.000000
 Stoichiometry    C3H7NO
 Framework group  C1[X(C3H7NO)]
 Deg. of freedom    30
 Full point group                 C1      NOp   1
 Largest Abelian subgroup         C1      NOp   1
 Largest concise Abelian subgroup C1      NOp   1
                         Standard orientation:                         
 ---------------------------------------------------------------------
 Center     Atomic      Atomic             Coordinates (Angstroms)
 Number     Number       Type             X           Y           Z
 ---------------------------------------------------------------------
      1          6           0       -1.590653   -0.762240    0.019002
      2          7           0       -0.345077   -0.018024   -0.047140
      3          6           0       -0.419230    1.433587    0.002842
      4          6           0        0.863128   -0.647230   -0.015642
      5          8           0        1.949402   -0.100101    0.021164
      6          1           0       -2.113695   -0.581106    0.965467
      7          1           0       -1.384077   -1.830523   -0.063158
      8          1           0       -2.255211   -0.474994   -0.801883
      9          1           0       -1.066156    1.806643   -0.796994
     10          1           0       -0.820952    1.774341    0.964233
     11          1           0        0.584340    1.835020   -0.124415
     12          1           0        0.756605   -1.747105   -0.019785
 ---------------------------------------------------------------------
 Rotational constants (GHZ):           8.8811351           4.1806974           2.9497569
 Standard basis: 6-311++G(d,p) (5D, 7F)
 There are   164 symmetry adapted cartesian basis functions of A   symmetry.
 There are   159 symmetry adapted basis functions of A   symmetry.
   159 basis functions,   243 primitive gaussians,   164 cartesian basis functions
    20 alpha electrons       20 beta electrons
       nuclear repulsion energy       181.3114332353 Hartrees.
 NAtoms=   12 NActive=   12 NUniq=   12 SFac= 1.00D+00 NAtFMM=   60 NAOKFM=F Big=F
 Integral buffers will be    131072 words long.
 Raffenetti 2 integral format.
 Two-electron integral symmetry is turned on.
 One-electron integrals computed using PRISM.
 NBasis=   159 RedAO= T EigKep=  1.98D-04  NBF=   159
 NBsUse=   159 1.00D-06 EigRej= -1.00D+00 NBFU=   159
 Initial guess from the checkpoint file:  "CN(C)C=O.chk"
 B after Tr=     0.000000   -0.000000   -0.000000
         Rot=    0.999999    0.000179    0.000180   -0.001324 Ang=   0.15 deg.
 Keep R1 ints in memory in canonical form, NReq=88851254.
 Requested convergence on RMS density matrix=1.00D-08 within 128 cycles.
 Requested convergence on MAX density matrix=1.00D-06.
 Requested convergence on             energy=1.00D-06.
 No special actions if energy rises.
 SCF Done:  E(RB3LYP) =  -248.590182603     A.U. after    9 cycles
            NFock=  9  Conv=0.33D-08     -V/T= 2.0042
 Calling FoFJK, ICntrl=      2127 FMM=F ISym2X=0 I1Cent= 0 IOpClX= 0 NMat=1 NMatS=1 NMatT=0.
 ***** Axes restored to original set *****
 -------------------------------------------------------------------
 Center     Atomic                   Forces (Hartrees/Bohr)
 Number     Number              X              Y              Z
 -------------------------------------------------------------------
      1        6          -0.000559937    0.000094607   -0.000314703
      2        7           0.000882925   -0.000044756    0.000511857
      3        6          -0.000397070   -0.000296064   -0.000203688
      4        6           0.000391059   -0.000152785    0.001770628
      5        8          -0.000258514   -0.000005545   -0.000948901
      6        1          -0.000185547   -0.000078938    0.000012571
      7        1           0.000057703   -0.000001888    0.000107113
      8        1           0.000062759   -0.000000472   -0.000167058
      9        1          -0.000011802    0.000033311   -0.000025884
     10        1           0.000175632    0.000140160   -0.000125364
     11        1           0.000001681    0.000054355    0.000118730
     12        1          -0.000158888    0.000258016   -0.000735301
 -------------------------------------------------------------------
 Cartesian Forces:  Max     0.001770628 RMS     0.000435752

 GradGradGradGradGradGradGradGradGradGradGradGradGradGradGradGradGradGrad
 Berny optimization.
 Using GEDIIS/GDIIS optimizer.
 FormGI is forming the generalized inverse of G from B-inverse, IUseBI=4.
 Internal  Forces:  Max     0.001026784 RMS     0.000287672
 Search for a local minimum.
 Step number   3 out of a maximum of   55
 All quantities printed in internal units (Hartrees-Bohrs-Radians)
 Mixed Optimization -- En-DIIS/RFO-DIIS
 Swapping is turned off.
 Update second derivatives using D2CorX and points    1    2    3
 DE= -4.85D-05 DEPred=-5.65D-05 R= 8.59D-01
 TightC=F SS=  1.41D+00  RLast= 5.56D-02 DXNew= 6.7299D-01 1.6693D-01
 Trust test= 8.59D-01 RLast= 5.56D-02 DXMaxT set to 4.00D-01
 ITU=  1  1  0
     Eigenvalues ---    0.00646   0.01039   0.01169   0.01940   0.04467
     Eigenvalues ---    0.07427   0.07567   0.07659   0.07844   0.15521
     Eigenvalues ---    0.15995   0.16000   0.16000   0.16000   0.16075
     Eigenvalues ---    0.17031   0.22634   0.24831   0.25326   0.32963
     Eigenvalues ---    0.34306   0.34373   0.34378   0.34385   0.34431
     Eigenvalues ---    0.34722   0.37710   0.38311   0.48415   0.92380
 En-DIIS/RFO-DIIS/Sim-DIIS IScMMF=       -3 using points:     3    2
 RFO step:  Lambda=-1.23631076D-04.
 DidBck=F Rises=F RFO-DIIS coefs:    2.13352   -1.13352
 Iteration  1 RMS(Cart)=  0.01703949 RMS(Int)=  0.00024455
 Iteration  2 RMS(Cart)=  0.00026300 RMS(Int)=  0.00010614
 Iteration  3 RMS(Cart)=  0.00000004 RMS(Int)=  0.00010614
 Variable       Old X    -DE/DX   Delta X   Delta X   Delta X     New X
                                 (Linear)    (Quad)   (Total)
    R1        2.74478  -0.00051  -0.00329  -0.00096  -0.00426   2.74053
    R2        2.07197  -0.00007  -0.00066   0.00002  -0.00064   2.07133
    R3        2.06201  -0.00001   0.00217  -0.00011   0.00206   2.06407
    R4        2.06837   0.00014   0.00035   0.00045   0.00080   2.06917
    R5        2.74835   0.00011   0.00089   0.00068   0.00157   2.74992
    R6        2.57492   0.00011  -0.00123  -0.00128  -0.00251   2.57241
    R7        2.06787  -0.00000  -0.00059   0.00001  -0.00058   2.06729
    R8        2.07162  -0.00009  -0.00119  -0.00009  -0.00128   2.07034
    R9        2.05667   0.00003   0.00190  -0.00024   0.00166   2.05833
   R10        2.29949  -0.00007  -0.00110  -0.00072  -0.00182   2.29767
   R11        2.08820   0.00027   0.00209   0.00100   0.00310   2.09130
    A1        1.94308  -0.00029  -0.00600  -0.00006  -0.00606   1.93703
    A2        1.91331   0.00008   0.00755  -0.00031   0.00725   1.92056
    A3        1.93056   0.00013  -0.00169   0.00197   0.00026   1.93082
    A4        1.89341   0.00006   0.00043  -0.00031   0.00014   1.89355
    A5        1.89063   0.00005   0.00011  -0.00089  -0.00079   1.88984
    A6        1.89168  -0.00003  -0.00033  -0.00046  -0.00080   1.89088
    A7        2.05570  -0.00002   0.00337   0.00044   0.00360   2.05929
    A8        2.12085   0.00013  -0.00192   0.00101  -0.00113   2.11973
    A9        2.10054  -0.00009   0.00054   0.00026   0.00058   2.10112
   A10        1.92335   0.00002  -0.00267   0.00102  -0.00169   1.92166
   A11        1.93807  -0.00033  -0.00807  -0.00057  -0.00866   1.92941
   A12        1.89348   0.00003   0.00616  -0.00179   0.00437   1.89786
   A13        1.89484   0.00009  -0.00049  -0.00061  -0.00115   1.89368
   A14        1.91127   0.00007   0.00396   0.00140   0.00534   1.91661
   A15        1.90265   0.00012   0.00133   0.00059   0.00193   1.90459
   A16        2.19522  -0.00003   0.00778   0.00018   0.00762   2.20284
   A17        1.95417   0.00013  -0.00398  -0.00004  -0.00436   1.94982
   A18        2.13377  -0.00009  -0.00358   0.00030  -0.00362   2.13015
    D1       -1.08000  -0.00002   0.00398   0.00092   0.00487  -1.07513
    D2        1.94352   0.00020   0.02202   0.01747   0.03947   1.98300
    D3        3.10811   0.00004   0.00227   0.00154   0.00382   3.11193
    D4       -0.15155   0.00026   0.02031   0.01810   0.03842  -0.11313
    D5        1.02307  -0.00005  -0.00105   0.00108   0.00003   1.02310
    D6       -2.23659   0.00016   0.01699   0.01764   0.03463  -2.20196
    D7       -0.98367   0.00009   0.00543   0.00034   0.00579  -0.97788
    D8        1.11658   0.00001  -0.00228  -0.00012  -0.00234   1.11424
    D9       -3.07599  -0.00003  -0.00159  -0.00087  -0.00244  -3.07844
   D10        2.27456  -0.00014  -0.01219  -0.01607  -0.02831   2.24625
   D11       -1.90838  -0.00022  -0.01990  -0.01653  -0.03643  -1.94481
   D12        0.18223  -0.00025  -0.01921  -0.01728  -0.03654   0.14570
   D13       -3.05330  -0.00103   0.00373  -0.04817  -0.04440  -3.09770
   D14        0.08103   0.00060  -0.02897   0.02106  -0.00787   0.07316
   D15       -0.03277  -0.00080   0.02243  -0.03118  -0.00879  -0.04156
   D16        3.10156   0.00083  -0.01026   0.03805   0.02774   3.12930
         Item               Value     Threshold  Converged?
 Maximum Force            0.001027     0.000450     NO 
 RMS     Force            0.000288     0.000300     YES
 Maximum Displacement     0.055581     0.001800     NO 
 RMS     Displacement     0.017056     0.001200     NO 
 Predicted change in Energy=-6.255470D-05
 GradGradGradGradGradGradGradGradGradGradGradGradGradGradGradGradGradGrad

                          Input orientation:                          
 ---------------------------------------------------------------------
 Center     Atomic      Atomic             Coordinates (Angstroms)
 Number     Number       Type             X           Y           Z
 ---------------------------------------------------------------------
      1          6           0        1.309880    0.074953   -0.403642
      2          7           0       -0.086644    0.138666   -0.017876
      3          6           0       -0.768420   -1.110119    0.287581
      4          6           0       -0.722833    1.330004    0.152431
      5          8           0       -1.873226    1.484727    0.514387
      6          1           0        1.920834   -0.347676    0.402311
      7          1           0        1.681395    1.076565   -0.631205
      8          1           0        1.436025   -0.549820   -1.293967
      9          1           0       -0.690650   -1.797939   -0.559539
     10          1           0       -0.320328   -1.588043    1.165698
     11          1           0       -1.816158   -0.895412    0.493855
     12          1           0       -0.069874    2.184093   -0.110033
 ---------------------------------------------------------------------
                    Distance matrix (angstroms):
                    1          2          3          4          5
     1  C    0.000000
     2  N    1.450225   0.000000
     3  C    2.490284   1.455193   0.000000
     4  C    2.452813   1.361260   2.444289   0.000000
     5  O    3.600334   2.299361   2.829358   1.215876   0.000000
     6  H    1.096102   2.107855   2.797600   3.141023   4.214873
     7  H    1.092261   2.093273   3.409890   2.541384   3.756902
     8  H    1.094958   2.102603   2.770344   3.207253   4.284935
     9  H    2.744840   2.099680   1.093963   3.208109   3.650712
    10  H    2.808195   2.106414   1.095575   3.115080   3.503943
    11  H    3.393998   2.079039   1.089222   2.502880   2.380912
    12  H    2.537400   2.047571   3.390856   1.106667   2.032509
                    6          7          8          9         10
     6  H    0.000000
     7  H    1.775936   0.000000
     8  H    1.775742   1.773298   0.000000
     9  H    3.138194   3.727533   2.572923   0.000000
    10  H    2.672841   3.786277   3.195721   1.776974   0.000000
    11  H    3.778029   4.169812   3.727256   1.786327   1.780061
    12  H    3.261176   2.136629   3.338220   4.055120   3.989891
                   11         12
    11  H    0.000000
    12  H    3.591315   0.000000
 Stoichiometry    C3H7NO
 Framework group  C1[X(C3H7NO)]
 Deg. of freedom    30
 Full point group                 C1      NOp   1
 Largest Abelian subgroup         C1      NOp   1
 Largest concise Abelian subgroup C1      NOp   1
                         Standard orientation:                         
 ---------------------------------------------------------------------
 Center     Atomic      Atomic             Coordinates (Angstroms)
 Number     Number       Type             X           Y           Z
 ---------------------------------------------------------------------
      1          6           0       -1.585699   -0.768078    0.011098
      2          7           0       -0.345533   -0.017499   -0.031024
      3          6           0       -0.425018    1.435157    0.001534
      4          6           0        0.863822   -0.641723   -0.002143
      5          8           0        1.952001   -0.099437    0.009996
      6          1           0       -2.131320   -0.572736    0.941463
      7          1           0       -1.377577   -1.838572   -0.050241
      8          1           0       -2.231296   -0.493885   -0.829708
      9          1           0       -1.057281    1.795528   -0.815247
     10          1           0       -0.854823    1.775574    0.950042
     11          1           0        0.579679    1.842981   -0.101756
     12          1           0        0.756705   -1.743044   -0.020286
 ---------------------------------------------------------------------
 Rotational constants (GHZ):           8.8719793           4.1808343           2.9476640
 Standard basis: 6-311++G(d,p) (5D, 7F)
 There are   164 symmetry adapted cartesian basis functions of A   symmetry.
 There are   159 symmetry adapted basis functions of A   symmetry.
   159 basis functions,   243 primitive gaussians,   164 cartesian basis functions
    20 alpha electrons       20 beta electrons
       nuclear repulsion energy       181.3287966835 Hartrees.
 NAtoms=   12 NActive=   12 NUniq=   12 SFac= 1.00D+00 NAtFMM=   60 NAOKFM=F Big=F
 Integral buffers will be    131072 words long.
 Raffenetti 2 integral format.
 Two-electron integral symmetry is turned on.
 One-electron integrals computed using PRISM.
 NBasis=   159 RedAO= T EigKep=  1.96D-04  NBF=   159
 NBsUse=   159 1.00D-06 EigRej= -1.00D+00 NBFU=   159
 Initial guess from the checkpoint file:  "CN(C)C=O.chk"
 B after Tr=     0.000000   -0.000000   -0.000000
         Rot=    0.999998    0.000838    0.001081   -0.001416 Ang=   0.23 deg.
 ExpMin= 3.60D-02 ExpMax= 8.59D+03 ExpMxC= 1.30D+03 IAcc=3 IRadAn=         5 AccDes= 0.00D+00
 Harris functional with IExCor=  402 and IRadAn=       5 diagonalized for initial guess.
 HarFok:  IExCor=  402 AccDes= 0.00D+00 IRadAn=         5 IDoV= 1 UseB2=F ITyADJ=14
 ICtDFT=  3500011 ScaDFX=  1.000000  1.000000  1.000000  1.000000
 FoFCou: FMM=F IPFlag=           0 FMFlag=      100000 FMFlg1=           0
         NFxFlg=           0 DoJE=T BraDBF=F KetDBF=T FulRan=T
         wScrn=  0.000000 ICntrl=       500 IOpCl=  0 I1Cent=   200000004 NGrid=           0
         NMat0=    1 NMatS0=      1 NMatT0=    0 NMatD0=    1 NMtDS0=    0 NMtDT0=    0
 Petite list used in FoFCou.
 Keep R1 ints in memory in canonical form, NReq=88851254.
 Requested convergence on RMS density matrix=1.00D-08 within 128 cycles.
 Requested convergence on MAX density matrix=1.00D-06.
 Requested convergence on             energy=1.00D-06.
 No special actions if energy rises.
 SCF Done:  E(RB3LYP) =  -248.590189977     A.U. after    9 cycles
            NFock=  9  Conv=0.72D-08     -V/T= 2.0041
 Calling FoFJK, ICntrl=      2127 FMM=F ISym2X=0 I1Cent= 0 IOpClX= 0 NMat=1 NMatS=1 NMatT=0.
 ***** Axes restored to original set *****
 -------------------------------------------------------------------
 Center     Atomic                   Forces (Hartrees/Bohr)
 Number     Number              X              Y              Z
 -------------------------------------------------------------------
      1        6           0.000919831   -0.000874115   -0.000054894
      2        7          -0.001431546    0.000425161    0.001086369
      3        6           0.000974023    0.000136813    0.000377111
      4        6           0.000914264    0.002425351   -0.003590695
      5        8          -0.001020684   -0.000960383    0.001401454
      6        1           0.000463362   -0.000035196   -0.000143801
      7        1          -0.000800114   -0.000528846    0.000463687
      8        1           0.000123302    0.000054677   -0.000126179
      9        1          -0.000548339   -0.000182581   -0.000205759
     10        1          -0.000175486   -0.000514073    0.000214980
     11        1           0.000690544    0.000211697   -0.000385318
     12        1          -0.000109159   -0.000158506    0.000963045
 -------------------------------------------------------------------
 Cartesian Forces:  Max     0.003590695 RMS     0.000963652

 GradGradGradGradGradGradGradGradGradGradGradGradGradGradGradGradGradGrad
 Berny optimization.
 Using GEDIIS/GDIIS optimizer.
 FormGI is forming the generalized inverse of G from B-inverse, IUseBI=4.
 Internal  Forces:  Max     0.001897568 RMS     0.000666615
 Search for a local minimum.
 Step number   4 out of a maximum of   55
 All quantities printed in internal units (Hartrees-Bohrs-Radians)
 Mixed Optimization -- En-DIIS/RFO-DIIS
 Swapping is turned off.
 Update second derivatives using D2CorX and points    1    2    3    4
 DE= -7.37D-06 DEPred=-6.26D-05 R= 1.18D-01
 Trust test= 1.18D-01 RLast= 1.05D-01 DXMaxT set to 4.00D-01
 ITU=  0  1  1  0
     Eigenvalues ---    0.00374   0.01040   0.01170   0.01945   0.07158
     Eigenvalues ---    0.07473   0.07612   0.07692   0.08150   0.15750
     Eigenvalues ---    0.15997   0.16000   0.16000   0.16020   0.16210
     Eigenvalues ---    0.16981   0.23880   0.24915   0.28332   0.33220
     Eigenvalues ---    0.34332   0.34373   0.34379   0.34385   0.34434
     Eigenvalues ---    0.35821   0.38150   0.38351   0.51969   0.95695
 En-DIIS/RFO-DIIS/Sim-DIIS IScMMF=       -3 using points:     4    3    2
 RFO step:  Lambda=-9.08979402D-05.
 DidBck=F Rises=F RFO-DIIS coefs:    0.90201    0.58201   -0.48402
 Iteration  1 RMS(Cart)=  0.00392359 RMS(Int)=  0.00003644
 Iteration  2 RMS(Cart)=  0.00002475 RMS(Int)=  0.00003023
 Iteration  3 RMS(Cart)=  0.00000000 RMS(Int)=  0.00003023
 Variable       Old X    -DE/DX   Delta X   Delta X   Delta X     New X
                                 (Linear)    (Quad)   (Total)
    R1        2.74053   0.00070  -0.00099   0.00212   0.00113   2.74166
    R2        2.07133   0.00017  -0.00022   0.00059   0.00037   2.07171
    R3        2.06407  -0.00085   0.00072  -0.00216  -0.00144   2.06264
    R4        2.06917   0.00009   0.00007   0.00011   0.00018   2.06935
    R5        2.74992  -0.00014   0.00023  -0.00024  -0.00001   2.74990
    R6        2.57241   0.00109  -0.00028   0.00065   0.00037   2.57278
    R7        2.06729   0.00024  -0.00019   0.00058   0.00039   2.06768
    R8        2.07034   0.00033  -0.00038   0.00099   0.00061   2.07095
    R9        2.05833  -0.00070   0.00065  -0.00196  -0.00131   2.05703
   R10        2.29767   0.00126  -0.00029   0.00066   0.00037   2.29804
   R11        2.09130  -0.00042   0.00059  -0.00113  -0.00054   2.09076
    A1        1.93703   0.00083  -0.00197   0.00582   0.00385   1.94087
    A2        1.92056  -0.00112   0.00251  -0.00735  -0.00483   1.91573
    A3        1.93082   0.00026  -0.00075   0.00265   0.00189   1.93271
    A4        1.89355   0.00003   0.00017  -0.00066  -0.00047   1.89308
    A5        1.88984  -0.00025   0.00013  -0.00060  -0.00050   1.88934
    A6        1.89088   0.00026  -0.00006   0.00007  -0.00000   1.89088
    A7        2.05929  -0.00091   0.00109  -0.00290  -0.00190   2.05740
    A8        2.11973   0.00097  -0.00071   0.00302   0.00223   2.12195
    A9        2.10112  -0.00005   0.00017  -0.00014  -0.00005   2.10108
   A10        1.92166   0.00041  -0.00098   0.00297   0.00197   1.92363
   A11        1.92941   0.00090  -0.00260   0.00708   0.00447   1.93388
   A12        1.89786  -0.00089   0.00220  -0.00706  -0.00485   1.89300
   A13        1.89368  -0.00023  -0.00010   0.00022   0.00008   1.89376
   A14        1.91661  -0.00021   0.00117  -0.00290  -0.00174   1.91487
   A15        1.90459   0.00002   0.00038  -0.00034   0.00005   1.90464
   A16        2.20284  -0.00190   0.00257  -0.00730  -0.00466   2.19818
   A17        1.94982   0.00118  -0.00127   0.00401   0.00280   1.95261
   A18        2.13015   0.00076  -0.00118   0.00330   0.00219   2.13234
    D1       -1.07513  -0.00013   0.00122  -0.00014   0.00106  -1.07407
    D2        1.98300  -0.00006   0.00553  -0.00046   0.00506   1.98806
    D3        3.11193   0.00004   0.00059   0.00175   0.00235   3.11428
    D4       -0.11313   0.00010   0.00491   0.00143   0.00635  -0.10678
    D5        1.02310   0.00027  -0.00045   0.00469   0.00425   1.02735
    D6       -2.20196   0.00034   0.00386   0.00438   0.00825  -2.19371
    D7       -0.97788  -0.00041   0.00175  -0.00718  -0.00543  -0.98331
    D8        1.11424   0.00014  -0.00074  -0.00048  -0.00119   1.11306
    D9       -3.07844   0.00016  -0.00044  -0.00103  -0.00147  -3.07991
   D10        2.24625  -0.00052  -0.00243  -0.00703  -0.00949   2.23676
   D11       -1.94481   0.00003  -0.00493  -0.00033  -0.00525  -1.95006
   D12        0.14570   0.00004  -0.00462  -0.00088  -0.00553   0.14016
   D13       -3.09770   0.00090   0.00594   0.00128   0.00724  -3.09046
   D14        0.07316  -0.00085  -0.01160   0.00055  -0.01103   0.06213
   D15       -0.04156   0.00093   0.01044   0.00084   0.01126  -0.03030
   D16        3.12930  -0.00082  -0.00710   0.00011  -0.00701   3.12229
         Item               Value     Threshold  Converged?
 Maximum Force            0.001898     0.000450     NO 
 RMS     Force            0.000667     0.000300     NO 
 Maximum Displacement     0.011086     0.001800     NO 
 RMS     Displacement     0.003922     0.001200     NO 
 Predicted change in Energy=-4.392456D-05
 GradGradGradGradGradGradGradGradGradGradGradGradGradGradGradGradGradGrad

                          Input orientation:                          
 ---------------------------------------------------------------------
 Center     Atomic      Atomic             Coordinates (Angstroms)
 Number     Number       Type             X           Y           Z
 ---------------------------------------------------------------------
      1          6           0        1.311112    0.073377   -0.403186
      2          7           0       -0.086071    0.139519   -0.017957
      3          6           0       -0.767285   -1.109307    0.288552
      4          6           0       -0.724657    1.330613    0.146564
      5          8           0       -1.874052    1.479501    0.514740
      6          1           0        1.924564   -0.349495    0.401007
      7          1           0        1.679674    1.075751   -0.628532
      8          1           0        1.438341   -0.549100   -1.295082
      9          1           0       -0.694788   -1.797457   -0.559032
     10          1           0       -0.321475   -1.590559    1.166415
     11          1           0       -1.813296   -0.889749    0.494841
     12          1           0       -0.072066    2.186906   -0.108332
 ---------------------------------------------------------------------
                    Distance matrix (angstroms):
                    1          2          3          4          5
     1  C    0.000000
     2  N    1.450826   0.000000
     3  C    2.489373   1.455186   0.000000
     4  C    2.455040   1.361457   2.444420   0.000000
     5  O    3.600700   2.296997   2.824539   1.216071   0.000000
     6  H    1.096299   2.111236   2.799288   3.147360   4.217540
     7  H    1.091500   2.089782   3.406338   2.539003   3.754871
     8  H    1.095053   2.104537   2.772457   3.207838   4.285163
     9  H    2.747351   2.101231   1.094169   3.206802   3.644462
    10  H    2.810280   2.109815   1.095898   3.120240   3.501492
    11  H    3.390574   2.075008   1.088531   2.497287   2.370113
    12  H    2.543054   2.049429   3.392030   1.106383   2.033665
                    6          7          8          9         10
     6  H    0.000000
     7  H    1.775176   0.000000
     8  H    1.775661   1.772758   0.000000
     9  H    3.143130   3.728032   2.578837   0.000000
    10  H    2.677831   3.786244   3.200087   1.777452   0.000000
    11  H    3.777866   4.162451   3.727333   1.784837   1.779796
    12  H    3.267918   2.138660   3.342967   4.057839   3.994549
                   11         12
    11  H    0.000000
    12  H    3.586294   0.000000
 Stoichiometry    C3H7NO
 Framework group  C1[X(C3H7NO)]
 Deg. of freedom    30
 Full point group                 C1      NOp   1
 Largest Abelian subgroup         C1      NOp   1
 Largest concise Abelian subgroup C1      NOp   1
                         Standard orientation:                         
 ---------------------------------------------------------------------
 Center     Atomic      Atomic             Coordinates (Angstroms)
 Number     Number       Type             X           Y           Z
 ---------------------------------------------------------------------
      1          6           0       -1.588688   -0.764169    0.011860
      2          7           0       -0.344989   -0.018311   -0.030631
      3          6           0       -0.421353    1.434513    0.001556
      4          6           0        0.863392   -0.645043   -0.006396
      5          8           0        1.950170   -0.099694    0.012012
      6          1           0       -2.137119   -0.568054    0.940641
      7          1           0       -1.379729   -1.833865   -0.046948
      8          1           0       -2.232925   -0.492115   -0.830806
      9          1           0       -1.048181    1.798436   -0.818110
     10          1           0       -0.851182    1.780793    0.948303
     11          1           0        0.585674    1.834965   -0.100594
     12          1           0        0.756916   -1.746246   -0.016290
 ---------------------------------------------------------------------
 Rotational constants (GHZ):           8.8803523           4.1818035           2.9491379
 Standard basis: 6-311++G(d,p) (5D, 7F)
 There are   164 symmetry adapted cartesian basis functions of A   symmetry.
 There are   159 symmetry adapted basis functions of A   symmetry.
   159 basis functions,   243 primitive gaussians,   164 cartesian basis functions
    20 alpha electrons       20 beta electrons
       nuclear repulsion energy       181.3426976224 Hartrees.
 NAtoms=   12 NActive=   12 NUniq=   12 SFac= 1.00D+00 NAtFMM=   60 NAOKFM=F Big=F
 Integral buffers will be    131072 words long.
 Raffenetti 2 integral format.
 Two-electron integral symmetry is turned on.
 One-electron integrals computed using PRISM.
 NBasis=   159 RedAO= T EigKep=  1.97D-04  NBF=   159
 NBsUse=   159 1.00D-06 EigRej= -1.00D+00 NBFU=   159
 Initial guess from the checkpoint file:  "CN(C)C=O.chk"
 B after Tr=    -0.000000    0.000000    0.000000
         Rot=    1.000000    0.000174    0.000130    0.000887 Ang=   0.10 deg.
 Keep R1 ints in memory in canonical form, NReq=88851254.
 Requested convergence on RMS density matrix=1.00D-08 within 128 cycles.
 Requested convergence on MAX density matrix=1.00D-06.
 Requested convergence on             energy=1.00D-06.
 No special actions if energy rises.
 SCF Done:  E(RB3LYP) =  -248.590242973     A.U. after    9 cycles
            NFock=  9  Conv=0.26D-08     -V/T= 2.0041
 Calling FoFJK, ICntrl=      2127 FMM=F ISym2X=0 I1Cent= 0 IOpClX= 0 NMat=1 NMatS=1 NMatT=0.
 ***** Axes restored to original set *****
 -------------------------------------------------------------------
 Center     Atomic                   Forces (Hartrees/Bohr)
 Number     Number              X              Y              Z
 -------------------------------------------------------------------
      1        6           0.000517293   -0.000299138   -0.000242042
      2        7          -0.000101353   -0.000656145    0.000674300
      3        6           0.000430566    0.000254088    0.000170461
      4        6           0.000951366    0.001420164   -0.001163723
      5        8          -0.001053523   -0.000230124    0.000471150
      6        1          -0.000030959    0.000001168   -0.000024803
      7        1          -0.000211591   -0.000140533    0.000230820
      8        1          -0.000046712    0.000046694   -0.000076257
      9        1          -0.000320552   -0.000031548   -0.000180699
     10        1           0.000010557   -0.000054824    0.000011619
     11        1           0.000120418   -0.000091212   -0.000106383
     12        1          -0.000265509   -0.000218590    0.000235558
 -------------------------------------------------------------------
 Cartesian Forces:  Max     0.001420164 RMS     0.000463331

 GradGradGradGradGradGradGradGradGradGradGradGradGradGradGradGradGradGrad
 Berny optimization.
 Using GEDIIS/GDIIS optimizer.
 FormGI is forming the generalized inverse of G from B-inverse, IUseBI=4.
 Internal  Forces:  Max     0.001110551 RMS     0.000292010
 Search for a local minimum.
 Step number   5 out of a maximum of   55
 All quantities printed in internal units (Hartrees-Bohrs-Radians)
 Mixed Optimization -- En-DIIS/RFO-DIIS
 Swapping is turned off.
 Update second derivatives using D2CorX and points    1    2    3    4    5
 DE= -5.30D-05 DEPred=-4.39D-05 R= 1.21D+00
 TightC=F SS=  1.41D+00  RLast= 2.88D-02 DXNew= 6.7299D-01 8.6508D-02
 Trust test= 1.21D+00 RLast= 2.88D-02 DXMaxT set to 4.00D-01
 ITU=  1  0  1  1  0
     Eigenvalues ---    0.00233   0.01040   0.01175   0.01946   0.07428
     Eigenvalues ---    0.07480   0.07660   0.07713   0.08701   0.15772
     Eigenvalues ---    0.15992   0.16000   0.16000   0.16076   0.16342
     Eigenvalues ---    0.18196   0.23519   0.24923   0.26229   0.33332
     Eigenvalues ---    0.34338   0.34374   0.34379   0.34402   0.34457
     Eigenvalues ---    0.35131   0.37967   0.38415   0.52223   0.96084
 En-DIIS/RFO-DIIS/Sim-DIIS IScMMF=       -3 using points:     5    4    3    2
 RFO step:  Lambda=-5.12965952D-05.
 DidBck=F Rises=F RFO-DIIS coefs:    3.00000   -1.13296   -0.67733   -0.18971
 Iteration  1 RMS(Cart)=  0.02339665 RMS(Int)=  0.00033417
 Iteration  2 RMS(Cart)=  0.00038157 RMS(Int)=  0.00015115
 Iteration  3 RMS(Cart)=  0.00000007 RMS(Int)=  0.00015115
 Variable       Old X    -DE/DX   Delta X   Delta X   Delta X     New X
                                 (Linear)    (Quad)   (Total)
    R1        2.74166   0.00027  -0.00197   0.00129  -0.00068   2.74098
    R2        2.07171  -0.00004   0.00008  -0.00050  -0.00042   2.07129
    R3        2.06264  -0.00025  -0.00073   0.00021  -0.00051   2.06212
    R4        2.06935   0.00003   0.00112  -0.00018   0.00094   2.07029
    R5        2.74990  -0.00020   0.00148  -0.00105   0.00043   2.75034
    R6        2.57278   0.00097  -0.00164   0.00231   0.00067   2.57345
    R7        2.06768   0.00014   0.00018   0.00054   0.00072   2.06840
    R8        2.07095   0.00004  -0.00009  -0.00030  -0.00039   2.07056
    R9        2.05703  -0.00015  -0.00086   0.00032  -0.00054   2.05649
   R10        2.29804   0.00111  -0.00102   0.00171   0.00068   2.29872
   R11        2.09076  -0.00038   0.00196  -0.00243  -0.00047   2.09030
    A1        1.94087   0.00004   0.00143  -0.00214  -0.00071   1.94016
    A2        1.91573  -0.00029  -0.00210   0.00060  -0.00150   1.91423
    A3        1.93271   0.00001   0.00373  -0.00064   0.00308   1.93579
    A4        1.89308   0.00005  -0.00075  -0.00017  -0.00092   1.89216
    A5        1.88934   0.00006  -0.00166   0.00133  -0.00034   1.88900
    A6        1.89088   0.00013  -0.00076   0.00111   0.00035   1.89123
    A7        2.05740  -0.00033  -0.00011  -0.00017  -0.00085   2.05654
    A8        2.12195   0.00034   0.00316   0.00010   0.00269   2.12464
    A9        2.10108  -0.00000   0.00050   0.00057   0.00050   2.10158
   A10        1.92363   0.00011   0.00202  -0.00007   0.00194   1.92556
   A11        1.93388   0.00008   0.00008  -0.00099  -0.00093   1.93295
   A12        1.89300  -0.00001  -0.00488   0.00324  -0.00164   1.89137
   A13        1.89376   0.00004  -0.00093   0.00117   0.00021   1.89398
   A14        1.91487  -0.00022   0.00182  -0.00328  -0.00147   1.91340
   A15        1.90464  -0.00000   0.00201  -0.00013   0.00188   1.90652
   A16        2.19818  -0.00065  -0.00141  -0.00007  -0.00159   2.19659
   A17        1.95261   0.00044   0.00115  -0.00017   0.00087   1.95348
   A18        2.13234   0.00021   0.00064   0.00024   0.00077   2.13311
    D1       -1.07407  -0.00003   0.00702   0.00504   0.01204  -1.06203
    D2        1.98806   0.00006   0.04803   0.01231   0.06034   2.04840
    D3        3.11428   0.00006   0.00839   0.00623   0.01461   3.12890
    D4       -0.10678   0.00016   0.04941   0.01349   0.06292  -0.04386
    D5        1.02735   0.00007   0.00835   0.00487   0.01321   1.04056
    D6       -2.19371   0.00017   0.04936   0.01213   0.06151  -2.13220
    D7       -0.98331  -0.00016  -0.00493  -0.00851  -0.01346  -0.99677
    D8        1.11306   0.00001  -0.00478  -0.00774  -0.01253   1.10053
    D9       -3.07991   0.00005  -0.00532  -0.00646  -0.01181  -3.09171
   D10        2.23676  -0.00027  -0.04556  -0.01566  -0.06121   2.17555
   D11       -1.95006  -0.00010  -0.04542  -0.01489  -0.06028  -2.01033
   D12        0.14016  -0.00006  -0.04596  -0.01361  -0.05955   0.08061
   D13       -3.09046   0.00006  -0.02339  -0.00494  -0.02835  -3.11880
   D14        0.06213  -0.00017  -0.03373  -0.00457  -0.03832   0.02381
   D15       -0.03030   0.00015   0.01865   0.00247   0.02113  -0.00917
   D16        3.12229  -0.00008   0.00831   0.00283   0.01116   3.13345
         Item               Value     Threshold  Converged?
 Maximum Force            0.001111     0.000450     NO 
 RMS     Force            0.000292     0.000300     YES
 Maximum Displacement     0.062236     0.001800     NO 
 RMS     Displacement     0.023393     0.001200     NO 
 Predicted change in Energy=-2.367609D-05
 GradGradGradGradGradGradGradGradGradGradGradGradGradGradGradGradGradGrad

                          Input orientation:                          
 ---------------------------------------------------------------------
 Center     Atomic      Atomic             Coordinates (Angstroms)
 Number     Number       Type             X           Y           Z
 ---------------------------------------------------------------------
      1          6           0        1.313067    0.072615   -0.397592
      2          7           0       -0.080038    0.141179    0.000409
      3          6           0       -0.764226   -1.108637    0.297195
      4          6           0       -0.729566    1.330821    0.132268
      5          8           0       -1.885547    1.476559    0.481806
      6          1           0        1.928511   -0.374506    0.391519
      7          1           0        1.687558    1.077592   -0.598988
      8          1           0        1.431092   -0.528123   -1.306116
      9          1           0       -0.715011   -1.782775   -0.563708
     10          1           0       -0.304355   -1.608237    1.157114
     11          1           0       -1.804027   -0.884214    0.526821
     12          1           0       -0.077458    2.187727   -0.120729
 ---------------------------------------------------------------------
                    Distance matrix (angstroms):
                    1          2          3          4          5
     1  C    0.000000
     2  N    1.450465   0.000000
     3  C    2.488621   1.455416   0.000000
     4  C    2.456865   1.361809   2.445273   0.000000
     5  O    3.602157   2.296704   2.823948   1.216433   0.000000
     6  H    1.096077   2.110253   2.792612   3.168711   4.240476
     7  H    1.091229   2.088191   3.404994   2.537981   3.754247
     8  H    1.095551   2.106772   2.779753   3.192659   4.267964
     9  H    2.753755   2.103096   1.094549   3.190466   3.617528
    10  H    2.803289   2.109204   1.095693   3.141525   3.531597
    11  H    3.389150   2.073808   1.088246   2.493295   2.362609
    12  H    2.546353   2.050132   3.392982   1.106137   2.034206
                    6          7          8          9         10
     6  H    0.000000
     7  H    1.774190   0.000000
     8  H    1.775666   1.773168   0.000000
     9  H    3.143865   3.735676   2.594432   0.000000
    10  H    2.663442   3.776942   3.200926   1.777731   0.000000
    11  H    3.769609   4.160204   3.735299   1.783990   1.780588
    12  H    3.294139   2.139256   3.325163   4.045687   4.011697
                   11         12
    11  H    0.000000
    12  H    3.582902   0.000000
 Stoichiometry    C3H7NO
 Framework group  C1[X(C3H7NO)]
 Deg. of freedom    30
 Full point group                 C1      NOp   1
 Largest Abelian subgroup         C1      NOp   1
 Largest concise Abelian subgroup C1      NOp   1
                         Standard orientation:                         
 ---------------------------------------------------------------------
 Center     Atomic      Atomic             Coordinates (Angstroms)
 Number     Number       Type             X           Y           Z
 ---------------------------------------------------------------------
      1          6           0       -1.589928   -0.762989    0.005260
      2          7           0       -0.344794   -0.019227   -0.012283
      3          6           0       -0.421214    1.434126    0.000328
      4          6           0        0.864138   -0.646070   -0.003600
      5          8           0        1.950462   -0.098782    0.005502
      6          1           0       -2.168154   -0.545334    0.910614
      7          1           0       -1.378960   -1.833334   -0.019965
      8          1           0       -2.207405   -0.512395   -0.864312
      9          1           0       -1.013758    1.791085   -0.847910
     10          1           0       -0.888095    1.790293    0.925374
     11          1           0        0.589738    1.831269   -0.067009
     12          1           0        0.758519   -1.747148   -0.006762
 ---------------------------------------------------------------------
 Rotational constants (GHZ):           8.8874142           4.1789765           2.9480225
 Standard basis: 6-311++G(d,p) (5D, 7F)
 There are   164 symmetry adapted cartesian basis functions of A   symmetry.
 There are   159 symmetry adapted basis functions of A   symmetry.
   159 basis functions,   243 primitive gaussians,   164 cartesian basis functions
    20 alpha electrons       20 beta electrons
       nuclear repulsion energy       181.3276997047 Hartrees.
 NAtoms=   12 NActive=   12 NUniq=   12 SFac= 1.00D+00 NAtFMM=   60 NAOKFM=F Big=F
 Integral buffers will be    131072 words long.
 Raffenetti 2 integral format.
 Two-electron integral symmetry is turned on.
 One-electron integrals computed using PRISM.
 NBasis=   159 RedAO= T EigKep=  1.96D-04  NBF=   159
 NBsUse=   159 1.00D-06 EigRej= -1.00D+00 NBFU=   159
 Initial guess from the checkpoint file:  "CN(C)C=O.chk"
 B after Tr=     0.000000    0.000000    0.000000
         Rot=    0.999998    0.001405    0.001646    0.000072 Ang=   0.25 deg.
 ExpMin= 3.60D-02 ExpMax= 8.59D+03 ExpMxC= 1.30D+03 IAcc=3 IRadAn=         5 AccDes= 0.00D+00
 Harris functional with IExCor=  402 and IRadAn=       5 diagonalized for initial guess.
 HarFok:  IExCor=  402 AccDes= 0.00D+00 IRadAn=         5 IDoV= 1 UseB2=F ITyADJ=14
 ICtDFT=  3500011 ScaDFX=  1.000000  1.000000  1.000000  1.000000
 FoFCou: FMM=F IPFlag=           0 FMFlag=      100000 FMFlg1=           0
         NFxFlg=           0 DoJE=T BraDBF=F KetDBF=T FulRan=T
         wScrn=  0.000000 ICntrl=       500 IOpCl=  0 I1Cent=   200000004 NGrid=           0
         NMat0=    1 NMatS0=      1 NMatT0=    0 NMatD0=    1 NMtDS0=    0 NMtDT0=    0
 Petite list used in FoFCou.
 Keep R1 ints in memory in canonical form, NReq=88851254.
 Requested convergence on RMS density matrix=1.00D-08 within 128 cycles.
 Requested convergence on MAX density matrix=1.00D-06.
 Requested convergence on             energy=1.00D-06.
 No special actions if energy rises.
 SCF Done:  E(RB3LYP) =  -248.590287319     A.U. after    9 cycles
            NFock=  9  Conv=0.54D-08     -V/T= 2.0041
 Calling FoFJK, ICntrl=      2127 FMM=F ISym2X=0 I1Cent= 0 IOpClX= 0 NMat=1 NMatS=1 NMatT=0.
 ***** Axes restored to original set *****
 -------------------------------------------------------------------
 Center     Atomic                   Forces (Hartrees/Bohr)
 Number     Number              X              Y              Z
 -------------------------------------------------------------------
      1        6           0.000645106   -0.000043386   -0.000237018
      2        7          -0.000351788   -0.000954222    0.000256398
      3        6           0.000468590    0.000435907    0.000107303
      4        6           0.000787811    0.000820909   -0.000118722
      5        8          -0.000617076   -0.000027077    0.000057525
      6        1          -0.000192049    0.000038774    0.000034541
      7        1          -0.000024741    0.000011998    0.000091506
      8        1          -0.000127146    0.000048965    0.000019985
      9        1          -0.000255827   -0.000033039   -0.000133464
     10        1           0.000028118    0.000059192   -0.000044998
     11        1          -0.000091141   -0.000165705   -0.000021253
     12        1          -0.000269858   -0.000192316   -0.000011803
 -------------------------------------------------------------------
 Cartesian Forces:  Max     0.000954222 RMS     0.000333055

 GradGradGradGradGradGradGradGradGradGradGradGradGradGradGradGradGradGrad
 Berny optimization.
 Using GEDIIS/GDIIS optimizer.
 FormGI is forming the generalized inverse of G from B-inverse, IUseBI=4.
 Internal  Forces:  Max     0.000599913 RMS     0.000179553
 Search for a local minimum.
 Step number   6 out of a maximum of   55
 All quantities printed in internal units (Hartrees-Bohrs-Radians)
 Mixed Optimization -- En-DIIS/RFO-DIIS
 Swapping is turned off.
 Update second derivatives using D2CorX and points    1    2    3    4    5
                                                      6
 DE= -4.43D-05 DEPred=-2.37D-05 R= 1.87D+00
 TightC=F SS=  1.41D+00  RLast= 1.62D-01 DXNew= 6.7299D-01 4.8565D-01
 Trust test= 1.87D+00 RLast= 1.62D-01 DXMaxT set to 4.86D-01
 ITU=  1  1  0  1  1  0
     Eigenvalues ---    0.00124   0.01050   0.01228   0.01948   0.07436
     Eigenvalues ---    0.07463   0.07656   0.07792   0.08872   0.15881
     Eigenvalues ---    0.15999   0.16003   0.16020   0.16256   0.16314
     Eigenvalues ---    0.17820   0.23618   0.25050   0.26456   0.33692
     Eigenvalues ---    0.34328   0.34372   0.34387   0.34443   0.34462
     Eigenvalues ---    0.35197   0.38433   0.39343   0.50550   0.94489
 En-DIIS/RFO-DIIS/Sim-DIIS IScMMF=       -3 using points:     6    5    4    3    2
 RFO step:  Lambda=-2.45419150D-05.
 DidBck=F Rises=F RFO-DIIS coefs:    1.69926   -2.00000    0.73264    0.37497    0.19312
 Iteration  1 RMS(Cart)=  0.02103821 RMS(Int)=  0.00024467
 Iteration  2 RMS(Cart)=  0.00027572 RMS(Int)=  0.00004795
 Iteration  3 RMS(Cart)=  0.00000004 RMS(Int)=  0.00004795
 Variable       Old X    -DE/DX   Delta X   Delta X   Delta X     New X
                                 (Linear)    (Quad)   (Total)
    R1        2.74098   0.00031   0.00102  -0.00034   0.00069   2.74167
    R2        2.07129  -0.00010  -0.00030  -0.00048  -0.00078   2.07051
    R3        2.06212  -0.00001  -0.00003   0.00000  -0.00003   2.06210
    R4        2.07029  -0.00006  -0.00009   0.00042   0.00032   2.07061
    R5        2.75034  -0.00034  -0.00072  -0.00034  -0.00107   2.74927
    R6        2.57345   0.00057   0.00162  -0.00044   0.00118   2.57462
    R7        2.06840   0.00011   0.00042   0.00051   0.00093   2.06933
    R8        2.07056  -0.00005  -0.00014  -0.00049  -0.00063   2.06993
    R9        2.05649   0.00005   0.00006   0.00005   0.00011   2.05660
   R10        2.29872   0.00060   0.00122  -0.00041   0.00080   2.29953
   R11        2.09030  -0.00031  -0.00174   0.00050  -0.00125   2.08905
    A1        1.94016  -0.00022  -0.00103  -0.00222  -0.00325   1.93692
    A2        1.91423  -0.00001  -0.00018   0.00007  -0.00011   1.91412
    A3        1.93579  -0.00010  -0.00017   0.00130   0.00114   1.93693
    A4        1.89216   0.00008  -0.00018   0.00002  -0.00017   1.89199
    A5        1.88900   0.00017   0.00084   0.00032   0.00117   1.89017
    A6        1.89123   0.00010   0.00076   0.00054   0.00131   1.89254
    A7        2.05654  -0.00004  -0.00075   0.00003  -0.00055   2.05599
    A8        2.12464  -0.00008  -0.00005  -0.00016  -0.00004   2.12460
    A9        2.10158   0.00012  -0.00001   0.00086   0.00102   2.10260
   A10        1.92556   0.00010   0.00021   0.00213   0.00235   1.92792
   A11        1.93295  -0.00011  -0.00017  -0.00169  -0.00184   1.93111
   A12        1.89137   0.00022   0.00163  -0.00076   0.00088   1.89224
   A13        1.89398   0.00006   0.00079  -0.00008   0.00072   1.89470
   A14        1.91340  -0.00024  -0.00248  -0.00088  -0.00335   1.91005
   A15        1.90652  -0.00004  -0.00008   0.00127   0.00119   1.90771
   A16        2.19659  -0.00020  -0.00070  -0.00046  -0.00109   2.19550
   A17        1.95348   0.00018   0.00012   0.00090   0.00110   1.95458
   A18        2.13311   0.00002   0.00036  -0.00044  -0.00001   2.13311
    D1       -1.06203   0.00001   0.00359   0.00932   0.01294  -1.04909
    D2        2.04840   0.00003   0.00944   0.03640   0.04582   2.09423
    D3        3.12890   0.00006   0.00461   0.01065   0.01527  -3.13902
    D4       -0.04386   0.00008   0.01045   0.03773   0.04816   0.00430
    D5        1.04056   0.00001   0.00387   0.00912   0.01300   1.05356
    D6       -2.13220   0.00002   0.00972   0.03619   0.04589  -2.08631
    D7       -0.99677  -0.00012  -0.00657  -0.01402  -0.02057  -1.01734
    D8        1.10053  -0.00005  -0.00550  -0.01382  -0.01932   1.08120
    D9       -3.09171  -0.00002  -0.00469  -0.01375  -0.01843  -3.11014
   D10        2.17555  -0.00013  -0.01230  -0.04070  -0.05301   2.12255
   D11       -2.01033  -0.00006  -0.01123  -0.04051  -0.05176  -2.06209
   D12        0.08061  -0.00003  -0.01042  -0.04044  -0.05086   0.02975
   D13       -3.11880  -0.00013  -0.00465  -0.01830  -0.02296   3.14142
   D14        0.02381   0.00009  -0.00304  -0.02116  -0.02422  -0.00041
   D15       -0.00917  -0.00011   0.00130   0.00945   0.01076   0.00160
   D16        3.13345   0.00010   0.00291   0.00658   0.00951  -3.14023
         Item               Value     Threshold  Converged?
 Maximum Force            0.000600     0.000450     NO 
 RMS     Force            0.000180     0.000300     YES
 Maximum Displacement     0.060582     0.001800     NO 
 RMS     Displacement     0.021038     0.001200     NO 
 Predicted change in Energy=-1.166265D-05
 GradGradGradGradGradGradGradGradGradGradGradGradGradGradGradGradGradGrad

                          Input orientation:                          
 ---------------------------------------------------------------------
 Center     Atomic      Atomic             Coordinates (Angstroms)
 Number     Number       Type             X           Y           Z
 ---------------------------------------------------------------------
      1          6           0        1.314955    0.072595   -0.392529
      2          7           0       -0.076271    0.142037    0.013146
      3          6           0       -0.761518   -1.107999    0.303727
      4          6           0       -0.732773    1.331003    0.120773
      5          8           0       -1.894481    1.474986    0.453110
      6          1           0        1.927855   -0.394284    0.386483
      7          1           0        1.695563    1.079192   -0.573232
      8          1           0        1.426383   -0.510485   -1.313511
      9          1           0       -0.737633   -1.769414   -0.568672
     10          1           0       -0.285108   -1.623086    1.144879
     11          1           0       -1.795125   -0.882256    0.558880
     12          1           0       -0.081846    2.187711   -0.133053
 ---------------------------------------------------------------------
                    Distance matrix (angstroms):
                    1          2          3          4          5
     1  C    0.000000
     2  N    1.450829   0.000000
     3  C    2.488035   1.454851   0.000000
     4  C    2.457694   1.362431   2.446023   0.000000
     5  O    3.603094   2.297000   2.824488   1.216858   0.000000
     6  H    1.095665   2.107971   2.783696   3.182162   4.255450
     7  H    1.091216   2.088418   3.404425   2.538082   3.754789
     8  H    1.095722   2.108026   2.785569   3.179655   4.253373
     9  H    2.763538   2.104651   1.095043   3.176152   3.592835
    10  H    2.792698   2.107153   1.095362   3.158455   3.559028
    11  H    3.389620   2.073997   1.088304   2.493801   2.361705
    12  H    2.547960   2.050900   3.393293   1.105478   2.034012
                    6          7          8          9         10
     6  H    0.000000
     7  H    1.773737   0.000000
     8  H    1.776220   1.774132   0.000000
     9  H    3.147718   3.746334   2.612021   0.000000
    10  H    2.642409   3.765271   3.195429   1.778327   0.000000
    11  H    3.758779   4.160992   3.744620   1.782333   1.781117
    12  H    3.312932   2.140504   3.308852   4.034682   4.024501
                   11         12
    11  H    0.000000
    12  H    3.583126   0.000000
 Stoichiometry    C3H7NO
 Framework group  C1[X(C3H7NO)]
 Deg. of freedom    30
 Full point group                 C1      NOp   1
 Largest Abelian subgroup         C1      NOp   1
 Largest concise Abelian subgroup C1      NOp   1
                         Standard orientation:                         
 ---------------------------------------------------------------------
 Center     Atomic      Atomic             Coordinates (Angstroms)
 Number     Number       Type             X           Y           Z
 ---------------------------------------------------------------------
      1          6           0       -1.590070   -0.763517    0.000055
      2          7           0       -0.344697   -0.019239    0.000597
      3          6           0       -0.422468    1.433532   -0.000261
      4          6           0        0.864829   -0.646347   -0.000134
      5          8           0        1.950964   -0.097662    0.000074
      6          1           0       -2.188994   -0.526607    0.886422
      7          1           0       -1.378249   -1.833971    0.003453
      8          1           0       -2.185648   -0.530986   -0.889789
      9          1           0       -0.980765    1.786481   -0.873674
     10          1           0       -0.925150    1.793894    0.903767
     11          1           0        0.589751    1.832030   -0.032179
     12          1           0        0.760478   -1.746889   -0.000731
 ---------------------------------------------------------------------
 Rotational constants (GHZ):           8.8890630           4.1769343           2.9471575
 Standard basis: 6-311++G(d,p) (5D, 7F)
 There are   164 symmetry adapted cartesian basis functions of A   symmetry.
 There are   159 symmetry adapted basis functions of A   symmetry.
   159 basis functions,   243 primitive gaussians,   164 cartesian basis functions
    20 alpha electrons       20 beta electrons
       nuclear repulsion energy       181.3071744200 Hartrees.
 NAtoms=   12 NActive=   12 NUniq=   12 SFac= 1.00D+00 NAtFMM=   60 NAOKFM=F Big=F
 Integral buffers will be    131072 words long.
 Raffenetti 2 integral format.
 Two-electron integral symmetry is turned on.
 One-electron integrals computed using PRISM.
 NBasis=   159 RedAO= T EigKep=  1.95D-04  NBF=   159
 NBsUse=   159 1.00D-06 EigRej= -1.00D+00 NBFU=   159
 Initial guess from the checkpoint file:  "CN(C)C=O.chk"
 B after Tr=     0.000000   -0.000000   -0.000000
         Rot=    0.999998    0.001054    0.001443   -0.000252 Ang=   0.21 deg.
 ExpMin= 3.60D-02 ExpMax= 8.59D+03 ExpMxC= 1.30D+03 IAcc=3 IRadAn=         5 AccDes= 0.00D+00
 Harris functional with IExCor=  402 and IRadAn=       5 diagonalized for initial guess.
 HarFok:  IExCor=  402 AccDes= 0.00D+00 IRadAn=         5 IDoV= 1 UseB2=F ITyADJ=14
 ICtDFT=  3500011 ScaDFX=  1.000000  1.000000  1.000000  1.000000
 FoFCou: FMM=F IPFlag=           0 FMFlag=      100000 FMFlg1=           0
         NFxFlg=           0 DoJE=T BraDBF=F KetDBF=T FulRan=T
         wScrn=  0.000000 ICntrl=       500 IOpCl=  0 I1Cent=   200000004 NGrid=           0
         NMat0=    1 NMatS0=      1 NMatT0=    0 NMatD0=    1 NMtDS0=    0 NMtDT0=    0
 Petite list used in FoFCou.
 Keep R1 ints in memory in canonical form, NReq=88851254.
 Requested convergence on RMS density matrix=1.00D-08 within 128 cycles.
 Requested convergence on MAX density matrix=1.00D-06.
 Requested convergence on             energy=1.00D-06.
 No special actions if energy rises.
 SCF Done:  E(RB3LYP) =  -248.590303417     A.U. after    9 cycles
            NFock=  9  Conv=0.78D-08     -V/T= 2.0042
 Calling FoFJK, ICntrl=      2127 FMM=F ISym2X=0 I1Cent= 0 IOpClX= 0 NMat=1 NMatS=1 NMatT=0.
 ***** Axes restored to original set *****
 -------------------------------------------------------------------
 Center     Atomic                   Forces (Hartrees/Bohr)
 Number     Number              X              Y              Z
 -------------------------------------------------------------------
      1        6           0.000287731    0.000033279    0.000018527
      2        7          -0.000277645   -0.000191185   -0.000073367
      3        6           0.000130379    0.000189578    0.000020937
      4        6          -0.000022660   -0.000020423    0.000073407
      5        8           0.000013857    0.000034376   -0.000024342
      6        1          -0.000021866    0.000003265    0.000004883
      7        1          -0.000022128   -0.000011307   -0.000006270
      8        1          -0.000018411    0.000014114    0.000031750
      9        1          -0.000077954   -0.000005405   -0.000016858
     10        1           0.000036971   -0.000006883   -0.000034884
     11        1          -0.000031499   -0.000029040    0.000026921
     12        1           0.000003226   -0.000010371   -0.000020704
 -------------------------------------------------------------------
 Cartesian Forces:  Max     0.000287731 RMS     0.000088155

 GradGradGradGradGradGradGradGradGradGradGradGradGradGradGradGradGradGrad
 Berny optimization.
 Using GEDIIS/GDIIS optimizer.
 FormGI is forming the generalized inverse of G from B-inverse, IUseBI=4.
 Internal  Forces:  Max     0.000200443 RMS     0.000049154
 Search for a local minimum.
 Step number   7 out of a maximum of   55
 All quantities printed in internal units (Hartrees-Bohrs-Radians)
 Mixed Optimization -- En-DIIS/RFO-DIIS
 Swapping is turned off.
 Update second derivatives using D2CorX and points    1    2    3    4    5
                                                      6    7
 DE= -1.61D-05 DEPred=-1.17D-05 R= 1.38D+00
 TightC=F SS=  1.41D+00  RLast= 1.33D-01 DXNew= 8.1676D-01 3.9884D-01
 Trust test= 1.38D+00 RLast= 1.33D-01 DXMaxT set to 4.86D-01
 ITU=  1  1  1  0  1  1  0
     Eigenvalues ---    0.00112   0.01062   0.01233   0.01946   0.07436
     Eigenvalues ---    0.07473   0.07653   0.07698   0.08666   0.15677
     Eigenvalues ---    0.15877   0.16000   0.16008   0.16037   0.16366
     Eigenvalues ---    0.17430   0.23391   0.24983   0.26499   0.33244
     Eigenvalues ---    0.34305   0.34362   0.34383   0.34389   0.34450
     Eigenvalues ---    0.35164   0.37957   0.38664   0.49737   0.92921
 En-DIIS/RFO-DIIS/Sim-DIIS IScMMF=       -3 using points:     7    6    5    4    3    2
 RFO step:  Lambda=-2.50708992D-06.
 DIIS inversion failure, remove point   6.
 RFO-DIIS uses    5 points instead of    6
 DidBck=F Rises=F RFO-DIIS coefs:    2.03023   -1.68588    0.82483   -0.22479    0.05562
                  RFO-DIIS coefs:    0.00000
 Iteration  1 RMS(Cart)=  0.00706256 RMS(Int)=  0.00011172
 Iteration  2 RMS(Cart)=  0.00003973 RMS(Int)=  0.00010497
 Iteration  3 RMS(Cart)=  0.00000000 RMS(Int)=  0.00010497
 Variable       Old X    -DE/DX   Delta X   Delta X   Delta X     New X
                                 (Linear)    (Quad)   (Total)
    R1        2.74167   0.00020   0.00158  -0.00035   0.00123   2.74290
    R2        2.07051  -0.00001  -0.00043   0.00024  -0.00019   2.07032
    R3        2.06210  -0.00002  -0.00005  -0.00009  -0.00014   2.06196
    R4        2.07061  -0.00004  -0.00030   0.00014  -0.00016   2.07046
    R5        2.74927  -0.00016  -0.00147   0.00045  -0.00102   2.74825
    R6        2.57462   0.00001   0.00098  -0.00079   0.00019   2.57481
    R7        2.06933   0.00002   0.00059  -0.00031   0.00027   2.06961
    R8        2.06993  -0.00001  -0.00022   0.00008  -0.00013   2.06980
    R9        2.05660   0.00003   0.00015  -0.00000   0.00015   2.05675
   R10        2.29953  -0.00002   0.00054  -0.00047   0.00008   2.29960
   R11        2.08905  -0.00000  -0.00124   0.00101  -0.00023   2.08882
    A1        1.93692  -0.00002  -0.00190   0.00121  -0.00069   1.93623
    A2        1.91412  -0.00001  -0.00035   0.00001  -0.00033   1.91378
    A3        1.93693  -0.00002  -0.00053   0.00055   0.00002   1.93695
    A4        1.89199   0.00002   0.00034  -0.00006   0.00028   1.89227
    A5        1.89017   0.00002   0.00138  -0.00098   0.00040   1.89057
    A6        1.89254   0.00001   0.00116  -0.00081   0.00035   1.89289
    A7        2.05599   0.00004  -0.00053   0.00031   0.00019   2.05618
    A8        2.12460  -0.00006  -0.00137   0.00042  -0.00054   2.12405
    A9        2.10260   0.00002   0.00068  -0.00073   0.00036   2.10295
   A10        1.92792   0.00004   0.00158  -0.00051   0.00107   1.92899
   A11        1.93111  -0.00004  -0.00006  -0.00047  -0.00053   1.93058
   A12        1.89224   0.00005   0.00091  -0.00039   0.00053   1.89277
   A13        1.89470  -0.00000   0.00068  -0.00059   0.00009   1.89479
   A14        1.91005  -0.00005  -0.00308   0.00163  -0.00145   1.90860
   A15        1.90771  -0.00000  -0.00011   0.00037   0.00027   1.90798
   A16        2.19550   0.00007  -0.00130   0.00153   0.00022   2.19572
   A17        1.95458  -0.00005   0.00128  -0.00141  -0.00015   1.95443
   A18        2.13311  -0.00002   0.00006  -0.00012  -0.00007   2.13303
    D1       -1.04909   0.00001   0.00534  -0.00131   0.00404  -1.04505
    D2        2.09423  -0.00002   0.00631  -0.00195   0.00435   2.09857
    D3       -3.13902   0.00001   0.00634  -0.00201   0.00434  -3.13468
    D4        0.00430  -0.00003   0.00730  -0.00265   0.00465   0.00895
    D5        1.05356   0.00001   0.00545  -0.00136   0.00410   1.05766
    D6       -2.08631  -0.00002   0.00641  -0.00200   0.00441  -2.08190
    D7       -1.01734  -0.00006  -0.01360  -0.00146  -0.01505  -1.03239
    D8        1.08120  -0.00006  -0.01176  -0.00284  -0.01458   1.06662
    D9       -3.11014  -0.00005  -0.01135  -0.00291  -0.01424  -3.12438
   D10        2.12255  -0.00003  -0.01451  -0.00083  -0.01535   2.10720
   D11       -2.06209  -0.00003  -0.01267  -0.00221  -0.01489  -2.07698
   D12        0.02975  -0.00002  -0.01226  -0.00227  -0.01455   0.01520
   D13        3.14142   0.00000  -0.00138   0.00011  -0.00125   3.14016
   D14       -0.00041   0.00004  -0.00126   0.00029  -0.00095  -0.00136
   D15        0.00160  -0.00003  -0.00037  -0.00055  -0.00094   0.00066
   D16       -3.14023   0.00000  -0.00025  -0.00037  -0.00063  -3.14086
         Item               Value     Threshold  Converged?
 Maximum Force            0.000200     0.000450     YES
 RMS     Force            0.000049     0.000300     YES
 Maximum Displacement     0.024399     0.001800     NO 
 RMS     Displacement     0.007063     0.001200     NO 
 Predicted change in Energy=-2.015351D-07
 GradGradGradGradGradGradGradGradGradGradGradGradGradGradGradGradGradGrad

                          Input orientation:                          
 ---------------------------------------------------------------------
 Center     Atomic      Atomic             Coordinates (Angstroms)
 Number     Number       Type             X           Y           Z
 ---------------------------------------------------------------------
      1          6           0        1.315916    0.072795   -0.390625
      2          7           0       -0.076611    0.141717    0.013000
      3          6           0       -0.761243   -1.107851    0.304338
      4          6           0       -0.733792    1.330717    0.117315
      5          8           0       -1.896431    1.475069    0.446367
      6          1           0        1.926666   -0.396172    0.388681
      7          1           0        1.696868    1.079793   -0.567874
      8          1           0        1.428761   -0.508016   -1.312769
      9          1           0       -0.749462   -1.765358   -0.571438
     10          1           0       -0.276454   -1.628028    1.137439
     11          1           0       -1.791736   -0.881727    0.571791
     12          1           0       -0.082483    2.187061   -0.136225
 ---------------------------------------------------------------------
                    Distance matrix (angstroms):
                    1          2          3          4          5
     1  C    0.000000
     2  N    1.451480   0.000000
     3  C    2.488270   1.454310   0.000000
     4  C    2.457982   1.362530   2.445883   0.000000
     5  O    3.603623   2.297254   2.824942   1.216898   0.000000
     6  H    1.095565   2.107979   2.781807   3.183366   4.256869
     7  H    1.091140   2.088690   3.404239   2.537824   3.754560
     8  H    1.095639   2.108544   2.787642   3.178476   4.252538
     9  H    2.770792   2.105049   1.095188   3.171798   3.584945
    10  H    2.786292   2.106252   1.095291   3.162907   3.568069
    11  H    3.390407   2.073967   1.088384   2.494134   2.362452
    12  H    2.547618   2.050789   3.392824   1.105356   2.033901
                    6          7          8          9         10
     6  H    0.000000
     7  H    1.773775   0.000000
     8  H    1.776330   1.774229   0.000000
     9  H    3.155655   3.752256   2.622048   0.000000
    10  H    2.632839   3.759572   3.188370   1.778442   0.000000
    11  H    3.754438   4.161340   3.750043   1.781603   1.781292
    12  H    3.314407   2.139731   3.306290   4.031859   4.026754
                   11         12
    11  H    0.000000
    12  H    3.583335   0.000000
 Stoichiometry    C3H7NO
 Framework group  C1[X(C3H7NO)]
 Deg. of freedom    30
 Full point group                 C1      NOp   1
 Largest Abelian subgroup         C1      NOp   1
 Largest concise Abelian subgroup C1      NOp   1
                         Standard orientation:                         
 ---------------------------------------------------------------------
 Center     Atomic      Atomic             Coordinates (Angstroms)
 Number     Number       Type             X           Y           Z
 ---------------------------------------------------------------------
      1          6           0       -1.590309   -0.763857   -0.000303
      2          7           0       -0.344648   -0.018791    0.000802
      3          6           0       -0.422645    1.433425   -0.000072
      4          6           0        0.864854   -0.646163    0.000242
      5          8           0        1.951244   -0.097897   -0.000326
      6          1           0       -2.190959   -0.523649    0.883881
      7          1           0       -1.377774   -1.834068    0.007633
      8          1           0       -2.183667   -0.534697   -0.892399
      9          1           0       -0.967354    1.788146   -0.881494
     10          1           0       -0.938941    1.792409    0.896717
     11          1           0        0.589722    1.832690   -0.016831
     12          1           0        0.760154   -1.746549    0.000284
 ---------------------------------------------------------------------
 Rotational constants (GHZ):           8.8884759           4.1760159           2.9466525
 Standard basis: 6-311++G(d,p) (5D, 7F)
 There are   164 symmetry adapted cartesian basis functions of A   symmetry.
 There are   159 symmetry adapted basis functions of A   symmetry.
   159 basis functions,   243 primitive gaussians,   164 cartesian basis functions
    20 alpha electrons       20 beta electrons
       nuclear repulsion energy       181.2981251015 Hartrees.
 NAtoms=   12 NActive=   12 NUniq=   12 SFac= 1.00D+00 NAtFMM=   60 NAOKFM=F Big=F
 Integral buffers will be    131072 words long.
 Raffenetti 2 integral format.
 Two-electron integral symmetry is turned on.
 One-electron integrals computed using PRISM.
 NBasis=   159 RedAO= T EigKep=  1.95D-04  NBF=   159
 NBsUse=   159 1.00D-06 EigRej= -1.00D+00 NBFU=   159
 Initial guess from the checkpoint file:  "CN(C)C=O.chk"
 B after Tr=     0.000000    0.000000    0.000000
         Rot=    1.000000    0.000081    0.000399   -0.000019 Ang=   0.05 deg.
 ExpMin= 3.60D-02 ExpMax= 8.59D+03 ExpMxC= 1.30D+03 IAcc=3 IRadAn=         5 AccDes= 0.00D+00
 Harris functional with IExCor=  402 and IRadAn=       5 diagonalized for initial guess.
 HarFok:  IExCor=  402 AccDes= 0.00D+00 IRadAn=         5 IDoV= 1 UseB2=F ITyADJ=14
 ICtDFT=  3500011 ScaDFX=  1.000000  1.000000  1.000000  1.000000
 FoFCou: FMM=F IPFlag=           0 FMFlag=      100000 FMFlg1=           0
         NFxFlg=           0 DoJE=T BraDBF=F KetDBF=T FulRan=T
         wScrn=  0.000000 ICntrl=       500 IOpCl=  0 I1Cent=   200000004 NGrid=           0
         NMat0=    1 NMatS0=      1 NMatT0=    0 NMatD0=    1 NMtDS0=    0 NMtDT0=    0
 Petite list used in FoFCou.
 Keep R1 ints in memory in canonical form, NReq=88851254.
 Requested convergence on RMS density matrix=1.00D-08 within 128 cycles.
 Requested convergence on MAX density matrix=1.00D-06.
 Requested convergence on             energy=1.00D-06.
 No special actions if energy rises.
 SCF Done:  E(RB3LYP) =  -248.590306218     A.U. after    8 cycles
            NFock=  8  Conv=0.58D-08     -V/T= 2.0042
 Calling FoFJK, ICntrl=      2127 FMM=F ISym2X=0 I1Cent= 0 IOpClX= 0 NMat=1 NMatS=1 NMatT=0.
 ***** Axes restored to original set *****
 -------------------------------------------------------------------
 Center     Atomic                   Forces (Hartrees/Bohr)
 Number     Number              X              Y              Z
 -------------------------------------------------------------------
      1        6          -0.000136810    0.000025295    0.000122461
      2        7           0.000130571    0.000135987   -0.000105772
      3        6          -0.000094502   -0.000093076   -0.000014045
      4        6          -0.000105460   -0.000094173    0.000034832
      5        8           0.000095059   -0.000015404   -0.000016972
      6        1           0.000009603   -0.000003584    0.000010106
      7        1           0.000002605    0.000008498   -0.000034127
      8        1           0.000004176   -0.000018474    0.000000912
      9        1          -0.000000388   -0.000005784    0.000012003
     10        1           0.000031716   -0.000017265   -0.000024590
     11        1           0.000022147    0.000029334    0.000028162
     12        1           0.000041285    0.000048646   -0.000012971
 -------------------------------------------------------------------
 Cartesian Forces:  Max     0.000136810 RMS     0.000062343

 GradGradGradGradGradGradGradGradGradGradGradGradGradGradGradGradGradGrad
 Berny optimization.
 Using GEDIIS/GDIIS optimizer.
 FormGI is forming the generalized inverse of G from B-inverse, IUseBI=4.
 Internal  Forces:  Max     0.000143789 RMS     0.000036210
 Search for a local minimum.
 Step number   8 out of a maximum of   55
 All quantities printed in internal units (Hartrees-Bohrs-Radians)
 Mixed Optimization -- En-DIIS/RFO-DIIS
 Swapping is turned off.
 Update second derivatives using D2CorX and points    1    2    3    4    5
                                                      6    7    8
 DE= -2.80D-06 DEPred=-2.02D-07 R= 1.39D+01
 TightC=F SS=  1.41D+00  RLast= 3.79D-02 DXNew= 8.1676D-01 1.1364D-01
 Trust test= 1.39D+01 RLast= 3.79D-02 DXMaxT set to 4.86D-01
 ITU=  1  1  1  1  0  1  1  0
     Eigenvalues ---    0.00111   0.00450   0.01159   0.01946   0.07437
     Eigenvalues ---    0.07480   0.07654   0.07730   0.08569   0.15495
     Eigenvalues ---    0.15857   0.15998   0.16029   0.16110   0.16376
     Eigenvalues ---    0.17543   0.23311   0.24955   0.26373   0.33393
     Eigenvalues ---    0.34321   0.34334   0.34370   0.34394   0.34471
     Eigenvalues ---    0.35191   0.38376   0.39975   0.50200   0.93548
 En-DIIS/RFO-DIIS/Sim-DIIS IScMMF=       -3 using points:     8    7    6    5    4    3    2
 RFO step:  Lambda=-1.38907538D-06.
 DIIS inversion failure, remove point   7.
 RFO-DIIS uses    6 points instead of    7
 DidBck=F Rises=F RFO-DIIS coefs:    2.06079   -1.39437    0.50742   -0.26980    0.08670
                  RFO-DIIS coefs:    0.00927    0.00000
 Iteration  1 RMS(Cart)=  0.00475079 RMS(Int)=  0.00002569
 Iteration  2 RMS(Cart)=  0.00001918 RMS(Int)=  0.00001780
 Iteration  3 RMS(Cart)=  0.00000000 RMS(Int)=  0.00001780
 Variable       Old X    -DE/DX   Delta X   Delta X   Delta X     New X
                                 (Linear)    (Quad)   (Total)
    R1        2.74290  -0.00014   0.00089  -0.00101  -0.00013   2.74277
    R2        2.07032   0.00001  -0.00004   0.00003  -0.00001   2.07031
    R3        2.06196   0.00001  -0.00011   0.00013   0.00002   2.06197
    R4        2.07046   0.00001  -0.00014   0.00011  -0.00003   2.07043
    R5        2.74825   0.00009  -0.00067   0.00066  -0.00001   2.74824
    R6        2.57481  -0.00007  -0.00009  -0.00007  -0.00016   2.57465
    R7        2.06961  -0.00001   0.00007   0.00002   0.00010   2.06970
    R8        2.06980   0.00000  -0.00005   0.00001  -0.00004   2.06976
    R9        2.05675  -0.00001   0.00014  -0.00012   0.00002   2.05676
   R10        2.29960  -0.00010  -0.00009  -0.00006  -0.00015   2.29946
   R11        2.08882   0.00006   0.00011   0.00010   0.00021   2.08903
    A1        1.93623   0.00000  -0.00008  -0.00018  -0.00026   1.93597
    A2        1.91378   0.00001  -0.00018   0.00021   0.00003   1.91381
    A3        1.93695  -0.00001  -0.00001  -0.00013  -0.00014   1.93681
    A4        1.89227   0.00001   0.00024   0.00008   0.00032   1.89260
    A5        1.89057  -0.00001   0.00004   0.00002   0.00005   1.89062
    A6        1.89289  -0.00001   0.00001   0.00000   0.00001   1.89290
    A7        2.05618  -0.00000   0.00038  -0.00027   0.00005   2.05623
    A8        2.12405   0.00001  -0.00030   0.00019  -0.00017   2.12388
    A9        2.10295  -0.00001   0.00012   0.00007   0.00013   2.10308
   A10        1.92899   0.00002   0.00051   0.00026   0.00077   1.92976
   A11        1.93058  -0.00001  -0.00045   0.00005  -0.00040   1.93017
   A12        1.89277  -0.00004   0.00041  -0.00054  -0.00014   1.89263
   A13        1.89479  -0.00002  -0.00011  -0.00016  -0.00027   1.89452
   A14        1.90860   0.00002  -0.00056   0.00033  -0.00023   1.90838
   A15        1.90798   0.00002   0.00019   0.00007   0.00026   1.90824
   A16        2.19572  -0.00001   0.00070  -0.00073  -0.00003   2.19569
   A17        1.95443  -0.00000  -0.00060   0.00058  -0.00001   1.95442
   A18        2.13303   0.00001  -0.00012   0.00015   0.00004   2.13307
    D1       -1.04505  -0.00000   0.00192  -0.00185   0.00007  -1.04499
    D2        2.09857  -0.00001  -0.00103  -0.00086  -0.00189   2.09669
    D3       -3.13468  -0.00002   0.00179  -0.00197  -0.00019  -3.13487
    D4        0.00895  -0.00003  -0.00116  -0.00098  -0.00214   0.00681
    D5        1.05766  -0.00001   0.00190  -0.00203  -0.00013   1.05752
    D6       -2.08190  -0.00002  -0.00105  -0.00104  -0.00209  -2.08399
    D7       -1.03239  -0.00002  -0.01097   0.00011  -0.01086  -1.04325
    D8        1.06662  -0.00003  -0.01107   0.00011  -0.01096   1.05566
    D9       -3.12438  -0.00004  -0.01085  -0.00011  -0.01096  -3.13535
   D10        2.10720  -0.00000  -0.00807  -0.00087  -0.00893   2.09826
   D11       -2.07698  -0.00002  -0.00816  -0.00087  -0.00903  -2.08601
   D12        0.01520  -0.00003  -0.00795  -0.00109  -0.00904   0.00617
   D13        3.14016   0.00002   0.00112  -0.00022   0.00089   3.14106
   D14       -0.00136   0.00000   0.00154  -0.00062   0.00092  -0.00043
   D15        0.00066   0.00000  -0.00191   0.00080  -0.00111  -0.00045
   D16       -3.14086  -0.00001  -0.00149   0.00040  -0.00108   3.14124
         Item               Value     Threshold  Converged?
 Maximum Force            0.000144     0.000450     YES
 RMS     Force            0.000036     0.000300     YES
 Maximum Displacement     0.015666     0.001800     NO 
 RMS     Displacement     0.004751     0.001200     NO 
 Predicted change in Energy=-6.254310D-07
 GradGradGradGradGradGradGradGradGradGradGradGradGradGradGradGradGradGrad

                          Input orientation:                          
 ---------------------------------------------------------------------
 Center     Atomic      Atomic             Coordinates (Angstroms)
 Number     Number       Type             X           Y           Z
 ---------------------------------------------------------------------
      1          6           0        1.316265    0.073041   -0.389172
      2          7           0       -0.076932    0.141631    0.011950
      3          6           0       -0.761319   -1.107930    0.303869
      4          6           0       -0.734182    1.330556    0.115575
      5          8           0       -1.897090    1.474867    0.443398
      6          1           0        1.925732   -0.394537    0.391962
      7          1           0        1.696854    1.080020   -0.567367
      8          1           0        1.430923   -0.509113   -1.310227
      9          1           0       -0.757681   -1.762817   -0.574002
     10          1           0       -0.270691   -1.631666    1.131278
     11          1           0       -1.789337   -0.881027    0.580081
     12          1           0       -0.082541    2.186975   -0.137345
 ---------------------------------------------------------------------
                    Distance matrix (angstroms):
                    1          2          3          4          5
     1  C    0.000000
     2  N    1.451414   0.000000
     3  C    2.488243   1.454306   0.000000
     4  C    2.457731   1.362445   2.445896   0.000000
     5  O    3.603323   2.297094   2.824940   1.216820   0.000000
     6  H    1.095559   2.107735   2.781534   3.182369   4.255735
     7  H    1.091150   2.088659   3.404232   2.537540   3.754195
     8  H    1.095624   2.108375   2.787439   3.178831   4.252887
     9  H    2.775930   2.105631   1.095239   3.169389   3.579938
    10  H    2.781406   2.105949   1.095272   3.165634   3.573360
    11  H    3.390348   2.073870   1.088393   2.494037   2.362315
    12  H    2.547311   2.050793   3.392906   1.105467   2.033949
                    6          7          8          9         10
     6  H    0.000000
     7  H    1.773983   0.000000
     8  H    1.776347   1.774233   0.000000
     9  H    3.163223   3.755863   2.627506   0.000000
    10  H    2.627042   3.756310   3.180654   1.778297   0.000000
    11  H    3.751506   4.161234   3.752554   1.781510   1.781450
    12  H    3.313235   2.139279   3.306829   4.030799   4.028253
                   11         12
    11  H    0.000000
    12  H    3.583363   0.000000
 Stoichiometry    C3H7NO
 Framework group  C1[X(C3H7NO)]
 Deg. of freedom    30
 Full point group                 C1      NOp   1
 Largest Abelian subgroup         C1      NOp   1
 Largest concise Abelian subgroup C1      NOp   1
                         Standard orientation:                         
 ---------------------------------------------------------------------
 Center     Atomic      Atomic             Coordinates (Angstroms)
 Number     Number       Type             X           Y           Z
 ---------------------------------------------------------------------
      1          6           0       -1.590050   -0.764082   -0.000143
      2          7           0       -0.344606   -0.018784    0.000062
      3          6           0       -0.422849    1.433415    0.000040
      4          6           0        0.864846   -0.646067    0.000174
      5          8           0        1.951130   -0.097763   -0.000182
      6          1           0       -2.189658   -0.524247    0.884842
      7          1           0       -1.377305   -1.834269    0.006809
      8          1           0       -2.184329   -0.534379   -0.891468
      9          1           0       -0.958871    1.789843   -0.886069
     10          1           0       -0.948106    1.790886    0.892195
     11          1           0        0.589627    1.832730   -0.006243
     12          1           0        0.760166   -1.746566    0.000533
 ---------------------------------------------------------------------
 Rotational constants (GHZ):           8.8879189           4.1766715           2.9469096
 Standard basis: 6-311++G(d,p) (5D, 7F)
 There are   164 symmetry adapted cartesian basis functions of A   symmetry.
 There are   159 symmetry adapted basis functions of A   symmetry.
   159 basis functions,   243 primitive gaussians,   164 cartesian basis functions
    20 alpha electrons       20 beta electrons
       nuclear repulsion energy       181.3042484071 Hartrees.
 NAtoms=   12 NActive=   12 NUniq=   12 SFac= 1.00D+00 NAtFMM=   60 NAOKFM=F Big=F
 Integral buffers will be    131072 words long.
 Raffenetti 2 integral format.
 Two-electron integral symmetry is turned on.
 One-electron integrals computed using PRISM.
 NBasis=   159 RedAO= T EigKep=  1.95D-04  NBF=   159
 NBsUse=   159 1.00D-06 EigRej= -1.00D+00 NBFU=   159
 Initial guess from the checkpoint file:  "CN(C)C=O.chk"
 B after Tr=     0.000000   -0.000000    0.000000
         Rot=    1.000000   -0.000096    0.000201   -0.000054 Ang=  -0.03 deg.
 Keep R1 ints in memory in canonical form, NReq=88851254.
 Requested convergence on RMS density matrix=1.00D-08 within 128 cycles.
 Requested convergence on MAX density matrix=1.00D-06.
 Requested convergence on             energy=1.00D-06.
 No special actions if energy rises.
 SCF Done:  E(RB3LYP) =  -248.590307338     A.U. after    8 cycles
            NFock=  8  Conv=0.33D-08     -V/T= 2.0042
 Calling FoFJK, ICntrl=      2127 FMM=F ISym2X=0 I1Cent= 0 IOpClX= 0 NMat=1 NMatS=1 NMatT=0.
 ***** Axes restored to original set *****
 -------------------------------------------------------------------
 Center     Atomic                   Forces (Hartrees/Bohr)
 Number     Number              X              Y              Z
 -------------------------------------------------------------------
      1        6          -0.000142453   -0.000018031    0.000075792
      2        7           0.000176232    0.000096040   -0.000051949
      3        6          -0.000113973   -0.000102800   -0.000002328
      4        6          -0.000036864   -0.000025934   -0.000000552
      5        8          -0.000023139    0.000017195    0.000014304
      6        1           0.000045044    0.000005282    0.000000022
      7        1           0.000009370   -0.000006507   -0.000026103
      8        1           0.000024790   -0.000016455   -0.000005799
      9        1           0.000015817    0.000022871   -0.000001689
     10        1           0.000021741    0.000009506   -0.000011623
     11        1           0.000019404    0.000015334    0.000008664
     12        1           0.000004032    0.000003498    0.000001261
 -------------------------------------------------------------------
 Cartesian Forces:  Max     0.000176232 RMS     0.000053216

 GradGradGradGradGradGradGradGradGradGradGradGradGradGradGradGradGradGrad
 Berny optimization.
 Using GEDIIS/GDIIS optimizer.
 FormGI is forming the generalized inverse of G from B-inverse, IUseBI=4.
 Internal  Forces:  Max     0.000072831 RMS     0.000025901
 Search for a local minimum.
 Step number   9 out of a maximum of   55
 All quantities printed in internal units (Hartrees-Bohrs-Radians)
 Mixed Optimization -- En-DIIS/RFO-DIIS
 Swapping is turned off.
 Update second derivatives using D2CorX and points    1    2    3    4    5
                                                      6    7    8    9
 DE= -1.12D-06 DEPred=-6.25D-07 R= 1.79D+00
 TightC=F SS=  1.41D+00  RLast= 2.49D-02 DXNew= 8.1676D-01 7.4643D-02
 Trust test= 1.79D+00 RLast= 2.49D-02 DXMaxT set to 4.86D-01
 ITU=  1  1  1  1  1  0  1  1  0
     Eigenvalues ---    0.00100   0.00242   0.01240   0.01947   0.07449
     Eigenvalues ---    0.07460   0.07655   0.07708   0.08577   0.15765
     Eigenvalues ---    0.15848   0.16003   0.16052   0.16388   0.16576
     Eigenvalues ---    0.17455   0.23640   0.25039   0.26753   0.33312
     Eigenvalues ---    0.34319   0.34364   0.34388   0.34414   0.34473
     Eigenvalues ---    0.35246   0.38425   0.39273   0.50274   0.93527
 En-DIIS/RFO-DIIS/Sim-DIIS IScMMF=       -3 using points:     9    8    7    6    5    4    3    2
 RFO step:  Lambda=-6.01707947D-07.
 DIIS inversion failure, remove point   8.
 DIIS inversion failure, remove point   7.
 DIIS inversion failure, remove point   6.
 RFO-DIIS uses    5 points instead of    8
 DidBck=F Rises=F RFO-DIIS coefs:    2.31597   -2.00000    0.69446    0.00746   -0.01788
                  RFO-DIIS coefs:    0.00000    0.00000    0.00000
 Iteration  1 RMS(Cart)=  0.00338691 RMS(Int)=  0.00000867
 Iteration  2 RMS(Cart)=  0.00000792 RMS(Int)=  0.00000427
 Iteration  3 RMS(Cart)=  0.00000000 RMS(Int)=  0.00000427
 Variable       Old X    -DE/DX   Delta X   Delta X   Delta X     New X
                                 (Linear)    (Quad)   (Total)
    R1        2.74277  -0.00007  -0.00101   0.00068  -0.00034   2.74244
    R2        2.07031   0.00002   0.00010   0.00004   0.00014   2.07045
    R3        2.06197   0.00000   0.00011  -0.00010   0.00001   2.06199
    R4        2.07043   0.00002   0.00009  -0.00003   0.00006   2.07049
    R5        2.74824   0.00007   0.00069  -0.00035   0.00033   2.74857
    R6        2.57465   0.00002  -0.00032   0.00036   0.00005   2.57470
    R7        2.06970  -0.00001  -0.00004  -0.00000  -0.00004   2.06966
    R8        2.06976  -0.00000   0.00003  -0.00006  -0.00003   2.06973
    R9        2.05676  -0.00001  -0.00009   0.00003  -0.00006   2.05670
   R10        2.29946   0.00003  -0.00023   0.00023   0.00001   2.29946
   R11        2.08903   0.00000   0.00041  -0.00033   0.00009   2.08912
    A1        1.93597   0.00005   0.00009   0.00055   0.00064   1.93661
    A2        1.91381   0.00001   0.00024  -0.00012   0.00012   1.91393
    A3        1.93681   0.00002  -0.00013   0.00022   0.00009   1.93690
    A4        1.89260  -0.00002   0.00021  -0.00032  -0.00011   1.89249
    A5        1.89062  -0.00003  -0.00020  -0.00014  -0.00034   1.89029
    A6        1.89290  -0.00002  -0.00021  -0.00023  -0.00043   1.89247
    A7        2.05623  -0.00002  -0.00009  -0.00001  -0.00012   2.05611
    A8        2.12388   0.00006   0.00019   0.00025   0.00043   2.12431
    A9        2.10308  -0.00004  -0.00005  -0.00024  -0.00032   2.10276
   A10        1.92976  -0.00003   0.00034  -0.00045  -0.00011   1.92965
   A11        1.93017  -0.00002  -0.00020  -0.00033  -0.00054   1.92964
   A12        1.89263  -0.00001  -0.00056   0.00050  -0.00006   1.89256
   A13        1.89452   0.00002  -0.00040   0.00041   0.00001   1.89453
   A14        1.90838   0.00003   0.00063  -0.00030   0.00033   1.90871
   A15        1.90824   0.00002   0.00021   0.00017   0.00037   1.90862
   A16        2.19569   0.00002  -0.00022   0.00047   0.00024   2.19594
   A17        1.95442  -0.00001   0.00011  -0.00026  -0.00015   1.95427
   A18        2.13307  -0.00001   0.00012  -0.00021  -0.00009   2.13298
    D1       -1.04499  -0.00002  -0.00233  -0.00123  -0.00355  -1.04854
    D2        2.09669  -0.00001  -0.00390  -0.00096  -0.00486   2.09183
    D3       -3.13487  -0.00002  -0.00280  -0.00111  -0.00390  -3.13877
    D4        0.00681  -0.00002  -0.00437  -0.00084  -0.00521   0.00160
    D5        1.05752  -0.00001  -0.00261  -0.00088  -0.00349   1.05403
    D6       -2.08399  -0.00001  -0.00418  -0.00062  -0.00480  -2.08879
    D7       -1.04325   0.00000  -0.00446  -0.00156  -0.00602  -1.04927
    D8        1.05566  -0.00001  -0.00487  -0.00155  -0.00642   1.04924
    D9       -3.13535  -0.00001  -0.00509  -0.00124  -0.00632   3.14152
   D10        2.09826  -0.00000  -0.00290  -0.00182  -0.00473   2.09353
   D11       -2.08601  -0.00002  -0.00331  -0.00182  -0.00513  -2.09114
   D12        0.00617  -0.00001  -0.00353  -0.00150  -0.00503   0.00113
   D13        3.14106   0.00001   0.00129  -0.00019   0.00109  -3.14104
   D14       -0.00043  -0.00000   0.00093   0.00011   0.00104   0.00061
   D15       -0.00045   0.00001  -0.00033   0.00008  -0.00025  -0.00070
   D16        3.14124  -0.00000  -0.00069   0.00039  -0.00030   3.14094
         Item               Value     Threshold  Converged?
 Maximum Force            0.000073     0.000450     YES
 RMS     Force            0.000026     0.000300     YES
 Maximum Displacement     0.008652     0.001800     NO 
 RMS     Displacement     0.003387     0.001200     NO 
 Predicted change in Energy=-1.683243D-07
 GradGradGradGradGradGradGradGradGradGradGradGradGradGradGradGradGradGrad

                          Input orientation:                          
 ---------------------------------------------------------------------
 Center     Atomic      Atomic             Coordinates (Angstroms)
 Number     Number       Type             X           Y           Z
 ---------------------------------------------------------------------
      1          6           0        1.316441    0.072970   -0.388129
      2          7           0       -0.077038    0.141710    0.011340
      3          6           0       -0.761688   -1.107971    0.303013
      4          6           0       -0.734490    1.330519    0.115335
      5          8           0       -1.897464    1.474819    0.442947
      6          1           0        1.926228   -0.390960    0.395032
      7          1           0        1.696229    1.079568   -0.570192
      8          1           0        1.432654   -0.512547   -1.306892
      9          1           0       -0.762259   -1.760619   -0.576506
     10          1           0       -0.267660   -1.634016    1.126902
     11          1           0       -1.788201   -0.880546    0.584223
     12          1           0       -0.082751    2.187073   -0.137073
 ---------------------------------------------------------------------
                    Distance matrix (angstroms):
                    1          2          3          4          5
     1  C    0.000000
     2  N    1.451235   0.000000
     3  C    2.488156   1.454483   0.000000
     4  C    2.457890   1.362470   2.445852   0.000000
     5  O    3.603478   2.297263   2.824955   1.216824   0.000000
     6  H    1.095633   2.108087   2.783427   3.181375   4.254886
     7  H    1.091158   2.088595   3.404287   2.537975   3.754637
     8  H    1.095656   2.108306   2.785939   3.180587   4.254556
     9  H    2.778225   2.105694   1.095218   3.167735   3.577155
    10  H    2.778218   2.105711   1.095254   3.166965   3.576159
    11  H    3.390201   2.073953   1.088361   2.493786   2.362127
    12  H    2.547586   2.050748   3.392925   1.105513   2.033940
                    6          7          8          9         10
     6  H    0.000000
     7  H    1.773982   0.000000
     8  H    1.776216   1.773987   0.000000
     9  H    3.169829   3.756444   2.628458   0.000000
    10  H    2.625636   3.755067   3.173659   1.778273   0.000000
    11  H    3.751329   4.161246   3.753085   1.781678   1.781646
    12  H    3.311402   2.139842   3.309513   4.029777   4.028963
                   11         12
    11  H    0.000000
    12  H    3.583171   0.000000
 Stoichiometry    C3H7NO
 Framework group  C1[X(C3H7NO)]
 Deg. of freedom    30
 Full point group                 C1      NOp   1
 Largest Abelian subgroup         C1      NOp   1
 Largest concise Abelian subgroup C1      NOp   1
                         Standard orientation:                         
 ---------------------------------------------------------------------
 Center     Atomic      Atomic             Coordinates (Angstroms)
 Number     Number       Type             X           Y           Z
 ---------------------------------------------------------------------
      1          6           0       -1.590146   -0.763854    0.000109
      2          7           0       -0.344671   -0.018954   -0.000463
      3          6           0       -0.422733    1.433433    0.000052
      4          6           0        0.864919   -0.646026   -0.000033
      5          8           0        1.951239   -0.097786    0.000090
      6          1           0       -2.187890   -0.527289    0.887325
      7          1           0       -1.377778   -1.834143    0.002528
      8          1           0       -2.186780   -0.531098   -0.888887
      9          1           0       -0.954107    1.790390   -0.888614
     10          1           0       -0.952989    1.789816    0.889659
     11          1           0        0.589811    1.832539   -0.000402
     12          1           0        0.760270   -1.746574    0.000150
 ---------------------------------------------------------------------
 Rotational constants (GHZ):           8.8891223           4.1761240           2.9467598
 Standard basis: 6-311++G(d,p) (5D, 7F)
 There are   164 symmetry adapted cartesian basis functions of A   symmetry.
 There are   159 symmetry adapted basis functions of A   symmetry.
   159 basis functions,   243 primitive gaussians,   164 cartesian basis functions
    20 alpha electrons       20 beta electrons
       nuclear repulsion energy       181.3018611496 Hartrees.
 NAtoms=   12 NActive=   12 NUniq=   12 SFac= 1.00D+00 NAtFMM=   60 NAOKFM=F Big=F
 Integral buffers will be    131072 words long.
 Raffenetti 2 integral format.
 Two-electron integral symmetry is turned on.
 One-electron integrals computed using PRISM.
 NBasis=   159 RedAO= T EigKep=  1.95D-04  NBF=   159
 NBsUse=   159 1.00D-06 EigRej= -1.00D+00 NBFU=   159
 Initial guess from the checkpoint file:  "CN(C)C=O.chk"
 B after Tr=     0.000000    0.000000   -0.000000
         Rot=    1.000000   -0.000184    0.000070    0.000022 Ang=  -0.02 deg.
 Keep R1 ints in memory in canonical form, NReq=88851254.
 Requested convergence on RMS density matrix=1.00D-08 within 128 cycles.
 Requested convergence on MAX density matrix=1.00D-06.
 Requested convergence on             energy=1.00D-06.
 No special actions if energy rises.
 SCF Done:  E(RB3LYP) =  -248.590307816     A.U. after    7 cycles
            NFock=  7  Conv=0.94D-08     -V/T= 2.0042
 Calling FoFJK, ICntrl=      2127 FMM=F ISym2X=0 I1Cent= 0 IOpClX= 0 NMat=1 NMatS=1 NMatT=0.
 ***** Axes restored to original set *****
 -------------------------------------------------------------------
 Center     Atomic                   Forces (Hartrees/Bohr)
 Number     Number              X              Y              Z
 -------------------------------------------------------------------
      1        6          -0.000002019    0.000007659   -0.000015012
      2        7          -0.000011656   -0.000003244    0.000037590
      3        6           0.000016371   -0.000020237   -0.000004703
      4        6           0.000063741    0.000049567   -0.000023157
      5        8          -0.000004360   -0.000031304    0.000002072
      6        1          -0.000009509    0.000009943    0.000009154
      7        1          -0.000000822    0.000007985   -0.000004667
      8        1          -0.000017991   -0.000003784    0.000007955
      9        1          -0.000013590   -0.000005119   -0.000003822
     10        1          -0.000011477    0.000001528   -0.000002185
     11        1           0.000000770   -0.000004029   -0.000005484
     12        1          -0.000009457   -0.000008964    0.000002259
 -------------------------------------------------------------------
 Cartesian Forces:  Max     0.000063741 RMS     0.000018222

 GradGradGradGradGradGradGradGradGradGradGradGradGradGradGradGradGradGrad
 Berny optimization.
 Using GEDIIS/GDIIS optimizer.
 FormGI is forming the generalized inverse of G from B-inverse, IUseBI=4.
 Internal  Forces:  Max     0.000050355 RMS     0.000014613
 Search for a local minimum.
 Step number  10 out of a maximum of   55
 All quantities printed in internal units (Hartrees-Bohrs-Radians)
 Mixed Optimization -- En-DIIS/RFO-DIIS
 Swapping is turned off.
 Update second derivatives using D2CorX and points    1    2    3    4    5
                                                      6    7    8    9   10
 DE= -4.78D-07 DEPred=-1.68D-07 R= 2.84D+00
 Trust test= 2.84D+00 RLast= 1.76D-02 DXMaxT set to 4.86D-01
 ITU=  0  1  1  1  1  1  0  1  1  0
     Eigenvalues ---    0.00099   0.00213   0.01115   0.01944   0.07415
     Eigenvalues ---    0.07460   0.07648   0.07676   0.08537   0.15320
     Eigenvalues ---    0.15787   0.15997   0.16008   0.16286   0.16403
     Eigenvalues ---    0.17507   0.24272   0.24947   0.26265   0.33148
     Eigenvalues ---    0.34153   0.34334   0.34365   0.34391   0.34468
     Eigenvalues ---    0.35215   0.36825   0.38668   0.49799   0.92882
 En-DIIS/RFO-DIIS/Sim-DIIS IScMMF=       -3 using points:    10    9    8    7    6    5    4    3    2
 RFO step:  Lambda=-9.31697889D-08.
 DIIS inversion failure, remove point   9.
 DIIS inversion failure, remove point   8.
 DIIS inversion failure, remove point   7.
 DIIS inversion failure, remove point   6.
 DIIS inversion failure, remove point   5.
 RFO-DIIS uses    4 points instead of    9
 DidBck=F Rises=F RFO-DIIS coefs:    1.44285   -0.72074    0.36011   -0.08222    0.00000
                  RFO-DIIS coefs:    0.00000    0.00000    0.00000    0.00000
 Iteration  1 RMS(Cart)=  0.00082847 RMS(Int)=  0.00000047
 Iteration  2 RMS(Cart)=  0.00000049 RMS(Int)=  0.00000007
 Variable       Old X    -DE/DX   Delta X   Delta X   Delta X     New X
                                 (Linear)    (Quad)   (Total)
    R1        2.74244  -0.00003  -0.00001  -0.00012  -0.00013   2.74230
    R2        2.07045  -0.00000   0.00005  -0.00004   0.00001   2.07046
    R3        2.06199   0.00001  -0.00001   0.00005   0.00004   2.06202
    R4        2.07049  -0.00001   0.00002  -0.00004  -0.00002   2.07047
    R5        2.74857   0.00002   0.00007   0.00006   0.00012   2.74870
    R6        2.57470  -0.00002   0.00008  -0.00013  -0.00004   2.57465
    R7        2.06966   0.00001  -0.00002   0.00004   0.00002   2.06968
    R8        2.06973  -0.00001  -0.00002  -0.00002  -0.00003   2.06970
    R9        2.05670  -0.00000  -0.00002   0.00000  -0.00002   2.05669
   R10        2.29946   0.00000   0.00005  -0.00005  -0.00000   2.29946
   R11        2.08912  -0.00001  -0.00004   0.00000  -0.00004   2.08908
    A1        1.93661  -0.00001   0.00030  -0.00031  -0.00001   1.93660
    A2        1.91393   0.00000   0.00002   0.00003   0.00005   1.91398
    A3        1.93690  -0.00002   0.00008  -0.00025  -0.00017   1.93673
    A4        1.89249   0.00001  -0.00011   0.00014   0.00003   1.89252
    A5        1.89029   0.00002  -0.00013   0.00021   0.00008   1.89036
    A6        1.89247   0.00001  -0.00017   0.00020   0.00003   1.89250
    A7        2.05611   0.00001  -0.00005   0.00009   0.00004   2.05615
    A8        2.12431  -0.00003   0.00019  -0.00030  -0.00010   2.12421
    A9        2.10276   0.00002  -0.00015   0.00021   0.00007   2.10283
   A10        1.92965   0.00001  -0.00017   0.00025   0.00008   1.92973
   A11        1.92964   0.00001  -0.00017   0.00019   0.00002   1.92966
   A12        1.89256  -0.00000   0.00005  -0.00009  -0.00004   1.89252
   A13        1.89453  -0.00000   0.00009  -0.00005   0.00004   1.89457
   A14        1.90871  -0.00001   0.00009  -0.00019  -0.00010   1.90861
   A15        1.90862  -0.00001   0.00012  -0.00011   0.00000   1.90862
   A16        2.19594  -0.00005   0.00013  -0.00036  -0.00023   2.19571
   A17        1.95427   0.00003  -0.00008   0.00019   0.00012   1.95438
   A18        2.13298   0.00002  -0.00006   0.00017   0.00011   2.13309
    D1       -1.04854  -0.00001  -0.00126  -0.00038  -0.00164  -1.05019
    D2        2.09183  -0.00000  -0.00127   0.00010  -0.00117   2.09065
    D3       -3.13877  -0.00001  -0.00132  -0.00039  -0.00171  -3.14048
    D4        0.00160  -0.00000  -0.00133   0.00009  -0.00124   0.00036
    D5        1.05403  -0.00001  -0.00117  -0.00049  -0.00167   1.05236
    D6       -2.08879  -0.00000  -0.00118  -0.00001  -0.00120  -2.08998
    D7       -1.04927  -0.00000  -0.00088   0.00014  -0.00074  -1.05001
    D8        1.04924   0.00001  -0.00100   0.00037  -0.00063   1.04862
    D9        3.14152   0.00001  -0.00092   0.00029  -0.00064   3.14088
   D10        2.09353  -0.00001  -0.00087  -0.00033  -0.00120   2.09233
   D11       -2.09114   0.00000  -0.00099  -0.00010  -0.00109  -2.09223
   D12        0.00113  -0.00000  -0.00091  -0.00019  -0.00110   0.00003
   D13       -3.14104  -0.00001   0.00013  -0.00031  -0.00018  -3.14122
   D14        0.00061  -0.00000   0.00013  -0.00032  -0.00019   0.00041
   D15       -0.00070   0.00000   0.00012   0.00018   0.00030  -0.00040
   D16        3.14094   0.00000   0.00012   0.00017   0.00029   3.14123
         Item               Value     Threshold  Converged?
 Maximum Force            0.000050     0.000450     YES
 RMS     Force            0.000015     0.000300     YES
 Maximum Displacement     0.002398     0.001800     NO 
 RMS     Displacement     0.000828     0.001200     YES
 Predicted change in Energy=-4.431620D-08
 GradGradGradGradGradGradGradGradGradGradGradGradGradGradGradGradGradGrad

                          Input orientation:                          
 ---------------------------------------------------------------------
 Center     Atomic      Atomic             Coordinates (Angstroms)
 Number     Number       Type             X           Y           Z
 ---------------------------------------------------------------------
      1          6           0        1.316473    0.073049   -0.387918
      2          7           0       -0.076934    0.141733    0.011555
      3          6           0       -0.761742   -1.108034    0.302806
      4          6           0       -0.734331    1.330558    0.115409
      5          8           0       -1.897370    1.474654    0.442879
      6          1           0        1.926490   -0.389692    0.395773
      7          1           0        1.695896    1.079562   -0.571318
      8          1           0        1.432659   -0.513589   -1.305958
      9          1           0       -0.763075   -1.760137   -0.577127
     10          1           0       -0.267414   -1.634726    1.126078
     11          1           0       -1.788033   -0.880514    0.584716
     12          1           0       -0.082619    2.187136   -0.136896
 ---------------------------------------------------------------------
                    Distance matrix (angstroms):
                    1          2          3          4          5
     1  C    0.000000
     2  N    1.451164   0.000000
     3  C    2.488179   1.454548   0.000000
     4  C    2.457735   1.362446   2.445935   0.000000
     5  O    3.603263   2.297108   2.824810   1.216824   0.000000
     6  H    1.095638   2.108018   2.784106   3.180853   4.254398
     7  H    1.091177   2.088585   3.404358   2.537833   3.754497
     8  H    1.095646   2.108117   2.785118   3.180724   4.254484
     9  H    2.778649   2.105813   1.095228   3.167464   3.576439
    10  H    2.778017   2.105767   1.095236   3.167392   3.576558
    11  H    3.390171   2.073973   1.088353   2.493868   2.361968
    12  H    2.547516   2.050791   3.393036   1.105492   2.033984
                    6          7          8          9         10
     6  H    0.000000
     7  H    1.774020   0.000000
     8  H    1.776262   1.774013   0.000000
     9  H    3.171500   3.756390   2.627988   0.000000
    10  H    2.626151   3.755409   3.172065   1.778291   0.000000
    11  H    3.751571   4.161259   3.752618   1.781616   1.781626
    12  H    3.310634   2.139757   3.310090   4.029615   4.029378
                   11         12
    11  H    0.000000
    12  H    3.583245   0.000000
 Stoichiometry    C3H7NO
 Framework group  C1[X(C3H7NO)]
 Deg. of freedom    30
 Full point group                 C1      NOp   1
 Largest Abelian subgroup         C1      NOp   1
 Largest concise Abelian subgroup C1      NOp   1
                         Standard orientation:                         
 ---------------------------------------------------------------------
 Center     Atomic      Atomic             Coordinates (Angstroms)
 Number     Number       Type             X           Y           Z
 ---------------------------------------------------------------------
      1          6           0       -1.590058   -0.763855    0.000074
      2          7           0       -0.344656   -0.018971   -0.000288
      3          6           0       -0.422691    1.433482    0.000032
      4          6           0        0.864857   -0.646139   -0.000033
      5          8           0        1.951101   -0.097747    0.000069
      6          1           0       -2.187264   -0.528434    0.887962
      7          1           0       -1.377724   -1.834173    0.000923
      8          1           0       -2.187104   -0.529830   -0.888300
      9          1           0       -0.953180    1.790461   -0.889164
     10          1           0       -0.953701    1.789968    0.889126
     11          1           0        0.589869    1.832522    0.000434
     12          1           0        0.760242   -1.746670    0.000039
 ---------------------------------------------------------------------
 Rotational constants (GHZ):           8.8884166           4.1766587           2.9469523
 Standard basis: 6-311++G(d,p) (5D, 7F)
 There are   164 symmetry adapted cartesian basis functions of A   symmetry.
 There are   159 symmetry adapted basis functions of A   symmetry.
   159 basis functions,   243 primitive gaussians,   164 cartesian basis functions
    20 alpha electrons       20 beta electrons
       nuclear repulsion energy       181.3046123309 Hartrees.
 NAtoms=   12 NActive=   12 NUniq=   12 SFac= 1.00D+00 NAtFMM=   60 NAOKFM=F Big=F
 Integral buffers will be    131072 words long.
 Raffenetti 2 integral format.
 Two-electron integral symmetry is turned on.
 One-electron integrals computed using PRISM.
 NBasis=   159 RedAO= T EigKep=  1.95D-04  NBF=   159
 NBsUse=   159 1.00D-06 EigRej= -1.00D+00 NBFU=   159
 Initial guess from the checkpoint file:  "CN(C)C=O.chk"
 B after Tr=     0.000000   -0.000000   -0.000000
         Rot=    1.000000   -0.000054    0.000009    0.000006 Ang=  -0.01 deg.
 Keep R1 ints in memory in canonical form, NReq=88851254.
 Requested convergence on RMS density matrix=1.00D-08 within 128 cycles.
 Requested convergence on MAX density matrix=1.00D-06.
 Requested convergence on             energy=1.00D-06.
 No special actions if energy rises.
 SCF Done:  E(RB3LYP) =  -248.590307878     A.U. after    7 cycles
            NFock=  7  Conv=0.27D-08     -V/T= 2.0042
 Calling FoFJK, ICntrl=      2127 FMM=F ISym2X=0 I1Cent= 0 IOpClX= 0 NMat=1 NMatS=1 NMatT=0.
 ***** Axes restored to original set *****
 -------------------------------------------------------------------
 Center     Atomic                   Forces (Hartrees/Bohr)
 Number     Number              X              Y              Z
 -------------------------------------------------------------------
      1        6           0.000028932   -0.000008325   -0.000016443
      2        7          -0.000021599   -0.000020727    0.000025991
      3        6           0.000017776    0.000017284   -0.000009595
      4        6           0.000005110   -0.000001601   -0.000003112
      5        8          -0.000016447    0.000013955    0.000002839
      6        1           0.000003922    0.000003831   -0.000001144
      7        1          -0.000004868   -0.000004127    0.000000105
      8        1          -0.000000496   -0.000000830    0.000003934
      9        1          -0.000001492    0.000001446   -0.000003318
     10        1          -0.000002713    0.000003132    0.000000759
     11        1          -0.000003143   -0.000000088   -0.000001549
     12        1          -0.000004983   -0.000003950    0.000001532
 -------------------------------------------------------------------
 Cartesian Forces:  Max     0.000028932 RMS     0.000010728

 GradGradGradGradGradGradGradGradGradGradGradGradGradGradGradGradGradGrad
 Berny optimization.
 Using GEDIIS/GDIIS optimizer.
 FormGI is forming the generalized inverse of G from B-inverse, IUseBI=4.
 Internal  Forces:  Max     0.000030505 RMS     0.000008173
 Search for a local minimum.
 Step number  11 out of a maximum of   55
 All quantities printed in internal units (Hartrees-Bohrs-Radians)
 Mixed Optimization -- En-DIIS/RFO-DIIS
 Swapping is turned off.
 Update second derivatives using D2CorX and points    1    2    3    4    5
                                                      6    7    8    9   10
                                                     11
 DE= -6.13D-08 DEPred=-4.43D-08 R= 1.38D+00
 Trust test= 1.38D+00 RLast= 4.29D-03 DXMaxT set to 4.86D-01
 ITU=  0  0  1  1  1  1  1  0  1  1  0
     Eigenvalues ---    0.00100   0.00207   0.00654   0.01945   0.07339
     Eigenvalues ---    0.07458   0.07590   0.07653   0.08511   0.14859
     Eigenvalues ---    0.15771   0.15897   0.15999   0.16280   0.16474
     Eigenvalues ---    0.17610   0.24244   0.24959   0.26357   0.33297
     Eigenvalues ---    0.34235   0.34316   0.34347   0.34387   0.34501
     Eigenvalues ---    0.35227   0.38492   0.42877   0.50802   0.93264
 En-DIIS/RFO-DIIS/Sim-DIIS IScMMF=       -3 using points:    11   10    9    8    7    6    5    4    3    2
 RFO step:  Lambda=-2.32886819D-08.
 DIIS inversion failure, remove point  10.
 DIIS inversion failure, remove point   9.
 DIIS inversion failure, remove point   8.
 DIIS inversion failure, remove point   7.
 DIIS inversion failure, remove point   6.
 DIIS inversion failure, remove point   5.
 RFO-DIIS uses    4 points instead of   10
 DidBck=F Rises=F RFO-DIIS coefs:    1.59451   -0.62530   -0.02139    0.05218    0.00000
                  RFO-DIIS coefs:    0.00000    0.00000    0.00000    0.00000    0.00000
 Iteration  1 RMS(Cart)=  0.00034598 RMS(Int)=  0.00000009
 Iteration  2 RMS(Cart)=  0.00000010 RMS(Int)=  0.00000000
 Variable       Old X    -DE/DX   Delta X   Delta X   Delta X     New X
                                 (Linear)    (Quad)   (Total)
    R1        2.74230   0.00003  -0.00006   0.00011   0.00005   2.74235
    R2        2.07046  -0.00000   0.00000   0.00000   0.00000   2.07046
    R3        2.06202  -0.00001   0.00002  -0.00003  -0.00001   2.06202
    R4        2.07047  -0.00000  -0.00001   0.00000  -0.00001   2.07046
    R5        2.74870  -0.00003   0.00006  -0.00010  -0.00004   2.74866
    R6        2.57465   0.00002  -0.00002   0.00005   0.00003   2.57468
    R7        2.06968   0.00000   0.00001  -0.00000   0.00001   2.06969
    R8        2.06970  -0.00000  -0.00002   0.00001  -0.00001   2.06968
    R9        2.05669   0.00000  -0.00001   0.00001   0.00000   2.05669
   R10        2.29946   0.00002   0.00001   0.00002   0.00002   2.29949
   R11        2.08908  -0.00001  -0.00004   0.00001  -0.00003   2.08905
    A1        1.93660   0.00001  -0.00001   0.00009   0.00007   1.93667
    A2        1.91398  -0.00001   0.00003  -0.00006  -0.00003   1.91395
    A3        1.93673  -0.00000  -0.00010   0.00006  -0.00004   1.93669
    A4        1.89252  -0.00000   0.00000  -0.00002  -0.00001   1.89250
    A5        1.89036  -0.00000   0.00005  -0.00004   0.00001   1.89037
    A6        1.89250   0.00000   0.00003  -0.00003   0.00000   1.89250
    A7        2.05615  -0.00000   0.00002  -0.00004  -0.00001   2.05613
    A8        2.12421   0.00000  -0.00007   0.00008   0.00001   2.12421
    A9        2.10283   0.00000   0.00004  -0.00004   0.00001   2.10284
   A10        1.92973  -0.00000   0.00001  -0.00004  -0.00003   1.92971
   A11        1.92966   0.00000   0.00005  -0.00003   0.00002   1.92968
   A12        1.89252   0.00000  -0.00002  -0.00000  -0.00002   1.89250
   A13        1.89457   0.00000   0.00004   0.00001   0.00005   1.89462
   A14        1.90861  -0.00000  -0.00006   0.00004  -0.00002   1.90860
   A15        1.90862  -0.00000  -0.00002   0.00002  -0.00000   1.90862
   A16        2.19571   0.00002  -0.00014   0.00019   0.00004   2.19575
   A17        1.95438  -0.00001   0.00008  -0.00008  -0.00001   1.95438
   A18        2.13309  -0.00001   0.00007  -0.00010  -0.00004   2.13305
    D1       -1.05019  -0.00001  -0.00087  -0.00006  -0.00093  -1.05111
    D2        2.09065  -0.00000  -0.00045   0.00004  -0.00041   2.09024
    D3       -3.14048  -0.00001  -0.00088  -0.00005  -0.00093  -3.14141
    D4        0.00036  -0.00000  -0.00046   0.00004  -0.00042  -0.00006
    D5        1.05236  -0.00000  -0.00088  -0.00001  -0.00089   1.05147
    D6       -2.08998   0.00000  -0.00046   0.00008  -0.00038  -2.09036
    D7       -1.05001   0.00000   0.00031   0.00006   0.00037  -1.04963
    D8        1.04862   0.00000   0.00040   0.00003   0.00043   1.04904
    D9        3.14088   0.00000   0.00039   0.00004   0.00042   3.14130
   D10        2.09233  -0.00000  -0.00010  -0.00003  -0.00013   2.09220
   D11       -2.09223  -0.00000  -0.00002  -0.00006  -0.00008  -2.09231
   D12        0.00003  -0.00000  -0.00003  -0.00006  -0.00009  -0.00006
   D13       -3.14122  -0.00000  -0.00019  -0.00006  -0.00025  -3.14146
   D14        0.00041  -0.00000  -0.00020  -0.00007  -0.00026   0.00015
   D15       -0.00040   0.00000   0.00025   0.00003   0.00028  -0.00012
   D16        3.14123   0.00000   0.00024   0.00003   0.00026   3.14150
         Item               Value     Threshold  Converged?
 Maximum Force            0.000031     0.000450     YES
 RMS     Force            0.000008     0.000300     YES
 Maximum Displacement     0.001151     0.001800     YES
 RMS     Displacement     0.000346     0.001200     YES
 Predicted change in Energy=-1.139571D-08
 Optimization completed.
    -- Stationary point found.
                           ----------------------------
                           !   Optimized Parameters   !
                           ! (Angstroms and Degrees)  !
 --------------------------                            --------------------------
 ! Name  Definition              Value          Derivative Info.                !
 --------------------------------------------------------------------------------
 ! R1    R(1,2)                  1.4512         -DE/DX =    0.0                 !
 ! R2    R(1,6)                  1.0956         -DE/DX =    0.0                 !
 ! R3    R(1,7)                  1.0912         -DE/DX =    0.0                 !
 ! R4    R(1,8)                  1.0956         -DE/DX =    0.0                 !
 ! R5    R(2,3)                  1.4545         -DE/DX =    0.0                 !
 ! R6    R(2,4)                  1.3624         -DE/DX =    0.0                 !
 ! R7    R(3,9)                  1.0952         -DE/DX =    0.0                 !
 ! R8    R(3,10)                 1.0952         -DE/DX =    0.0                 !
 ! R9    R(3,11)                 1.0884         -DE/DX =    0.0                 !
 ! R10   R(4,5)                  1.2168         -DE/DX =    0.0                 !
 ! R11   R(4,12)                 1.1055         -DE/DX =    0.0                 !
 ! A1    A(2,1,6)              110.9588         -DE/DX =    0.0                 !
 ! A2    A(2,1,7)              109.6631         -DE/DX =    0.0                 !
 ! A3    A(2,1,8)              110.9664         -DE/DX =    0.0                 !
 ! A4    A(6,1,7)              108.4333         -DE/DX =    0.0                 !
 ! A5    A(6,1,8)              108.3099         -DE/DX =    0.0                 !
 ! A6    A(7,1,8)              108.4321         -DE/DX =    0.0                 !
 ! A7    A(1,2,3)              117.8086         -DE/DX =    0.0                 !
 ! A8    A(1,2,4)              121.708          -DE/DX =    0.0                 !
 ! A9    A(3,2,4)              120.4834         -DE/DX =    0.0                 !
 ! A10   A(2,3,9)              110.5655         -DE/DX =    0.0                 !
 ! A11   A(2,3,10)             110.5613         -DE/DX =    0.0                 !
 ! A12   A(2,3,11)             108.4336         -DE/DX =    0.0                 !
 ! A13   A(9,3,10)             108.5508         -DE/DX =    0.0                 !
 ! A14   A(9,3,11)             109.3555         -DE/DX =    0.0                 !
 ! A15   A(10,3,11)            109.3558         -DE/DX =    0.0                 !
 ! A16   A(2,4,5)              125.805          -DE/DX =    0.0                 !
 ! A17   A(2,4,12)             111.9779         -DE/DX =    0.0                 !
 ! A18   A(5,4,12)             122.2171         -DE/DX =    0.0                 !
 ! D1    D(6,1,2,3)            -60.1712         -DE/DX =    0.0                 !
 ! D2    D(6,1,2,4)            119.7856         -DE/DX =    0.0                 !
 ! D3    D(7,1,2,3)           -179.936          -DE/DX =    0.0                 !
 ! D4    D(7,1,2,4)              0.0208         -DE/DX =    0.0                 !
 ! D5    D(8,1,2,3)             60.296          -DE/DX =    0.0                 !
 ! D6    D(8,1,2,4)           -119.7472         -DE/DX =    0.0                 !
 ! D7    D(1,2,3,9)            -60.1609         -DE/DX =    0.0                 !
 ! D8    D(1,2,3,10)            60.0812         -DE/DX =    0.0                 !
 ! D9    D(1,2,3,11)           179.9591         -DE/DX =    0.0                 !
 ! D10   D(4,2,3,9)            119.8818         -DE/DX =    0.0                 !
 ! D11   D(4,2,3,10)          -119.8762         -DE/DX =    0.0                 !
 ! D12   D(4,2,3,11)             0.0017         -DE/DX =    0.0                 !
 ! D13   D(1,2,4,5)           -179.9784         -DE/DX =    0.0                 !
 ! D14   D(1,2,4,12)             0.0237         -DE/DX =    0.0                 !
 ! D15   D(3,2,4,5)             -0.0227         -DE/DX =    0.0                 !
 ! D16   D(3,2,4,12)           179.9794         -DE/DX =    0.0                 !
 --------------------------------------------------------------------------------
 GradGradGradGradGradGradGradGradGradGradGradGradGradGradGradGradGradGrad

                          Input orientation:                          
 ---------------------------------------------------------------------
 Center     Atomic      Atomic             Coordinates (Angstroms)
 Number     Number       Type             X           Y           Z
 ---------------------------------------------------------------------
      1          6           0        1.316473    0.073049   -0.387918
      2          7           0       -0.076934    0.141733    0.011555
      3          6           0       -0.761742   -1.108034    0.302806
      4          6           0       -0.734331    1.330558    0.115409
      5          8           0       -1.897370    1.474654    0.442879
      6          1           0        1.926490   -0.389692    0.395773
      7          1           0        1.695896    1.079562   -0.571318
      8          1           0        1.432659   -0.513589   -1.305958
      9          1           0       -0.763075   -1.760137   -0.577127
     10          1           0       -0.267414   -1.634726    1.126078
     11          1           0       -1.788033   -0.880514    0.584716
     12          1           0       -0.082619    2.187136   -0.136896
 ---------------------------------------------------------------------
                    Distance matrix (angstroms):
                    1          2          3          4          5
     1  C    0.000000
     2  N    1.451164   0.000000
     3  C    2.488179   1.454548   0.000000
     4  C    2.457735   1.362446   2.445935   0.000000
     5  O    3.603263   2.297108   2.824810   1.216824   0.000000
     6  H    1.095638   2.108018   2.784106   3.180853   4.254398
     7  H    1.091177   2.088585   3.404358   2.537833   3.754497
     8  H    1.095646   2.108117   2.785118   3.180724   4.254484
     9  H    2.778649   2.105813   1.095228   3.167464   3.576439
    10  H    2.778017   2.105767   1.095236   3.167392   3.576558
    11  H    3.390171   2.073973   1.088353   2.493868   2.361968
    12  H    2.547516   2.050791   3.393036   1.105492   2.033984
                    6          7          8          9         10
     6  H    0.000000
     7  H    1.774020   0.000000
     8  H    1.776262   1.774013   0.000000
     9  H    3.171500   3.756390   2.627988   0.000000
    10  H    2.626151   3.755409   3.172065   1.778291   0.000000
    11  H    3.751571   4.161259   3.752618   1.781616   1.781626
    12  H    3.310634   2.139757   3.310090   4.029615   4.029378
                   11         12
    11  H    0.000000
    12  H    3.583245   0.000000
 Stoichiometry    C3H7NO
 Framework group  C1[X(C3H7NO)]
 Deg. of freedom    30
 Full point group                 C1      NOp   1
 Largest Abelian subgroup         C1      NOp   1
 Largest concise Abelian subgroup C1      NOp   1
                         Standard orientation:                         
 ---------------------------------------------------------------------
 Center     Atomic      Atomic             Coordinates (Angstroms)
 Number     Number       Type             X           Y           Z
 ---------------------------------------------------------------------
      1          6           0       -1.590058   -0.763855    0.000074
      2          7           0       -0.344656   -0.018971   -0.000288
      3          6           0       -0.422691    1.433482    0.000032
      4          6           0        0.864857   -0.646139   -0.000033
      5          8           0        1.951101   -0.097747    0.000069
      6          1           0       -2.187264   -0.528434    0.887962
      7          1           0       -1.377724   -1.834173    0.000923
      8          1           0       -2.187104   -0.529830   -0.888300
      9          1           0       -0.953180    1.790461   -0.889164
     10          1           0       -0.953701    1.789968    0.889126
     11          1           0        0.589869    1.832522    0.000434
     12          1           0        0.760242   -1.746670    0.000039
 ---------------------------------------------------------------------
 Rotational constants (GHZ):           8.8884166           4.1766587           2.9469523

 **********************************************************************

            Population analysis using the SCF Density.

 **********************************************************************

 Orbital symmetries:
       Occupied  (A) (A) (A) (A) (A) (A) (A) (A) (A) (A) (A) (A)
                 (A) (A) (A) (A) (A) (A) (A) (A)
       Virtual   (A) (A) (A) (A) (A) (A) (A) (A) (A) (A) (A) (A)
                 (A) (A) (A) (A) (A) (A) (A) (A) (A) (A) (A) (A)
                 (A) (A) (A) (A) (A) (A) (A) (A) (A) (A) (A) (A)
                 (A) (A) (A) (A) (A) (A) (A) (A) (A) (A) (A) (A)
                 (A) (A) (A) (A) (A) (A) (A) (A) (A) (A) (A) (A)
                 (A) (A) (A) (A) (A) (A) (A) (A) (A) (A) (A) (A)
                 (A) (A) (A) (A) (A) (A) (A) (A) (A) (A) (A) (A)
                 (A) (A) (A) (A) (A) (A) (A) (A) (A) (A) (A) (A)
                 (A) (A) (A) (A) (A) (A) (A) (A) (A) (A) (A) (A)
                 (A) (A) (A) (A) (A) (A) (A) (A) (A) (A) (A) (A)
                 (A) (A) (A) (A) (A) (A) (A) (A) (A) (A) (A) (A)
                 (A) (A) (A) (A) (A) (A) (A)
 The electronic state is 1-A.
 Alpha  occ. eigenvalues --  -19.09308 -14.35626 -10.26995 -10.22122 -10.20762
 Alpha  occ. eigenvalues --   -1.04279  -0.95003  -0.74294  -0.71249  -0.57898
 Alpha  occ. eigenvalues --   -0.52602  -0.48883  -0.47656  -0.42272  -0.41995
 Alpha  occ. eigenvalues --   -0.41357  -0.39729  -0.38628  -0.26571  -0.25588
 Alpha virt. eigenvalues --   -0.01761   0.00079   0.00654   0.01724   0.02906
 Alpha virt. eigenvalues --    0.03632   0.04893   0.05237   0.05957   0.06896
 Alpha virt. eigenvalues --    0.07971   0.09012   0.10783   0.11122   0.11648
 Alpha virt. eigenvalues --    0.12445   0.12786   0.12978   0.13192   0.15830
 Alpha virt. eigenvalues --    0.16031   0.17017   0.18255   0.18854   0.19669
 Alpha virt. eigenvalues --    0.21366   0.21396   0.24610   0.25880   0.26318
 Alpha virt. eigenvalues --    0.27554   0.28399   0.29173   0.30087   0.32188
 Alpha virt. eigenvalues --    0.34668   0.38013   0.39932   0.41130   0.46548
 Alpha virt. eigenvalues --    0.46652   0.46688   0.52278   0.54647   0.56553
 Alpha virt. eigenvalues --    0.56943   0.61300   0.61493   0.63250   0.64211
 Alpha virt. eigenvalues --    0.65268   0.68998   0.69696   0.70590   0.73633
 Alpha virt. eigenvalues --    0.83390   0.84279   0.88505   0.89333   0.99573
 Alpha virt. eigenvalues --    1.02821   1.05073   1.09223   1.10615   1.16356
 Alpha virt. eigenvalues --    1.18940   1.23103   1.25724   1.34072   1.39711
 Alpha virt. eigenvalues --    1.42944   1.43633   1.44347   1.52516   1.53218
 Alpha virt. eigenvalues --    1.54595   1.55074   1.55379   1.58925   1.64410
 Alpha virt. eigenvalues --    1.66063   1.68357   1.71404   1.74651   1.75932
 Alpha virt. eigenvalues --    1.80103   1.81556   1.87647   1.95002   2.03094
 Alpha virt. eigenvalues --    2.03369   2.04234   2.12882   2.14523   2.22225
 Alpha virt. eigenvalues --    2.38759   2.39668   2.42514   2.44203   2.47428
 Alpha virt. eigenvalues --    2.48146   2.49058   2.50248   2.53642   2.55653
 Alpha virt. eigenvalues --    2.58232   2.59131   2.64626   2.70167   2.71821
 Alpha virt. eigenvalues --    2.79109   2.85927   2.87519   2.92594   2.94508
 Alpha virt. eigenvalues --    2.98382   3.06532   3.36808   3.40026   3.50496
 Alpha virt. eigenvalues --    3.56070   3.65001   3.70373   3.71718   3.73811
 Alpha virt. eigenvalues --    3.78377   3.85015   3.97896   3.98101   4.86811
 Alpha virt. eigenvalues --    4.95239   5.04381   5.19815   5.76789  23.88441
 Alpha virt. eigenvalues --   23.92425  23.93852  35.50521  50.00027
          Condensed to atoms (all electrons):
               1          2          3          4          5          6
     1  C    4.980658   0.258041  -0.067152  -0.072631   0.017179   0.403174
     2  N    0.258041   7.261642   0.212323   0.140143  -0.167056  -0.066458
     3  C   -0.067152   0.212323   5.054509  -0.028960  -0.039238   0.004652
     4  C   -0.072631   0.140143  -0.028960   4.949774   0.459705  -0.002400
     5  O    0.017179  -0.167056  -0.039238   0.459705   8.099686   0.000810
     6  H    0.403174  -0.066458   0.004652  -0.002400   0.000810   0.612952
     7  H    0.407948  -0.042295   0.002095   0.001988   0.002756  -0.026439
     8  H    0.403152  -0.066441   0.004537  -0.002348   0.000802  -0.085321
     9  H   -0.000907  -0.048927   0.403095  -0.008529  -0.001897  -0.003074
    10  H   -0.000915  -0.049056   0.403218  -0.008566  -0.001898   0.011156
    11  H   -0.000340  -0.089251   0.403204   0.026228   0.038164  -0.000083
    12  H   -0.001532  -0.284225  -0.002579   0.408771  -0.024510   0.000973
               7          8          9         10         11         12
     1  C    0.407948   0.403152  -0.000907  -0.000915  -0.000340  -0.001532
     2  N   -0.042295  -0.066441  -0.048927  -0.049056  -0.089251  -0.284225
     3  C    0.002095   0.004537   0.403095   0.403218   0.403204  -0.002579
     4  C    0.001988  -0.002348  -0.008529  -0.008566   0.026228   0.408771
     5  O    0.002756   0.000802  -0.001897  -0.001898   0.038164  -0.024510
     6  H   -0.026439  -0.085321  -0.003074   0.011156  -0.000083   0.000973
     7  H    0.551418  -0.026449   0.000050   0.000039  -0.003552   0.000125
     8  H   -0.026449   0.612964   0.011109  -0.003069  -0.000068   0.000959
     9  H    0.000050   0.011109   0.598037  -0.071715  -0.021442  -0.003239
    10  H    0.000039  -0.003069  -0.071715   0.598098  -0.021432  -0.003236
    11  H   -0.003552  -0.000068  -0.021442  -0.021432   0.476247   0.015701
    12  H    0.000125   0.000959  -0.003239  -0.003236   0.015701   0.814289
 Mulliken charges:
               1
     1  C   -0.326674
     2  N   -0.058439
     3  C   -0.349705
     4  C    0.136827
     5  O   -0.384502
     6  H    0.150058
     7  H    0.132317
     8  H    0.150173
     9  H    0.147442
    10  H    0.147376
    11  H    0.176624
    12  H    0.078503
 Sum of Mulliken charges =  -0.00000
 Mulliken charges with hydrogens summed into heavy atoms:
               1
     1  C    0.105875
     2  N   -0.058439
     3  C    0.121737
     4  C    0.215329
     5  O   -0.384502
 Electronic spatial extent (au):  <R**2>=            445.7698
 Charge=              0.0000 electrons
 Dipole moment (field-independent basis, Debye):
    X=             -4.2030    Y=             -0.4044    Z=              0.0005  Tot=              4.2224
 Quadrupole moment (field-independent basis, Debye-Ang):
   XX=            -38.0344   YY=            -27.9367   ZZ=            -31.4741
   XY=              0.0535   XZ=             -0.0007   YZ=             -0.0002
 Traceless Quadrupole moment (field-independent basis, Debye-Ang):
   XX=             -5.5527   YY=              4.5450   ZZ=              1.0076
   XY=              0.0535   XZ=             -0.0007   YZ=             -0.0002
 Octapole moment (field-independent basis, Debye-Ang**2):
  XXX=            -17.6622  YYY=             -1.4888  ZZZ=             -0.0010  XYY=              1.5512
  XXY=             -0.4022  XXZ=             -0.0004  XZZ=              0.0903  YZZ=              0.6884
  YYZ=              0.0009  XYZ=              0.0001
 Hexadecapole moment (field-independent basis, Debye-Ang**3):
 XXXX=           -380.2726 YYYY=           -193.9889 ZZZZ=            -46.0849 XXXY=              4.6046
 XXXZ=             -0.0027 YYYX=              0.3533 YYYZ=             -0.0054 ZZZX=              0.0021
 ZZZY=             -0.0001 XXYY=            -88.8526 XXZZ=            -62.2568 YYZZ=            -41.8170
 XXYZ=              0.0032 YYXZ=              0.0003 ZZXY=             -1.4739
 N-N= 1.813046123309D+02 E-N=-9.428668268960D+02  KE= 2.475611849811D+02
 ******************************Gaussian NBO Version 3.1******************************
             N A T U R A L   A T O M I C   O R B I T A L   A N D
          N A T U R A L   B O N D   O R B I T A L   A N A L Y S I S
 ******************************Gaussian NBO Version 3.1******************************
       /RESON  / : Allow strongly delocalized NBO set

 Analyzing the SCF density

 Job title: CN(C)C=O                                                        

 Storage needed:     76599 in NPA,    101767 in NBO (1258290360 available)
 GSVD:  LWork=        4887 too small for GESVD, short by       35010 words or       35010 for optimal perf.


 NATURAL POPULATIONS:  Natural atomic orbital occupancies 
                                                          
   NAO  Atom  No  lang   Type(AO)    Occupancy      Energy
 ----------------------------------------------------------
     1    C    1  S      Cor( 1S)     1.99931     -10.08559
     2    C    1  S      Val( 2S)     1.06140      -0.26115
     3    C    1  S      Ryd( 4S)     0.00095       0.85704
     4    C    1  S      Ryd( 3S)     0.00010       0.41783
     5    C    1  S      Ryd( 5S)     0.00000      23.42344
     6    C    1  px     Val( 2p)     0.95691      -0.10024
     7    C    1  px     Ryd( 4p)     0.00237       0.54741
     8    C    1  px     Ryd( 3p)     0.00014       0.24700
     9    C    1  px     Ryd( 5p)     0.00007       3.02331
    10    C    1  py     Val( 2p)     1.11896      -0.11718
    11    C    1  py     Ryd( 4p)     0.00254       0.64024
    12    C    1  py     Ryd( 3p)     0.00013       0.30465
    13    C    1  py     Ryd( 5p)     0.00004       2.97259
    14    C    1  pz     Val( 2p)     1.19927      -0.12234
    15    C    1  pz     Ryd( 4p)     0.00029       0.57108
    16    C    1  pz     Ryd( 3p)     0.00009       0.24672
    17    C    1  pz     Ryd( 5p)     0.00001       2.94915
    18    C    1  dxy    Ryd( 3d)     0.00090       2.06597
    19    C    1  dxz    Ryd( 3d)     0.00129       2.13597
    20    C    1  dyz    Ryd( 3d)     0.00035       1.76720
    21    C    1  dx2y2  Ryd( 3d)     0.00084       2.15545
    22    C    1  dz2    Ryd( 3d)     0.00087       2.08643
 
    23    N    2  S      Cor( 1S)     1.99936     -14.19563
    24    N    2  S      Val( 2S)     1.23106      -0.53919
    25    N    2  S      Ryd( 3S)     0.00159       0.94696
    26    N    2  S      Ryd( 4S)     0.00015       1.20595
    27    N    2  S      Ryd( 5S)     0.00000      35.05891
    28    N    2  px     Val( 2p)     1.29896      -0.25840
    29    N    2  px     Ryd( 4p)     0.00187       1.02774
    30    N    2  px     Ryd( 3p)     0.00036       0.68180
    31    N    2  px     Ryd( 5p)     0.00012       4.36621
    32    N    2  py     Val( 2p)     1.29272      -0.25381
    33    N    2  py     Ryd( 4p)     0.00117       1.15165
    34    N    2  py     Ryd( 3p)     0.00034       0.73046
    35    N    2  py     Ryd( 5p)     0.00005       4.32756
    36    N    2  pz     Val( 2p)     1.66417      -0.25808
    37    N    2  pz     Ryd( 3p)     0.00546       0.53951
    38    N    2  pz     Ryd( 4p)     0.00059       0.63387
    39    N    2  pz     Ryd( 5p)     0.00000       3.80753
    40    N    2  dxy    Ryd( 3d)     0.00091       2.85527
    41    N    2  dxz    Ryd( 3d)     0.00046       2.21916
    42    N    2  dyz    Ryd( 3d)     0.00031       2.20324
    43    N    2  dx2y2  Ryd( 3d)     0.00073       2.87020
    44    N    2  dz2    Ryd( 3d)     0.00047       2.59884
 
    45    C    3  S      Cor( 1S)     1.99930     -10.07181
    46    C    3  S      Val( 2S)     1.06569      -0.25038
    47    C    3  S      Ryd( 3S)     0.00103       0.88137
    48    C    3  S      Ryd( 4S)     0.00005       1.24910
    49    C    3  S      Ryd( 5S)     0.00000      22.64007
    50    C    3  px     Val( 2p)     1.23773      -0.11590
    51    C    3  px     Ryd( 4p)     0.00289       0.61492
    52    C    3  px     Ryd( 3p)     0.00010       0.30626
    53    C    3  px     Ryd( 5p)     0.00003       3.05526
    54    C    3  py     Val( 2p)     0.85648      -0.08038
    55    C    3  py     Ryd( 4p)     0.00253       0.53924
    56    C    3  py     Ryd( 3p)     0.00019       0.27004
    57    C    3  py     Ryd( 5p)     0.00011       3.03116
    58    C    3  pz     Val( 2p)     1.19270      -0.10996
    59    C    3  pz     Ryd( 4p)     0.00102       0.56276
    60    C    3  pz     Ryd( 3p)     0.00024       0.25160
    61    C    3  pz     Ryd( 5p)     0.00003       2.99211
    62    C    3  dxy    Ryd( 3d)     0.00058       2.04583
    63    C    3  dxz    Ryd( 3d)     0.00075       2.05510
    64    C    3  dyz    Ryd( 3d)     0.00087       1.87086
    65    C    3  dx2y2  Ryd( 3d)     0.00125       2.19646
    66    C    3  dz2    Ryd( 3d)     0.00083       2.10811
 
    67    C    4  S      Cor( 1S)     1.99942     -10.14628
    68    C    4  S      Val( 2S)     0.83942      -0.15644
    69    C    4  S      Ryd( 3S)     0.01029       0.67955
    70    C    4  S      Ryd( 4S)     0.00029       0.88553
    71    C    4  S      Ryd( 5S)     0.00004      22.63952
    72    C    4  px     Val( 2p)     0.77135       0.00520
    73    C    4  px     Ryd( 4p)     0.01391       1.02643
    74    C    4  px     Ryd( 3p)     0.00050       0.56539
    75    C    4  px     Ryd( 5p)     0.00015       2.48995
    76    C    4  py     Val( 2p)     1.01602      -0.05971
    77    C    4  py     Ryd( 4p)     0.00497       1.19169
    78    C    4  py     Ryd( 3p)     0.00088       0.62573
    79    C    4  py     Ryd( 5p)     0.00016       2.37572
    80    C    4  pz     Val( 2p)     0.78675      -0.12218
    81    C    4  pz     Ryd( 4p)     0.00174       0.72022
    82    C    4  pz     Ryd( 3p)     0.00070       0.33028
    83    C    4  pz     Ryd( 5p)     0.00007       2.32617
    84    C    4  dxy    Ryd( 3d)     0.00262       2.53787
    85    C    4  dxz    Ryd( 3d)     0.00441       1.65043
    86    C    4  dyz    Ryd( 3d)     0.00078       1.53342
    87    C    4  dx2y2  Ryd( 3d)     0.00360       2.49652
    88    C    4  dz2    Ryd( 3d)     0.00060       1.98973
 
    89    O    5  S      Cor( 1S)     1.99977     -18.83649
    90    O    5  S      Val( 2S)     1.70627      -0.87302
    91    O    5  S      Ryd( 3S)     0.00478       0.83260
    92    O    5  S      Ryd( 4S)     0.00015       1.40110
    93    O    5  S      Ryd( 5S)     0.00000      49.76241
    94    O    5  px     Val( 2p)     1.61659      -0.27623
    95    O    5  px     Ryd( 3p)     0.00123       0.81206
    96    O    5  px     Ryd( 4p)     0.00010       0.88251
    97    O    5  px     Ryd( 5p)     0.00009       5.26028
    98    O    5  py     Val( 2p)     1.78774      -0.25495
    99    O    5  py     Ryd( 3p)     0.00256       0.72420
   100    O    5  py     Ryd( 4p)     0.00014       0.94443
   101    O    5  py     Ryd( 5p)     0.00003       5.01286
   102    O    5  pz     Val( 2p)     1.49625      -0.23873
   103    O    5  pz     Ryd( 3p)     0.00089       0.60027
   104    O    5  pz     Ryd( 4p)     0.00005       0.93193
   105    O    5  pz     Ryd( 5p)     0.00002       4.87362
   106    O    5  dxy    Ryd( 3d)     0.00130       3.44235
   107    O    5  dxz    Ryd( 3d)     0.00133       3.06716
   108    O    5  dyz    Ryd( 3d)     0.00033       2.91607
   109    O    5  dx2y2  Ryd( 3d)     0.00137       3.37153
   110    O    5  dz2    Ryd( 3d)     0.00040       3.09616
 
   111    H    6  S      Val( 1S)     0.80975       0.00553
   112    H    6  S      Ryd( 3S)     0.00120       0.47455
   113    H    6  S      Ryd( 4S)     0.00012       2.25812
   114    H    6  S      Ryd( 2S)     0.00008       0.20968
   115    H    6  px     Ryd( 2p)     0.00016       1.99330
   116    H    6  py     Ryd( 2p)     0.00016       1.75539
   117    H    6  pz     Ryd( 2p)     0.00031       2.35231
 
   118    H    7  S      Val( 1S)     0.79685       0.00549
   119    H    7  S      Ryd( 3S)     0.00101       0.70766
   120    H    7  S      Ryd( 2S)     0.00017       0.48433
   121    H    7  S      Ryd( 4S)     0.00011       1.72120
   122    H    7  px     Ryd( 2p)     0.00013       1.72377
   123    H    7  py     Ryd( 2p)     0.00038       2.63420
   124    H    7  pz     Ryd( 2p)     0.00017       1.71284
 
   125    H    8  S      Val( 1S)     0.80975       0.00554
   126    H    8  S      Ryd( 3S)     0.00120       0.47443
   127    H    8  S      Ryd( 4S)     0.00012       2.25937
   128    H    8  S      Ryd( 2S)     0.00008       0.20854
   129    H    8  px     Ryd( 2p)     0.00016       1.99320
   130    H    8  py     Ryd( 2p)     0.00016       1.75514
   131    H    8  pz     Ryd( 2p)     0.00031       2.35290
 
   132    H    9  S      Val( 1S)     0.81057       0.01202
   133    H    9  S      Ryd( 3S)     0.00095       0.47147
   134    H    9  S      Ryd( 4S)     0.00011       2.29019
   135    H    9  S      Ryd( 2S)     0.00007       0.20326
   136    H    9  px     Ryd( 2p)     0.00018       1.97411
   137    H    9  py     Ryd( 2p)     0.00013       1.79029
   138    H    9  pz     Ryd( 2p)     0.00031       2.36259
 
   139    H   10  S      Val( 1S)     0.81059       0.01199
   140    H   10  S      Ryd( 3S)     0.00095       0.47153
   141    H   10  S      Ryd( 4S)     0.00011       2.28989
   142    H   10  S      Ryd( 2S)     0.00007       0.20352
   143    H   10  px     Ryd( 2p)     0.00018       1.97445
   144    H   10  py     Ryd( 2p)     0.00013       1.78992
   145    H   10  pz     Ryd( 2p)     0.00031       2.36248
 
   146    H   11  S      Val( 1S)     0.76427       0.04553
   147    H   11  S      Ryd( 3S)     0.00124       0.82907
   148    H   11  S      Ryd( 4S)     0.00013       1.89797
   149    H   11  S      Ryd( 2S)     0.00010       0.26602
   150    H   11  px     Ryd( 2p)     0.00037       2.56609
   151    H   11  py     Ryd( 2p)     0.00013       1.85759
   152    H   11  pz     Ryd( 2p)     0.00013       1.74296
 
   153    H   12  S      Val( 1S)     0.89095      -0.02955
   154    H   12  S      Ryd( 2S)     0.00217       0.57529
   155    H   12  S      Ryd( 4S)     0.00031       1.29624
   156    H   12  S      Ryd( 3S)     0.00009       0.83254
   157    H   12  px     Ryd( 2p)     0.00011       1.90559
   158    H   12  py     Ryd( 2p)     0.00078       2.63727
   159    H   12  pz     Ryd( 2p)     0.00007       1.56990

 WARNING:  Population inversion found on atom  C    1
           Population inversion found on atom  N    2
           Population inversion found on atom  C    3
           Population inversion found on atom  C    4
           Population inversion found on atom  H    6
           Population inversion found on atom  H    7
           Population inversion found on atom  H    8
           Population inversion found on atom  H    9
           Population inversion found on atom  H   10
           Population inversion found on atom  H   11
           Population inversion found on atom  H   12


 Summary of Natural Population Analysis:                  
                                                          
                                       Natural Population 
                Natural  -----------------------------------------------
    Atom  No    Charge         Core      Valence    Rydberg      Total
 -----------------------------------------------------------------------
      C    1   -0.34685      1.99931     4.33654    0.01100     6.34685
      N    2   -0.50083      1.99936     5.48691    0.01456     7.50083
      C    3   -0.36439      1.99930     4.35260    0.01249     6.36439
      C    4    0.54134      1.99942     3.41354    0.04571     5.45866
      O    5   -0.62139      1.99977     6.60685    0.01477     8.62139
      H    6    0.18822      0.00000     0.80975    0.00203     0.81178
      H    7    0.20117      0.00000     0.79685    0.00198     0.79883
      H    8    0.18822      0.00000     0.80975    0.00203     0.81178
      H    9    0.18769      0.00000     0.81057    0.00174     0.81231
      H   10    0.18767      0.00000     0.81059    0.00174     0.81233
      H   11    0.23363      0.00000     0.76427    0.00210     0.76637
      H   12    0.10552      0.00000     0.89095    0.00354     0.89448
 =======================================================================
   * Total *   -0.00000      9.99716    29.88915    0.11369    40.00000

                                 Natural Population      
 --------------------------------------------------------
   Core                       9.99716 ( 99.9716% of  10)
   Valence                   29.88915 ( 99.6305% of  30)
   Natural Minimal Basis     39.88631 ( 99.7158% of  40)
   Natural Rydberg Basis      0.11369 (  0.2842% of  40)
 --------------------------------------------------------

    Atom  No          Natural Electron Configuration
 ----------------------------------------------------------------------------
      C    1      [core]2S( 1.06)2p( 3.28)4p( 0.01)
      N    2      [core]2S( 1.23)2p( 4.26)3p( 0.01)
      C    3      [core]2S( 1.07)2p( 3.29)4p( 0.01)
      C    4      [core]2S( 0.84)2p( 2.57)3S( 0.01)3d( 0.01)4p( 0.02)
      O    5      [core]2S( 1.71)2p( 4.90)
      H    6            1S( 0.81)
      H    7            1S( 0.80)
      H    8            1S( 0.81)
      H    9            1S( 0.81)
      H   10            1S( 0.81)
      H   11            1S( 0.76)
      H   12            1S( 0.89)


 NATURAL BOND ORBITAL ANALYSIS:

                       Occupancies       Lewis Structure    Low   High
           Occ.    -------------------  -----------------   occ   occ
  Cycle   Thresh.   Lewis   Non-Lewis     CR  BD  3C  LP    (L)   (NL)   Dev
 =============================================================================
   1(1)    1.90    39.01619   0.98381      5  13   0   2     3      2    0.20
   2(2)    1.90    38.79698   1.20302      5  13   0   2     3      2    0.19
   3(3)    1.90    38.14593   1.85407      5  14   0   1     2      2    1.20
   4(4)    1.90    38.79698   1.20302      5  13   0   2     3      2    0.19
   5(5)    1.90    38.14593   1.85407      5  14   0   1     2      2    1.20
   6(6)    1.90    38.79698   1.20302      5  13   0   2     3      2    0.19
   7(7)    1.90    38.14593   1.85407      5  14   0   1     2      2    1.20
   8(8)    1.90    38.79698   1.20302      5  13   0   2     3      2    0.19
   9(9)    1.90    38.14593   1.85407      5  14   0   1     2      2    1.20
  10(1)    1.80    39.37650   0.62350      5  12   0   3     1      1    0.20
  11(2)    1.80    39.15729   0.84271      5  12   0   3     1      1    0.69
  12(3)    1.80    39.37650   0.62350      5  12   0   3     1      1    0.20
  13(1)    1.70    38.84101   1.15899      5  13   0   2     1      2    0.20
  14(2)    1.70    39.15729   0.84271      5  12   0   3     1      1    0.69
  15(3)    1.70    38.84101   1.15899      5  13   0   2     1      2    0.20
  16(4)    1.70    39.15729   0.84271      5  12   0   3     1      1    0.69
  17(5)    1.70    38.84101   1.15899      5  13   0   2     1      2    0.20
  18(6)    1.70    39.15729   0.84271      5  12   0   3     1      1    0.69
  19(7)    1.70    38.84101   1.15899      5  13   0   2     1      2    0.20
  20(8)    1.70    39.15729   0.84271      5  12   0   3     1      1    0.69
  21(9)    1.70    38.84101   1.15899      5  13   0   2     1      2    0.20
  22(1)    1.60    39.37650   0.62350      5  12   0   3     0      1    0.20
  23(2)    1.60    39.37650   0.62350      5  12   0   3     0      1    0.20
  24(1)    1.50    39.37650   0.62350      5  12   0   3     0      1    0.20
  25(2)    1.50    39.37650   0.62350      5  12   0   3     0      1    0.20
  26(1)    1.60    39.37650   0.62350      5  12   0   3     0      1    0.20
 -----------------------------------------------------------------------------

 Structure accepted: RESONANCE keyword permits strongly delocalized structure

 --------------------------------------------------------
   Core                      9.99715 ( 99.971% of  10)
   Valence Lewis            29.37935 ( 97.931% of  30)
  ==================       ============================
   Total Lewis              39.37650 ( 98.441% of  40)
  -----------------------------------------------------
   Valence non-Lewis         0.55356 (  1.384% of  40)
   Rydberg non-Lewis         0.06995 (  0.175% of  40)
  ==================       ============================
   Total non-Lewis           0.62350 (  1.559% of  40)
 --------------------------------------------------------


       (Occupancy)   Bond orbital/ Coefficients/ Hybrids
 ---------------------------------------------------------------------------------
     1. (1.99016) BD ( 1) C   1 - N   2  
                ( 37.13%)   0.6094* C   1 s( 24.51%)p 3.07( 75.35%)d 0.01(  0.13%)
                                           -0.0001 -0.4942 -0.0307 -0.0000 -0.0004
                                           -0.7426  0.0393  0.0060  0.0035 -0.4472
                                            0.0213  0.0038  0.0021  0.0003 -0.0000
                                            0.0000  0.0000 -0.0271  0.0000  0.0000
                                           -0.0154  0.0193
                ( 62.87%)   0.7929* N   2 s( 32.39%)p 2.09( 67.57%)d 0.00(  0.03%)
                                            0.0001 -0.5691 -0.0074  0.0017  0.0000
                                            0.7007 -0.0077 -0.0094 -0.0009  0.4296
                                           -0.0027 -0.0066 -0.0006 -0.0002 -0.0000
                                            0.0000  0.0000 -0.0133  0.0000  0.0000
                                           -0.0053  0.0109
     2. (1.99031) BD ( 1) C   1 - H   6  
                ( 59.81%)   0.7734* C   1 s( 25.25%)p 2.96( 74.69%)d 0.00(  0.06%)
                                           -0.0000  0.5025 -0.0074  0.0011  0.0000
                                           -0.4544  0.0030  0.0031 -0.0000  0.2021
                                            0.0138  0.0020 -0.0000  0.7066  0.0085
                                            0.0032  0.0016 -0.0062 -0.0183  0.0078
                                            0.0030  0.0127
                ( 40.19%)   0.6340* H   6 s( 99.96%)p 0.00(  0.04%)
                                            0.9998  0.0031  0.0004 -0.0001  0.0103
                                           -0.0034 -0.0160
     3. (1.98895) BD ( 1) C   1 - H   7  
                ( 60.13%)   0.7754* C   1 s( 25.07%)p 2.99( 74.87%)d 0.00(  0.06%)
                                            0.0001 -0.5007  0.0035  0.0024  0.0004
                                           -0.1779 -0.0165  0.0007  0.0010  0.8466
                                            0.0083  0.0010  0.0005 -0.0007 -0.0000
                                           -0.0000 -0.0000  0.0112 -0.0000  0.0000
                                            0.0184  0.0117
                ( 39.87%)   0.6315* H   7 s( 99.96%)p 0.00(  0.04%)
                                           -0.9998 -0.0014 -0.0003  0.0004  0.0017
                                           -0.0205  0.0000
     4. (1.99032) BD ( 1) C   1 - H   8  
                ( 59.81%)   0.7734* C   1 s( 25.25%)p 2.96( 74.69%)d 0.00(  0.06%)
                                           -0.0000  0.5025 -0.0074  0.0011  0.0000
                                           -0.4543  0.0030  0.0031 -0.0000  0.2010
                                            0.0137  0.0020 -0.0000 -0.7070 -0.0085
                                           -0.0032 -0.0016 -0.0062  0.0183 -0.0077
                                            0.0030  0.0128
                ( 40.19%)   0.6340* H   8 s( 99.96%)p 0.00(  0.04%)
                                            0.9998  0.0031  0.0004 -0.0001  0.0103
                                           -0.0034  0.0160
     5. (1.98851) BD ( 1) N   2 - C   3  
                ( 63.32%)   0.7957* N   2 s( 31.90%)p 2.13( 68.07%)d 0.00(  0.03%)
                                           -0.0001  0.5648  0.0033 -0.0018 -0.0000
                                           -0.0463  0.0018  0.0000 -0.0007  0.8236
                                           -0.0098 -0.0113 -0.0006  0.0001  0.0000
                                           -0.0000 -0.0000 -0.0014 -0.0000  0.0000
                                           -0.0129 -0.0109
                ( 36.68%)   0.6057* C   3 s( 23.76%)p 3.20( 76.10%)d 0.01(  0.14%)
                                            0.0001  0.4865  0.0300 -0.0002  0.0003
                                            0.0371 -0.0046  0.0009  0.0000 -0.8703
                                            0.0457  0.0069  0.0016 -0.0002  0.0000
                                           -0.0000 -0.0000 -0.0022 -0.0000  0.0000
                                           -0.0316 -0.0191
     6. (1.98982) BD ( 1) N   2 - C   4  
                ( 63.94%)   0.7997* N   2 s( 35.68%)p 1.80( 64.28%)d 0.00(  0.05%)
                                           -0.0000  0.5973 -0.0027  0.0031  0.0001
                                            0.7114 -0.0116 -0.0071  0.0012 -0.3694
                                            0.0105  0.0021 -0.0010  0.0002  0.0000
                                           -0.0000 -0.0000 -0.0145  0.0000 -0.0000
                                            0.0109 -0.0110
                ( 36.06%)   0.6005* C   4 s( 33.16%)p 2.01( 66.72%)d 0.00(  0.12%)
                                            0.0001  0.5755 -0.0149  0.0148  0.0006
                                           -0.6964  0.0373  0.0053 -0.0032  0.4249
                                           -0.0135 -0.0009  0.0047 -0.0001  0.0000
                                           -0.0000 -0.0000 -0.0266  0.0000 -0.0000
                                            0.0164 -0.0148
     7. (1.98921) BD ( 1) C   3 - H   9  
                ( 59.63%)   0.7722* C   3 s( 25.18%)p 2.97( 74.76%)d 0.00(  0.06%)
                                           -0.0001  0.5018 -0.0065  0.0009  0.0001
                                           -0.4235 -0.0102 -0.0000  0.0002  0.2614
                                           -0.0124 -0.0027  0.0009 -0.7068 -0.0081
                                           -0.0027 -0.0007 -0.0055  0.0175 -0.0096
                                            0.0048  0.0127
                ( 40.37%)   0.6354* H   9 s( 99.96%)p 0.00(  0.04%)
                                            0.9998  0.0021  0.0004 -0.0003  0.0077
                                           -0.0068  0.0160
     8. (1.98921) BD ( 1) C   3 - H  10  
                ( 59.63%)   0.7722* C   3 s( 25.18%)p 2.97( 74.76%)d 0.00(  0.06%)
                                           -0.0001  0.5018 -0.0066  0.0009  0.0001
                                           -0.4239 -0.0102 -0.0000  0.0002  0.2610
                                           -0.0124 -0.0027  0.0009  0.7067  0.0081
                                            0.0027  0.0007 -0.0055 -0.0176  0.0095
                                            0.0048  0.0127
                ( 40.37%)   0.6354* H  10 s( 99.96%)p 0.00(  0.04%)
                                            0.9998  0.0021  0.0004 -0.0003  0.0077
                                           -0.0068 -0.0160
     9. (1.98919) BD ( 1) C   3 - H  11  
                ( 61.81%)   0.7862* C   3 s( 25.96%)p 2.85( 73.98%)d 0.00(  0.06%)
                                           -0.0000  0.5095 -0.0038 -0.0016 -0.0004
                                            0.7990  0.0170  0.0011 -0.0004  0.3180
                                           -0.0040  0.0024  0.0019  0.0003  0.0000
                                            0.0000  0.0000  0.0130  0.0000  0.0000
                                            0.0181 -0.0110
                ( 38.19%)   0.6180* H  11 s( 99.96%)p 0.00(  0.04%)
                                            0.9998  0.0020  0.0001 -0.0004 -0.0196
                                           -0.0056 -0.0000
    10. (1.99775) BD ( 1) C   4 - O   5  
                ( 29.24%)   0.5408* C   4 s(  0.00%)p 1.00( 99.53%)d 0.00(  0.47%)
                                            0.0000  0.0004 -0.0000  0.0000 -0.0000
                                            0.0004 -0.0001 -0.0000  0.0000  0.0004
                                           -0.0000 -0.0000 -0.0000  0.9968  0.0352
                                            0.0211 -0.0021  0.0000  0.0600  0.0337
                                            0.0000 -0.0000
                ( 70.76%)   0.8412* O   5 s(  0.00%)p 1.00( 99.89%)d 0.00(  0.11%)
                                            0.0000  0.0005 -0.0000  0.0000  0.0000
                                           -0.0006  0.0000 -0.0000 -0.0000 -0.0002
                                            0.0000 -0.0000 -0.0000  0.9994 -0.0051
                                            0.0015 -0.0037  0.0000 -0.0304 -0.0146
                                            0.0000 -0.0000
    11. (1.99530) BD ( 2) C   4 - O   5  
                ( 35.70%)   0.5975* C   4 s( 34.87%)p 1.86( 64.96%)d 0.00(  0.17%)
                                           -0.0001  0.5861 -0.0719 -0.0045 -0.0022
                                            0.7102 -0.0711 -0.0016  0.0028  0.3741
                                           -0.0149 -0.0072  0.0007 -0.0007 -0.0000
                                           -0.0000  0.0000  0.0307 -0.0000 -0.0000
                                            0.0177 -0.0208
                ( 64.30%)   0.8019* O   5 s( 39.94%)p 1.50( 59.95%)d 0.00(  0.11%)
                                            0.0000  0.6303 -0.0462  0.0017 -0.0000
                                           -0.6911  0.0186  0.0004 -0.0010 -0.3485
                                            0.0113 -0.0028 -0.0009 -0.0008  0.0000
                                           -0.0000  0.0000  0.0229  0.0000  0.0000
                                            0.0185 -0.0155
    12. (1.98118) BD ( 1) C   4 - H  12  
                ( 56.94%)   0.7546* C   4 s( 32.46%)p 2.08( 67.46%)d 0.00(  0.08%)
                                            0.0004 -0.5674 -0.0517  0.0068 -0.0006
                                            0.0339  0.0226 -0.0004 -0.0028  0.8196
                                            0.0250 -0.0234 -0.0021 -0.0001  0.0000
                                            0.0000  0.0000 -0.0076  0.0000  0.0000
                                            0.0252  0.0103
                ( 43.06%)   0.6562* H  12 s( 99.94%)p 0.00(  0.06%)
                                           -0.9996 -0.0095 -0.0009  0.0003  0.0026
                                           -0.0246  0.0000
    13. (1.99931) CR ( 1) C   1           s(100.00%)p 0.00(  0.00%)
                                            1.0000  0.0000 -0.0000 -0.0000 -0.0000
                                           -0.0001  0.0000  0.0000  0.0000 -0.0001
                                            0.0000  0.0000  0.0000  0.0000 -0.0000
                                            0.0000  0.0000 -0.0000  0.0000  0.0000
                                           -0.0000  0.0000
    14. (1.99936) CR ( 1) N   2           s(100.00%)
                                            1.0000  0.0001  0.0000 -0.0000  0.0000
                                           -0.0001  0.0000  0.0000  0.0000 -0.0000
                                           -0.0000  0.0000  0.0000  0.0000  0.0000
                                            0.0000  0.0000  0.0000  0.0000 -0.0000
                                            0.0000 -0.0000
    15. (1.99930) CR ( 1) C   3           s(100.00%)p 0.00(  0.00%)
                                            1.0000  0.0000 -0.0000  0.0000 -0.0000
                                           -0.0000  0.0000 -0.0000  0.0000  0.0002
                                           -0.0000 -0.0000 -0.0000  0.0000 -0.0000
                                            0.0000  0.0000  0.0000 -0.0000 -0.0000
                                            0.0000  0.0000
    16. (1.99942) CR ( 1) C   4           s(100.00%)p 0.00(  0.00%)
                                            1.0000  0.0002  0.0000 -0.0000 -0.0000
                                            0.0001 -0.0000 -0.0000  0.0000 -0.0003
                                           -0.0000  0.0000  0.0000 -0.0000 -0.0000
                                           -0.0000  0.0000  0.0000 -0.0000 -0.0000
                                           -0.0000 -0.0000
    17. (1.99976) CR ( 1) O   5           s(100.00%)p 0.00(  0.00%)
                                            1.0000  0.0003  0.0000  0.0000  0.0000
                                            0.0003 -0.0000 -0.0000  0.0000  0.0000
                                           -0.0000 -0.0000  0.0000  0.0000 -0.0000
                                           -0.0000  0.0000 -0.0000 -0.0000 -0.0000
                                           -0.0000  0.0000
    18. (1.66581) LP ( 1) N   2           s(  0.00%)p 1.00( 99.99%)d 0.00(  0.01%)
                                            0.0000  0.0003 -0.0000  0.0000  0.0000
                                           -0.0000  0.0000 -0.0000 -0.0000 -0.0000
                                           -0.0000 -0.0000  0.0000 -0.9995 -0.0231
                                           -0.0182 -0.0009 -0.0000 -0.0090  0.0064
                                            0.0000 -0.0000
    19. (1.98437) LP ( 1) O   5           s( 60.28%)p 0.66( 39.71%)d 0.00(  0.01%)
                                           -0.0004  0.7760  0.0240 -0.0008  0.0000
                                            0.5692 -0.0046 -0.0029  0.0053  0.2702
                                           -0.0032 -0.0018  0.0025  0.0001 -0.0000
                                           -0.0000  0.0000 -0.0063 -0.0000 -0.0000
                                           -0.0059  0.0062
    20. (1.84927) LP ( 2) O   5           s(  0.02%)p99.99( 99.91%)d 3.99(  0.07%)
                                            0.0001  0.0117  0.0023 -0.0063  0.0001
                                           -0.4416 -0.0074  0.0033  0.0022  0.8966
                                            0.0127  0.0036 -0.0010 -0.0002 -0.0000
                                           -0.0000  0.0000 -0.0167  0.0000 -0.0000
                                            0.0211 -0.0007
    21. (0.00262) RY*( 1) C   1           s(  0.59%)p99.99( 88.43%)d18.64( 10.98%)
                                           -0.0000  0.0032  0.0732 -0.0223 -0.0058
                                           -0.0132  0.4948 -0.0878 -0.0103  0.0209
                                           -0.7879  0.0926  0.0414 -0.0000 -0.0000
                                           -0.0001 -0.0000  0.1413 -0.0002 -0.0000
                                           -0.2997  0.0001
    22. (0.00089) RY*( 2) C   1           s(  0.00%)p 1.00( 12.47%)d 7.02( 87.53%)
                                            0.0000  0.0000 -0.0006  0.0007  0.0000
                                            0.0000  0.0008  0.0005 -0.0002  0.0000
                                            0.0005 -0.0002 -0.0004 -0.0198  0.2973
                                           -0.1773  0.0671 -0.0001 -0.8342 -0.4236
                                           -0.0001  0.0004
    23. (0.00059) RY*( 3) C   1           s(  7.21%)p12.82( 92.38%)d 0.06(  0.41%)
                                            0.0000 -0.0083  0.2680 -0.0037  0.0137
                                           -0.0467 -0.8123 -0.0351  0.1850 -0.0283
                                           -0.4702  0.0462  0.0475 -0.0000  0.0013
                                           -0.0003  0.0001  0.0618 -0.0006 -0.0003
                                            0.0143 -0.0088
    24. (0.00024) RY*( 4) C   1           s( 37.39%)p 1.26( 46.93%)d 0.42( 15.68%)
                                            0.0000 -0.0031  0.2175  0.5700 -0.0412
                                           -0.0141 -0.0205  0.5303 -0.2574 -0.0084
                                            0.0240 -0.0170 -0.3468  0.0000 -0.0011
                                            0.0007  0.0000  0.3587  0.0002  0.0002
                                           -0.1160 -0.1212
    25. (0.00017) RY*( 5) C   1           s( 34.32%)p 1.49( 51.07%)d 0.43( 14.60%)
                                            0.0000 -0.0028  0.5377 -0.2034 -0.1127
                                           -0.0061  0.0716  0.0415 -0.1806  0.0028
                                            0.1348  0.6724 -0.0292 -0.0000 -0.0010
                                           -0.0001 -0.0002 -0.2980 -0.0007 -0.0004
                                           -0.0300 -0.2373
    26. (0.00011) RY*( 6) C   1           s(  0.00%)p 1.00( 87.41%)d 0.14( 12.59%)
                                           -0.0000 -0.0000  0.0009  0.0007  0.0000
                                            0.0000  0.0008  0.0007 -0.0001  0.0000
                                            0.0008  0.0004 -0.0002 -0.0016  0.7193
                                           -0.5679  0.1851 -0.0002  0.2839  0.2129
                                           -0.0008 -0.0002
    27. (0.00005) RY*( 7) C   1           s( 13.18%)p 3.81( 50.19%)d 2.78( 36.63%)
    28. (0.00002) RY*( 8) C   1           s(  0.00%)p 1.00( 20.85%)d 3.80( 79.15%)
    29. (0.00000) RY*( 9) C   1           s(  4.20%)p22.48( 94.37%)d 0.34(  1.43%)
    30. (0.00000) RY*(10) C   1           s( 97.20%)p 0.02(  2.13%)d 0.01(  0.67%)
    31. (0.00000) RY*(11) C   1           s(  0.00%)p 1.00( 84.44%)d 0.18( 15.56%)
    32. (0.00000) RY*(12) C   1           s(  0.00%)p 1.00( 94.90%)d 0.05(  5.10%)
    33. (0.00000) RY*(13) C   1           s( 10.47%)p 2.49( 26.09%)d 6.06( 63.44%)
    34. (0.00000) RY*(14) C   1           s( 41.79%)p 1.36( 56.71%)d 0.04(  1.50%)
    35. (0.00000) RY*(15) C   1           s( 42.87%)p 1.23( 52.65%)d 0.10(  4.48%)
    36. (0.00001) RY*(16) C   1           s(  3.94%)p 7.85( 30.88%)d16.56( 65.18%)
    37. (0.00001) RY*(17) C   1           s(  6.74%)p 1.26(  8.51%)d12.57( 84.75%)
    38. (0.00474) RY*( 1) N   2           s(  0.00%)p 1.00( 97.15%)d 0.03(  2.85%)
                                           -0.0000 -0.0000  0.0001 -0.0000 -0.0000
                                            0.0000  0.0002 -0.0002  0.0000  0.0000
                                            0.0001  0.0002 -0.0000 -0.0230  0.9816
                                           -0.0856 -0.0136  0.0000  0.1415 -0.0920
                                           -0.0000 -0.0001
    39. (0.00230) RY*( 2) N   2           s( 25.66%)p 2.71( 69.56%)d 0.19(  4.78%)
                                           -0.0000 -0.0019  0.5015 -0.0715 -0.0008
                                            0.0067  0.6954 -0.2407  0.0993 -0.0007
                                            0.3671  0.0093 -0.0970  0.0000 -0.0003
                                           -0.0000  0.0001 -0.1223 -0.0002  0.0001
                                           -0.1811 -0.0073
    40. (0.00156) RY*( 3) N   2           s( 55.80%)p 0.45( 25.07%)d 0.34( 19.13%)
                                           -0.0000 -0.0049  0.7445  0.0604 -0.0006
                                            0.0089 -0.4653  0.1366  0.1094 -0.0008
                                           -0.0024 -0.0343 -0.0478 -0.0000  0.0000
                                           -0.0001  0.0000  0.4103 -0.0001 -0.0001
                                           -0.1251 -0.0858
    41. (0.00092) RY*( 4) N   2           s(  9.61%)p 7.92( 76.07%)d 1.49( 14.32%)
                                            0.0000  0.0010  0.2593  0.1692  0.0142
                                            0.0046  0.2293 -0.1513  0.1476 -0.0003
                                           -0.7568  0.3001 -0.0241  0.0000 -0.0000
                                           -0.0001  0.0001 -0.0885 -0.0003  0.0000
                                            0.3666  0.0311
    42. (0.00025) RY*( 5) N   2           s( 24.10%)p 1.22( 29.51%)d 1.93( 46.40%)
                                           -0.0000 -0.0041  0.1266  0.4743  0.0009
                                           -0.0216 -0.3041 -0.1475  0.1929  0.0114
                                            0.3566 -0.0929 -0.0850  0.0000  0.0003
                                           -0.0003 -0.0000 -0.5348 -0.0015  0.0015
                                            0.4218 -0.0076
    43. (0.00023) RY*( 6) N   2           s(  0.00%)p 1.00(  1.93%)d50.81( 98.07%)
                                           -0.0000  0.0000  0.0000  0.0008  0.0001
                                           -0.0000 -0.0001 -0.0010  0.0007  0.0000
                                            0.0006 -0.0006 -0.0004 -0.0063 -0.1159
                                            0.0758  0.0085  0.0006  0.9722  0.1884
                                            0.0015  0.0002
    44. (0.00021) RY*( 7) N   2           s(  0.00%)p 1.00(  1.99%)d49.34( 98.01%)
                                           -0.0000 -0.0000  0.0010  0.0016 -0.0003
                                           -0.0001 -0.0021 -0.0013 -0.0014 -0.0000
                                           -0.0008  0.0017  0.0012 -0.0069 -0.1081
                                            0.0901  0.0005 -0.0049  0.1691 -0.9754
                                           -0.0041 -0.0010
    45. (0.00019) RY*( 8) N   2           s(  3.04%)p 8.14( 24.76%)d23.75( 72.20%)
                                           -0.0000 -0.0021  0.1151  0.1229 -0.0451
                                           -0.0084 -0.1915 -0.0667 -0.2573 -0.0108
                                           -0.1934  0.2422  0.2099  0.0000  0.0006
                                           -0.0005 -0.0001 -0.5369  0.0004  0.0076
                                           -0.6410 -0.1513
    46. (0.00007) RY*( 9) N   2           s(  4.88%)p12.65( 61.75%)d 6.83( 33.36%)
    47. (0.00003) RY*(10) N   2           s( 24.23%)p 2.96( 71.71%)d 0.17(  4.06%)
    48. (0.00004) RY*(11) N   2           s( 44.08%)p 0.98( 43.41%)d 0.28( 12.51%)
    49. (0.00000) RY*(12) N   2           s(  0.00%)p 1.00(100.00%)d 0.00(  0.00%)
    50. (0.00000) RY*(13) N   2           s(  6.91%)p11.37( 78.55%)d 2.10( 14.54%)
    51. (0.00000) RY*(14) N   2           s(  0.60%)p99.99( 96.09%)d 5.50(  3.31%)
    52. (0.00000) RY*(15) N   2           s( 98.56%)p 0.01(  1.03%)d 0.00(  0.41%)
    53. (0.00000) RY*(16) N   2           s(  0.00%)p 1.00( 98.95%)d 0.01(  1.05%)
    54. (0.00001) RY*(17) N   2           s(  2.56%)p 8.80( 22.57%)d29.19( 74.87%)
    55. (0.00272) RY*( 1) C   3           s(  0.18%)p99.99( 89.97%)d53.56(  9.85%)
                                            0.0000 -0.0040  0.0101  0.0399  0.0113
                                            0.0245 -0.9307  0.1523  0.0370  0.0065
                                            0.0572 -0.0709  0.0024 -0.0000  0.0004
                                            0.0001  0.0001 -0.3121 -0.0000  0.0002
                                            0.0310 -0.0086
    56. (0.00170) RY*( 2) C   3           s(  0.00%)p 1.00( 57.55%)d 0.74( 42.45%)
                                           -0.0000 -0.0000  0.0006 -0.0004 -0.0001
                                            0.0000 -0.0004 -0.0001  0.0000  0.0001
                                            0.0010  0.0000 -0.0002  0.0200 -0.7369
                                           -0.1227 -0.1304 -0.0003  0.0908 -0.6452
                                           -0.0001 -0.0002
    57. (0.00115) RY*( 3) C   3           s( 20.24%)p 3.88( 78.49%)d 0.06(  1.27%)
                                            0.0000 -0.0088  0.4484 -0.0357 -0.0031
                                           -0.0111  0.0201 -0.1232  0.0785  0.0545
                                            0.8482 -0.1864 -0.0769  0.0000  0.0011
                                            0.0001  0.0001  0.0960 -0.0001  0.0005
                                           -0.0209 -0.0548
    58. (0.00023) RY*( 4) C   3           s( 32.90%)p 1.89( 62.05%)d 0.15(  5.05%)
                                           -0.0000 -0.0011  0.4460  0.3579 -0.0448
                                           -0.0023  0.0402 -0.0004 -0.0170 -0.0006
                                           -0.2983 -0.5046  0.5244  0.0000 -0.0002
                                            0.0026  0.0001  0.0096  0.0002 -0.0006
                                            0.0304 -0.2225
    59. (0.00022) RY*( 5) C   3           s(  0.00%)p 1.00( 90.13%)d 0.11(  9.87%)
                                            0.0000 -0.0000  0.0014  0.0008 -0.0001
                                           -0.0000  0.0001  0.0003 -0.0000  0.0000
                                           -0.0008 -0.0013  0.0012 -0.0027 -0.1096
                                           -0.9422  0.0404  0.0001 -0.1526  0.2745
                                            0.0004 -0.0005
    60. (0.00010) RY*( 6) C   3           s( 25.85%)p 1.20( 31.10%)d 1.67( 43.05%)
    61. (0.00005) RY*( 7) C   3           s(  1.65%)p27.02( 44.52%)d32.67( 53.83%)
    62. (0.00003) RY*( 8) C   3           s( 30.16%)p 2.13( 64.18%)d 0.19(  5.66%)
    63. (0.00002) RY*( 9) C   3           s(  0.00%)p 1.00( 21.04%)d 3.75( 78.96%)
    64. (0.00000) RY*(10) C   3           s(  2.22%)p32.21( 71.36%)d11.93( 26.43%)
    65. (0.00000) RY*(11) C   3           s( 99.00%)p 0.01(  0.88%)d 0.00(  0.12%)
    66. (0.00000) RY*(12) C   3           s(  0.00%)p 1.00( 88.87%)d 0.13( 11.13%)
    67. (0.00000) RY*(13) C   3           s( 46.97%)p 1.00( 46.96%)d 0.13(  6.07%)
    68. (0.00000) RY*(14) C   3           s( 22.94%)p 2.96( 67.99%)d 0.40(  9.07%)
    69. (0.00000) RY*(15) C   3           s(  0.00%)p 1.00( 42.48%)d 1.35( 57.52%)
    70. (0.00000) RY*(16) C   3           s( 17.07%)p 1.63( 27.80%)d 3.23( 55.12%)
    71. (0.00000) RY*(17) C   3           s(  0.73%)p20.44( 15.02%)d99.99( 84.24%)
    72. (0.01266) RY*( 1) C   4           s( 11.74%)p 7.23( 84.87%)d 0.29(  3.40%)
                                            0.0000  0.0463  0.3329  0.0595 -0.0296
                                            0.0829  0.8469 -0.0174  0.0701  0.0081
                                            0.3385 -0.0617  0.0301  0.0000  0.0001
                                           -0.0000  0.0000 -0.0940 -0.0001 -0.0000
                                            0.1580  0.0131
    73. (0.00790) RY*( 2) C   4           s( 29.32%)p 0.61( 18.02%)d 1.80( 52.67%)
                                           -0.0000  0.0152  0.5369 -0.0676 -0.0083
                                           -0.0064 -0.1649 -0.2075  0.0336  0.0667
                                            0.2906  0.1388  0.0246 -0.0000 -0.0001
                                           -0.0001  0.0000  0.4249  0.0003  0.0000
                                           -0.5879  0.0227
    74. (0.00594) RY*( 3) C   4           s(  0.00%)p 1.00(  4.71%)d20.23( 95.29%)
                                           -0.0000  0.0000 -0.0002  0.0002 -0.0000
                                            0.0000  0.0001 -0.0000 -0.0001 -0.0000
                                            0.0001 -0.0000  0.0000 -0.0529 -0.1356
                                           -0.1469  0.0658 -0.0002  0.9737  0.0696
                                            0.0003  0.0002
    75. (0.00304) RY*( 4) C   4           s( 16.88%)p 4.15( 70.04%)d 0.78( 13.09%)
                                            0.0000 -0.0078  0.4029  0.0794  0.0065
                                            0.0436  0.1593  0.1861  0.0773  0.0475
                                           -0.7566  0.2070  0.1224 -0.0000  0.0001
                                           -0.0000  0.0000 -0.2596  0.0001  0.0000
                                           -0.2483  0.0428
    76. (0.00047) RY*( 5) C   4           s( 36.36%)p 0.96( 34.97%)d 0.79( 28.67%)
                                            0.0000  0.0085  0.5781  0.1636  0.0509
                                            0.0075 -0.4520  0.2462 -0.0615  0.0253
                                            0.2523 -0.1291  0.0028  0.0000 -0.0008
                                            0.0001  0.0001 -0.3571 -0.0002 -0.0001
                                            0.3876  0.0944
    77. (0.00038) RY*( 6) C   4           s(  0.00%)p 1.00( 97.90%)d 0.02(  2.10%)
                                           -0.0000  0.0000  0.0005  0.0002  0.0004
                                           -0.0000 -0.0005  0.0002  0.0004  0.0000
                                            0.0001 -0.0003 -0.0006 -0.0399  0.9421
                                           -0.0637 -0.2928  0.0003  0.1415 -0.0316
                                            0.0005  0.0004
    78. (0.00018) RY*( 7) C   4           s(  8.26%)p 7.27( 60.11%)d 3.83( 31.63%)
                                           -0.0000  0.0047  0.1241 -0.0778  0.2473
                                           -0.0131  0.0289  0.1165  0.3915  0.0051
                                           -0.2198 -0.2242 -0.5785  0.0000 -0.0009
                                           -0.0002  0.0007  0.4187 -0.0001 -0.0001
                                            0.2214  0.3032
    79. (0.00008) RY*( 8) C   4           s( 17.74%)p 2.91( 51.59%)d 1.73( 30.67%)
    80. (0.00004) RY*( 9) C   4           s(  5.64%)p10.23( 57.71%)d 6.50( 36.65%)
    81. (0.00001) RY*(10) C   4           s(  0.00%)p 1.00(  0.81%)d99.99( 99.19%)
    82. (0.00000) RY*(11) C   4           s(  0.00%)p 1.00( 97.20%)d 0.03(  2.80%)
    83. (0.00000) RY*(12) C   4           s(  0.00%)p 1.00( 99.85%)d 0.00(  0.15%)
    84. (0.00000) RY*(13) C   4           s( 93.38%)p 0.03(  3.20%)d 0.04(  3.42%)
    85. (0.00000) RY*(14) C   4           s(  1.38%)p64.94( 89.50%)d 6.62(  9.12%)
    86. (0.00000) RY*(15) C   4           s( 75.52%)p 0.13( 10.06%)d 0.19( 14.42%)
    87. (0.00000) RY*(16) C   4           s(  1.28%)p71.60( 91.78%)d 5.42(  6.94%)
    88. (0.00001) RY*(17) C   4           s(  2.01%)p14.46( 29.03%)d34.36( 68.96%)
    89. (0.00298) RY*( 1) O   5           s( 10.45%)p 8.45( 88.27%)d 0.12(  1.28%)
                                           -0.0000  0.0027  0.2991  0.1226  0.0012
                                           -0.0189  0.4346 -0.1053 -0.0100  0.0035
                                           -0.8175 -0.1118 -0.0385 -0.0000 -0.0000
                                            0.0000 -0.0000 -0.0434  0.0000  0.0000
                                            0.1043 -0.0001
    90. (0.00102) RY*( 2) O   5           s(  0.00%)p 1.00( 98.26%)d 0.02(  1.74%)
                                           -0.0000  0.0000  0.0018 -0.0000 -0.0000
                                           -0.0001 -0.0004  0.0001  0.0001 -0.0001
                                            0.0003  0.0005  0.0001  0.0090  0.9614
                                           -0.2295  0.0749 -0.0001  0.1281 -0.0315
                                           -0.0001  0.0000
    91. (0.00081) RY*( 3) O   5           s( 83.69%)p 0.19( 15.50%)d 0.01(  0.81%)
                                           -0.0000  0.0106  0.9119  0.0719 -0.0067
                                           -0.0403 -0.0706  0.0823  0.0789 -0.0274
                                            0.2548  0.2477  0.0913 -0.0000 -0.0019
                                            0.0004 -0.0001 -0.0709 -0.0002  0.0000
                                           -0.0544  0.0116
    92. (0.00013) RY*( 4) O   5           s(  7.15%)p12.74( 91.11%)d 0.24(  1.74%)
                                            0.0000 -0.0104 -0.0362  0.2645  0.0116
                                            0.0225  0.7882 -0.1328 -0.1289  0.0108
                                            0.4932 -0.0769 -0.0762  0.0000  0.0003
                                           -0.0002  0.0000  0.0032  0.0001 -0.0000
                                            0.1225 -0.0491
    93. (0.00005) RY*( 5) O   5           s( 25.55%)p 1.35( 34.47%)d 1.56( 39.98%)
    94. (0.00002) RY*( 6) O   5           s(  6.69%)p10.76( 72.04%)d 3.18( 21.26%)
    95. (0.00002) RY*( 7) O   5           s(  8.35%)p10.83( 90.38%)d 0.15(  1.27%)
    96. (0.00000) RY*( 8) O   5           s( 11.42%)p 6.62( 75.60%)d 1.14( 12.98%)
    97. (0.00000) RY*( 9) O   5           s(  2.36%)p40.27( 95.10%)d 1.08(  2.54%)
    98. (0.00000) RY*(10) O   5           s( 99.53%)p 0.00(  0.46%)d 0.00(  0.01%)
    99. (0.00000) RY*(11) O   5           s(  0.00%)p 1.00(100.00%)
   100. (0.00000) RY*(12) O   5           s(  0.00%)p 1.00(100.00%)
   101. (0.00000) RY*(13) O   5           s( 39.32%)p 0.55( 21.65%)d 0.99( 39.04%)
   102. (0.00000) RY*(14) O   5           s(  0.00%)p 1.00(  1.74%)d56.63( 98.26%)
   103. (0.00000) RY*(15) O   5           s(  0.00%)p 1.00(  0.12%)d99.99( 99.88%)
   104. (0.00000) RY*(16) O   5           s(  3.46%)p 1.90(  6.58%)d25.98( 89.96%)
   105. (0.00001) RY*(17) O   5           s(  1.79%)p 5.19(  9.27%)d49.76( 88.94%)
   106. (0.00122) RY*( 1) H   6           s( 99.09%)p 0.01(  0.91%)
                                           -0.0018  0.9954  0.0022 -0.0016 -0.0377
                                            0.0791  0.0383
   107. (0.00015) RY*( 2) H   6           s( 52.96%)p 0.89( 47.04%)
                                            0.0041 -0.0158  0.7071  0.1713  0.4290
                                            0.1365  0.5175
   108. (0.00015) RY*( 3) H   6           s(  7.42%)p12.47( 92.58%)
                                           -0.0033  0.0768 -0.1345  0.2241  0.2400
                                           -0.9187  0.1554
   109. (0.00009) RY*( 4) H   6           s( 78.97%)p 0.27( 21.03%)
   110. (0.00007) RY*( 5) H   6           s( 45.63%)p 1.19( 54.37%)
   111. (0.00004) RY*( 6) H   6           s( 15.98%)p 5.26( 84.02%)
   112. (0.00104) RY*( 1) H   7           s( 97.38%)p 0.03(  2.62%)
                                           -0.0015  0.9867  0.0083  0.0055 -0.1616
                                           -0.0112  0.0001
   113. (0.00019) RY*( 2) H   7           s( 75.95%)p 0.32( 24.05%)
                                            0.0006 -0.0885  0.8448  0.1949 -0.4851
                                           -0.0718  0.0043
   114. (0.00017) RY*( 3) H   7           s(  0.00%)p 1.00(100.00%)
                                           -0.0000 -0.0002  0.0040  0.0005 -0.0015
                                           -0.0009 -1.0000
   115. (0.00013) RY*( 4) H   7           s( 81.79%)p 0.22( 18.21%)
                                           -0.0025 -0.0669 -0.4173  0.7996 -0.4106
                                            0.1162 -0.0008
   116. (0.00007) RY*( 5) H   7           s( 39.11%)p 1.56( 60.89%)
   117. (0.00003) RY*( 6) H   7           s(  5.82%)p16.20( 94.18%)
   118. (0.00122) RY*( 1) H   8           s( 99.08%)p 0.01(  0.92%)
                                           -0.0018  0.9954  0.0022 -0.0016 -0.0375
                                            0.0792 -0.0386
   119. (0.00015) RY*( 2) H   8           s( 52.91%)p 0.89( 47.09%)
                                            0.0041 -0.0161  0.7068  0.1708  0.4293
                                            0.1362 -0.5178
   120. (0.00015) RY*( 3) H   8           s(  7.41%)p12.49( 92.59%)
                                           -0.0033  0.0769 -0.1339  0.2242  0.2401
                                           -0.9190 -0.1540
   121. (0.00009) RY*( 4) H   8           s( 79.03%)p 0.27( 20.97%)
   122. (0.00007) RY*( 5) H   8           s( 45.63%)p 1.19( 54.37%)
   123. (0.00004) RY*( 6) H   8           s( 15.98%)p 5.26( 84.02%)
   124. (0.00096) RY*( 1) H   9           s( 99.78%)p 0.00(  0.22%)
                                           -0.0022  0.9989  0.0033 -0.0004  0.0043
                                           -0.0441 -0.0140
   125. (0.00017) RY*( 2) H   9           s( 32.59%)p 2.07( 67.41%)
                                            0.0019 -0.0325  0.5699 -0.0008  0.4028
                                           -0.4859 -0.5251
   126. (0.00013) RY*( 3) H   9           s( 10.17%)p 8.83( 89.83%)
                                            0.0021 -0.0152  0.3034 -0.0969 -0.8415
                                           -0.4284  0.0814
   127. (0.00008) RY*( 4) H   9           s( 76.06%)p 0.31( 23.94%)
   128. (0.00007) RY*( 5) H   9           s( 59.13%)p 0.69( 40.87%)
   129. (0.00003) RY*( 6) H   9           s( 22.30%)p 3.48( 77.70%)
   130. (0.00096) RY*( 1) H  10           s( 99.78%)p 0.00(  0.22%)
                                           -0.0022  0.9989  0.0033 -0.0004  0.0043
                                           -0.0440  0.0139
   131. (0.00017) RY*( 2) H  10           s( 32.60%)p 2.07( 67.40%)
                                            0.0019 -0.0324  0.5700 -0.0008  0.4025
                                           -0.4861  0.5251
   132. (0.00013) RY*( 3) H  10           s( 10.19%)p 8.82( 89.81%)
                                            0.0021 -0.0151  0.3035 -0.0976 -0.8415
                                           -0.4282 -0.0820
   133. (0.00008) RY*( 4) H  10           s( 76.12%)p 0.31( 23.88%)
   134. (0.00007) RY*( 5) H  10           s( 59.07%)p 0.69( 40.93%)
   135. (0.00003) RY*( 6) H  10           s( 22.27%)p 3.49( 77.73%)
   136. (0.00127) RY*( 1) H  11           s( 97.71%)p 0.02(  2.29%)
                                           -0.0033  0.9884 -0.0068 -0.0076 -0.0987
                                            0.1145 -0.0001
   137. (0.00019) RY*( 2) H  11           s( 53.91%)p 0.85( 46.09%)
                                            0.0035  0.1099  0.5725  0.4464  0.3529
                                           -0.5799 -0.0004
   138. (0.00013) RY*( 3) H  11           s(  0.00%)p 1.00(100.00%)
                                           -0.0000  0.0001  0.0005  0.0001 -0.0003
                                           -0.0002  1.0000
   139. (0.00012) RY*( 4) H  11           s( 94.84%)p 0.05(  5.16%)
                                            0.0022 -0.0193  0.7075 -0.6690  0.0629
                                            0.2182 -0.0002
   140. (0.00003) RY*( 5) H  11           s( 45.27%)p 1.21( 54.73%)
   141. (0.00004) RY*( 6) H  11           s(  8.30%)p11.05( 91.70%)
   142. (0.00235) RY*( 1) H  12           s( 95.80%)p 0.04(  4.20%)
                                           -0.0048  0.9787  0.0052 -0.0018  0.1146
                                           -0.1699  0.0000
   143. (0.00031) RY*( 2) H  12           s( 99.47%)p 0.01(  0.53%)
                                            0.0010 -0.0165  0.9972 -0.0073 -0.0107
                                           -0.0718 -0.0004
   144. (0.00011) RY*( 3) H  12           s( 51.91%)p 0.93( 48.09%)
                                           -0.0126  0.0456  0.0499  0.7172  0.4281
                                            0.5456 -0.0003
   145. (0.00006) RY*( 4) H  12           s( 13.78%)p 6.26( 86.22%)
   146. (0.00007) RY*( 5) H  12           s(  0.00%)p 1.00(100.00%)
   147. (0.00006) RY*( 6) H  12           s( 39.10%)p 1.56( 60.90%)
   148. (0.01708) BD*( 1) C   1 - N   2  
                ( 62.87%)   0.7929* C   1 s( 24.51%)p 3.07( 75.35%)d 0.01(  0.13%)
                                           -0.0001 -0.4942 -0.0307 -0.0000 -0.0004
                                           -0.7426  0.0393  0.0060  0.0035 -0.4472
                                            0.0213  0.0038  0.0021  0.0003 -0.0000
                                            0.0000  0.0000 -0.0271  0.0000  0.0000
                                           -0.0154  0.0193
                ( 37.13%)  -0.6094* N   2 s( 32.39%)p 2.09( 67.57%)d 0.00(  0.03%)
                                            0.0001 -0.5691 -0.0074  0.0017  0.0000
                                            0.7007 -0.0077 -0.0094 -0.0009  0.4296
                                           -0.0027 -0.0066 -0.0006 -0.0002 -0.0000
                                            0.0000  0.0000 -0.0133  0.0000  0.0000
                                           -0.0053  0.0109
   149. (0.01696) BD*( 1) C   1 - H   6  
                ( 40.19%)   0.6340* C   1 s( 25.25%)p 2.96( 74.69%)d 0.00(  0.06%)
                                            0.0000 -0.5025  0.0074 -0.0011 -0.0000
                                            0.4544 -0.0030 -0.0031  0.0000 -0.2021
                                           -0.0138 -0.0020  0.0000 -0.7066 -0.0085
                                           -0.0032 -0.0016  0.0062  0.0183 -0.0078
                                           -0.0030 -0.0127
                ( 59.81%)  -0.7734* H   6 s( 99.96%)p 0.00(  0.04%)
                                           -0.9998 -0.0031 -0.0004  0.0001 -0.0103
                                            0.0034  0.0160
   150. (0.00688) BD*( 1) C   1 - H   7  
                ( 39.87%)   0.6315* C   1 s( 25.07%)p 2.99( 74.87%)d 0.00(  0.06%)
                                           -0.0001  0.5007 -0.0035 -0.0024 -0.0004
                                            0.1779  0.0165 -0.0007 -0.0010 -0.8466
                                           -0.0083 -0.0010 -0.0005  0.0007  0.0000
                                            0.0000  0.0000 -0.0112  0.0000 -0.0000
                                           -0.0184 -0.0117
                ( 60.13%)  -0.7754* H   7 s( 99.96%)p 0.00(  0.04%)
                                            0.9998  0.0014  0.0003 -0.0004 -0.0017
                                            0.0205 -0.0000
   151. (0.01697) BD*( 1) C   1 - H   8  
                ( 40.19%)   0.6340* C   1 s( 25.25%)p 2.96( 74.69%)d 0.00(  0.06%)
                                            0.0000 -0.5025  0.0074 -0.0011 -0.0000
                                            0.4543 -0.0030 -0.0031  0.0000 -0.2010
                                           -0.0137 -0.0020  0.0000  0.7070  0.0085
                                            0.0032  0.0016  0.0062 -0.0183  0.0077
                                           -0.0030 -0.0128
                ( 59.81%)  -0.7734* H   8 s( 99.96%)p 0.00(  0.04%)
                                           -0.9998 -0.0031 -0.0004  0.0001 -0.0103
                                            0.0034 -0.0160
   152. (0.02201) BD*( 1) N   2 - C   3  
                ( 36.68%)   0.6057* N   2 s( 31.90%)p 2.13( 68.07%)d 0.00(  0.03%)
                                            0.0001 -0.5648 -0.0033  0.0018  0.0000
                                            0.0463 -0.0018 -0.0000  0.0007 -0.8236
                                            0.0098  0.0113  0.0006 -0.0001 -0.0000
                                            0.0000  0.0000  0.0014  0.0000 -0.0000
                                            0.0129  0.0109
                ( 63.32%)  -0.7957* C   3 s( 23.76%)p 3.20( 76.10%)d 0.01(  0.14%)
                                           -0.0001 -0.4865 -0.0300  0.0002 -0.0003
                                           -0.0371  0.0046 -0.0009 -0.0000  0.8703
                                           -0.0457 -0.0069 -0.0016  0.0002 -0.0000
                                            0.0000  0.0000  0.0022  0.0000 -0.0000
                                            0.0316  0.0191
   153. (0.07804) BD*( 1) N   2 - C   4  
                ( 36.06%)   0.6005* N   2 s( 35.68%)p 1.80( 64.28%)d 0.00(  0.05%)
                                            0.0000 -0.5973  0.0027 -0.0031 -0.0001
                                           -0.7114  0.0116  0.0071 -0.0012  0.3694
                                           -0.0105 -0.0021  0.0010 -0.0002 -0.0000
                                            0.0000  0.0000  0.0145 -0.0000  0.0000
                                           -0.0109  0.0110
                ( 63.94%)  -0.7997* C   4 s( 33.16%)p 2.01( 66.72%)d 0.00(  0.12%)
                                           -0.0001 -0.5755  0.0149 -0.0148 -0.0006
                                            0.6964 -0.0373 -0.0053  0.0032 -0.4249
                                            0.0135  0.0009 -0.0047  0.0001 -0.0000
                                            0.0000  0.0000  0.0266 -0.0000  0.0000
                                           -0.0164  0.0148
   154. (0.01312) BD*( 1) C   3 - H   9  
                ( 40.37%)   0.6354* C   3 s( 25.18%)p 2.97( 74.76%)d 0.00(  0.06%)
                                            0.0001 -0.5018  0.0065 -0.0009 -0.0001
                                            0.4235  0.0102  0.0000 -0.0002 -0.2614
                                            0.0124  0.0027 -0.0009  0.7068  0.0081
                                            0.0027  0.0007  0.0055 -0.0175  0.0096
                                           -0.0048 -0.0127
                ( 59.63%)  -0.7722* H   9 s( 99.96%)p 0.00(  0.04%)
                                           -0.9998 -0.0021 -0.0004  0.0003 -0.0077
                                            0.0068 -0.0160
   155. (0.01312) BD*( 1) C   3 - H  10  
                ( 40.37%)   0.6354* C   3 s( 25.18%)p 2.97( 74.76%)d 0.00(  0.06%)
                                            0.0001 -0.5018  0.0066 -0.0009 -0.0001
                                            0.4239  0.0102  0.0000 -0.0002 -0.2610
                                            0.0124  0.0027 -0.0009 -0.7067 -0.0081
                                           -0.0027 -0.0007  0.0055  0.0176 -0.0095
                                           -0.0048 -0.0127
                ( 59.63%)  -0.7722* H  10 s( 99.96%)p 0.00(  0.04%)
                                           -0.9998 -0.0021 -0.0004  0.0003 -0.0077
                                            0.0068  0.0160
   156. (0.00798) BD*( 1) C   3 - H  11  
                ( 38.19%)   0.6180* C   3 s( 25.96%)p 2.85( 73.98%)d 0.00(  0.06%)
                                            0.0000 -0.5095  0.0038  0.0016  0.0004
                                           -0.7990 -0.0170 -0.0011  0.0004 -0.3180
                                            0.0040 -0.0024 -0.0019 -0.0003 -0.0000
                                           -0.0000 -0.0000 -0.0130 -0.0000 -0.0000
                                           -0.0181  0.0110
                ( 61.81%)  -0.7862* H  11 s( 99.96%)p 0.00(  0.04%)
                                           -0.9998 -0.0020 -0.0001  0.0004  0.0196
                                            0.0056  0.0000
   157. (0.28822) BD*( 1) C   4 - O   5  
                ( 70.76%)   0.8412* C   4 s(  0.00%)p 1.00( 99.53%)d 0.00(  0.47%)
                                            0.0000  0.0004 -0.0000  0.0000 -0.0000
                                            0.0004 -0.0001 -0.0000  0.0000  0.0004
                                           -0.0000 -0.0000 -0.0000  0.9968  0.0352
                                            0.0211 -0.0021  0.0000  0.0600  0.0337
                                            0.0000 -0.0000
                ( 29.24%)  -0.5408* O   5 s(  0.00%)p 1.00( 99.89%)d 0.00(  0.11%)
                                            0.0000  0.0005 -0.0000  0.0000  0.0000
                                           -0.0006  0.0000 -0.0000 -0.0000 -0.0002
                                            0.0000 -0.0000 -0.0000  0.9994 -0.0051
                                            0.0015 -0.0037  0.0000 -0.0304 -0.0146
                                            0.0000 -0.0000
   158. (0.00568) BD*( 2) C   4 - O   5  
                ( 64.30%)   0.8019* C   4 s( 34.87%)p 1.86( 64.96%)d 0.00(  0.17%)
                                           -0.0001  0.5861 -0.0719 -0.0045 -0.0022
                                            0.7102 -0.0711 -0.0016  0.0028  0.3741
                                           -0.0149 -0.0072  0.0007 -0.0007 -0.0000
                                           -0.0000  0.0000  0.0307 -0.0000 -0.0000
                                            0.0177 -0.0208
                ( 35.70%)  -0.5975* O   5 s( 39.94%)p 1.50( 59.95%)d 0.00(  0.11%)
                                            0.0000  0.6303 -0.0462  0.0017 -0.0000
                                           -0.6911  0.0186  0.0004 -0.0010 -0.3485
                                            0.0113 -0.0028 -0.0009 -0.0008  0.0000
                                           -0.0000  0.0000  0.0229  0.0000  0.0000
                                            0.0185 -0.0155
   159. (0.06750) BD*( 1) C   4 - H  12  
                ( 43.06%)   0.6562* C   4 s( 32.46%)p 2.08( 67.46%)d 0.00(  0.08%)
                                           -0.0004  0.5674  0.0517 -0.0068  0.0006
                                           -0.0339 -0.0226  0.0004  0.0028 -0.8196
                                           -0.0250  0.0234  0.0021  0.0001 -0.0000
                                           -0.0000 -0.0000  0.0076 -0.0000 -0.0000
                                           -0.0252 -0.0103
                ( 56.94%)  -0.7546* H  12 s( 99.94%)p 0.00(  0.06%)
                                            0.9996  0.0095  0.0009 -0.0003 -0.0026
                                            0.0246 -0.0000


 NHO Directionality and "Bond Bending" (deviations from line of nuclear centers)

         [Thresholds for printing:  angular deviation  >  1.0 degree]
                                    hybrid p-character > 25.0%
                                    orbital occupancy  >  0.10e

                                Line of Centers        Hybrid 1              Hybrid 2
                                ---------------  -------------------   ------------------
                NBO               Theta   Phi    Theta   Phi    Dev    Theta   Phi    Dev
 ========================================================================================
     2. BD (   1) C   1 - H   6    35.9  158.5    34.7  154.1   2.8      --     --    --
     3. BD (   1) C   1 - H   7    90.0  281.2    90.0  282.7   1.5      --     --    --
     4. BD (   1) C   1 - H   8   144.2  158.6   145.3  154.2   2.8      --     --    --
     6. BD (   1) N   2 - C   4    90.0  332.6     --     --    --      90.0  147.7   4.9
     7. BD (   1) C   3 - H   9   144.3  146.1   145.2  150.3   2.6      --     --    --
     8. BD (   1) C   3 - H  10    35.7  146.1    34.8  150.4   2.6      --     --    --
    10. BD (   1) C   4 - O   5    90.0   26.8     0.0    0.0  90.0      0.0    0.0  90.0
    11. BD (   2) C   4 - O   5    90.0   26.8    90.1   28.8   2.1      --     --    --
    12. BD (   1) C   4 - H  12    90.0  264.6    90.0  266.3   1.7      --     --    --
    18. LP (   1) N   2             --     --    180.0    0.0   --       --     --    --
    19. LP (   1) O   5             --     --     90.0   25.3   --       --     --    --
    20. LP (   2) O   5             --     --     90.0  115.9   --       --     --    --
   157. BD*(   1) C   4 - O   5    90.0   26.8     0.0    0.0  90.0      0.0    0.0  90.0


 Second Order Perturbation Theory Analysis of Fock Matrix in NBO Basis

     Threshold for printing:   0.50 kcal/mol
                                                                              E(2)  E(j)-E(i) F(i,j)
         Donor NBO (i)                     Acceptor NBO (j)                 kcal/mol   a.u.    a.u. 
 ===================================================================================================

 within unit  1
   1. BD (   1) C   1 - N   2        / 55. RY*(   1) C   3                    1.01    1.54    0.035
   1. BD (   1) C   1 - N   2        / 75. RY*(   4) C   4                    1.63    1.80    0.048
   1. BD (   1) C   1 - N   2        /152. BD*(   1) N   2 - C   3            0.68    1.09    0.024
   1. BD (   1) C   1 - N   2        /153. BD*(   1) N   2 - C   4            0.78    1.23    0.028
   1. BD (   1) C   1 - N   2        /156. BD*(   1) C   3 - H  11            0.67    1.17    0.025
   1. BD (   1) C   1 - N   2        /158. BD*(   2) C   4 - O   5            2.33    1.37    0.050
   2. BD (   1) C   1 - H   6        / 38. RY*(   1) N   2                    0.71    1.18    0.026
   2. BD (   1) C   1 - H   6        /153. BD*(   1) N   2 - C   4            1.85    1.00    0.039
   3. BD (   1) C   1 - H   7        /152. BD*(   1) N   2 - C   3            4.25    0.88    0.055
   4. BD (   1) C   1 - H   8        / 38. RY*(   1) N   2                    0.71    1.18    0.026
   4. BD (   1) C   1 - H   8        /153. BD*(   1) N   2 - C   4            1.85    1.00    0.039
   5. BD (   1) N   2 - C   3        / 21. RY*(   1) C   1                    0.95    1.56    0.034
   5. BD (   1) N   2 - C   3        / 72. RY*(   1) C   4                    1.60    1.92    0.050
   5. BD (   1) N   2 - C   3        / 75. RY*(   4) C   4                    0.56    1.79    0.028
   5. BD (   1) N   2 - C   3        /148. BD*(   1) C   1 - N   2            0.59    1.08    0.023
   5. BD (   1) N   2 - C   3        /150. BD*(   1) C   1 - H   7            0.84    1.13    0.028
   5. BD (   1) N   2 - C   3        /153. BD*(   1) N   2 - C   4            1.01    1.21    0.032
   5. BD (   1) N   2 - C   3        /159. BD*(   1) C   4 - H  12            1.45    1.10    0.036
   6. BD (   1) N   2 - C   4        / 21. RY*(   1) C   1                    0.86    1.64    0.034
   6. BD (   1) N   2 - C   4        / 55. RY*(   1) C   3                    0.69    1.62    0.030
   6. BD (   1) N   2 - C   4        / 89. RY*(   1) O   5                    0.80    1.48    0.031
   6. BD (   1) N   2 - C   4        /148. BD*(   1) C   1 - N   2            1.11    1.17    0.032
   6. BD (   1) N   2 - C   4        /152. BD*(   1) N   2 - C   3            1.01    1.17    0.031
   6. BD (   1) N   2 - C   4        /158. BD*(   2) C   4 - O   5            0.95    1.44    0.033
   7. BD (   1) C   3 - H   9        / 38. RY*(   1) N   2                    0.66    1.17    0.025
   7. BD (   1) C   3 - H   9        /153. BD*(   1) N   2 - C   4            1.76    0.99    0.038
   8. BD (   1) C   3 - H  10        / 38. RY*(   1) N   2                    0.66    1.17    0.025
   8. BD (   1) C   3 - H  10        /153. BD*(   1) N   2 - C   4            1.76    0.99    0.038
   9. BD (   1) C   3 - H  11        /148. BD*(   1) C   1 - N   2            4.44    0.86    0.055
  10. BD (   1) C   4 - O   5        /157. BD*(   1) C   4 - O   5            1.21    0.38    0.021
  11. BD (   2) C   4 - O   5        / 72. RY*(   1) C   4                    1.06    2.23    0.044
  11. BD (   2) C   4 - O   5        /148. BD*(   1) C   1 - N   2            2.05    1.39    0.048
  11. BD (   2) C   4 - O   5        /153. BD*(   1) N   2 - C   4            1.11    1.52    0.037
  12. BD (   1) C   4 - H  12        / 39. RY*(   2) N   2                    0.89    1.80    0.036
  12. BD (   1) C   4 - H  12        / 89. RY*(   1) O   5                    0.95    1.19    0.030
  12. BD (   1) C   4 - H  12        /152. BD*(   1) N   2 - C   3            6.17    0.88    0.066
  13. CR (   1) C   1                / 39. RY*(   2) N   2                    0.63   11.34    0.075
  13. CR (   1) C   1                /112. RY*(   1) H   7                    0.55   10.82    0.069
  13. CR (   1) C   1                /152. BD*(   1) N   2 - C   3            0.83   10.42    0.084
  13. CR (   1) C   1                /153. BD*(   1) N   2 - C   4            0.82   10.55    0.085
  14. CR (   1) N   2                / 23. RY*(   3) C   1                    1.49   15.05    0.134
  14. CR (   1) N   2                / 57. RY*(   3) C   3                    1.44   14.98    0.131
  14. CR (   1) N   2                / 72. RY*(   1) C   4                    0.71   15.37    0.093
  14. CR (   1) N   2                / 73. RY*(   2) C   4                    0.70   15.81    0.094
  14. CR (   1) N   2                / 76. RY*(   5) C   4                    1.09   15.80    0.117
  15. CR (   1) C   3                / 41. RY*(   4) N   2                    0.54   11.58    0.070
  15. CR (   1) C   3                /136. RY*(   1) H  11                    0.71   10.93    0.079
  15. CR (   1) C   3                /148. BD*(   1) C   1 - N   2            0.87   10.41    0.085
  15. CR (   1) C   3                /153. BD*(   1) N   2 - C   4            0.76   10.54    0.081
  16. CR (   1) C   4                /148. BD*(   1) C   1 - N   2            1.26   10.48    0.103
  16. CR (   1) C   4                /152. BD*(   1) N   2 - C   3            1.30   10.48    0.105
  17. CR (   1) O   5                / 72. RY*(   1) C   4                    5.63   20.02    0.301
  18. LP (   1) N   2                / 22. RY*(   2) C   1                    1.04    1.94    0.044
  18. LP (   1) N   2                / 56. RY*(   2) C   3                    1.58    1.20    0.043
  18. LP (   1) N   2                / 74. RY*(   3) C   4                    1.63    1.86    0.054
  18. LP (   1) N   2                / 77. RY*(   6) C   4                    2.24    0.80    0.041
  18. LP (   1) N   2                /149. BD*(   1) C   1 - H   6            5.57    0.63    0.058
  18. LP (   1) N   2                /151. BD*(   1) C   1 - H   8            5.58    0.63    0.058
  18. LP (   1) N   2                /154. BD*(   1) C   3 - H   9            5.25    0.64    0.057
  18. LP (   1) N   2                /155. BD*(   1) C   3 - H  10            5.24    0.64    0.057
  18. LP (   1) N   2                /157. BD*(   1) C   4 - O   5           64.47    0.27    0.119
  19. LP (   1) O   5                / 72. RY*(   1) C   4                   14.03    1.86    0.144
  19. LP (   1) O   5                / 73. RY*(   2) C   4                    0.55    2.30    0.032
  19. LP (   1) O   5                / 80. RY*(   9) C   4                    0.76    4.25    0.051
  19. LP (   1) O   5                / 87. RY*(  16) C   4                    1.56    2.64    0.058
  19. LP (   1) O   5                / 91. RY*(   3) O   5                    0.60    1.37    0.026
  19. LP (   1) O   5                /153. BD*(   1) N   2 - C   4            0.90    1.15    0.029
  19. LP (   1) O   5                /159. BD*(   1) C   4 - H  12            0.99    1.04    0.029
  20. LP (   2) O   5                / 73. RY*(   2) C   4                    3.17    1.86    0.071
  20. LP (   2) O   5                / 76. RY*(   5) C   4                    0.90    1.86    0.038
  20. LP (   2) O   5                /104. RY*(  16) O   5                    0.50    3.30    0.038
  20. LP (   2) O   5                /153. BD*(   1) N   2 - C   4           23.73    0.72    0.119
  20. LP (   2) O   5                /156. BD*(   1) C   3 - H  11            0.52    0.66    0.017
  20. LP (   2) O   5                /159. BD*(   1) C   4 - H  12           21.64    0.61    0.104
 157. BD*(   1) C   4 - O   5        / 74. RY*(   3) C   4                    2.53    1.59    0.148
 157. BD*(   1) C   4 - O   5        / 77. RY*(   6) C   4                    1.20    0.53    0.059
 157. BD*(   1) C   4 - O   5        / 90. RY*(   2) O   5                    1.76    0.75    0.085


 Natural Bond Orbitals (Summary):

                                                            Principal Delocalizations
           NBO                        Occupancy    Energy   (geminal,vicinal,remote)
 ====================================================================================
 Molecular unit  1  (C3H7NO)
     1. BD (   1) C   1 - N   2          1.99016    -0.75784  158(v),75(v),55(v),153(g)
                                                    152(g),156(v)
     2. BD (   1) C   1 - H   6          1.99031    -0.53515  153(v),38(v)
     3. BD (   1) C   1 - H   7          1.98895    -0.54086  152(v)
     4. BD (   1) C   1 - H   8          1.99032    -0.53514  153(v),38(v)
     5. BD (   1) N   2 - C   3          1.98851    -0.74578  72(v),159(v),153(g),21(v)
                                                    150(v),148(g),75(v)
     6. BD (   1) N   2 - C   4          1.98982    -0.83047  148(g),152(g),158(g),21(v)
                                                    89(v),55(v)
     7. BD (   1) C   3 - H   9          1.98921    -0.52581  153(v),38(v)
     8. BD (   1) C   3 - H  10          1.98921    -0.52582  153(v),38(v)
     9. BD (   1) C   3 - H  11          1.98919    -0.52214  148(v)
    10. BD (   1) C   4 - O   5          1.99775    -0.36788  157(g)
    11. BD (   2) C   4 - O   5          1.99530    -1.05401  148(v),153(g),72(g)
    12. BD (   1) C   4 - H  12          1.98118    -0.54456  152(v),89(v),39(v)
    13. CR (   1) C   1                  1.99931   -10.08562  153(v),152(v),39(v),112(v)
    14. CR (   1) N   2                  1.99936   -14.19585  23(v),57(v),76(v),72(v)
                                                    73(v)
    15. CR (   1) C   3                  1.99930   -10.07183  148(v),153(v),136(v),41(v)
    16. CR (   1) C   4                  1.99942   -10.14662  152(v),148(v)
    17. CR (   1) O   5                  1.99976   -18.83765  72(v)
    18. LP (   1) N   2                  1.66581    -0.25854  157(v),151(v),149(v),154(v)
                                                    155(v),77(v),74(v),56(v)
                                                    22(v)
    19. LP (   1) O   5                  1.98437    -0.68598  72(v),87(v),159(v),153(v)
                                                    80(v),91(g),73(v)
    20. LP (   2) O   5                  1.84927    -0.24950  153(v),159(v),73(v),76(v)
                                                    156(r),104(g)
    21. RY*(   1) C   1                  0.00262     0.81334   
    22. RY*(   2) C   1                  0.00089     1.68031   
    23. RY*(   3) C   1                  0.00059     0.85023   
    24. RY*(   4) C   1                  0.00024     1.36070   
    25. RY*(   5) C   1                  0.00017     1.13391   
    26. RY*(   6) C   1                  0.00011     0.77030   
    27. RY*(   7) C   1                  0.00005     2.39867   
    28. RY*(   8) C   1                  0.00002     1.93880   
    29. RY*(   9) C   1                  0.00000     2.73186   
    30. RY*(  10) C   1                  0.00000    22.88317   
    31. RY*(  11) C   1                  0.00000     0.50980   
    32. RY*(  12) C   1                  0.00000     2.76968   
    33. RY*(  13) C   1                  0.00000     1.57074   
    34. RY*(  14) C   1                  0.00000     0.45696   
    35. RY*(  15) C   1                  0.00000     0.81719   
    36. RY*(  16) C   1                  0.00001     1.82541   
    37. RY*(  17) C   1                  0.00001     1.87838   
    38. RY*(   1) N   2                  0.00474     0.64128   
    39. RY*(   2) N   2                  0.00230     1.25253   
    40. RY*(   3) N   2                  0.00156     1.51246   
    41. RY*(   4) N   2                  0.00092     1.51023   
    42. RY*(   5) N   2                  0.00025     1.88309   
    43. RY*(   6) N   2                  0.00023     2.18726   
    44. RY*(   7) N   2                  0.00021     2.17903   
    45. RY*(   8) N   2                  0.00019     2.76288   
    46. RY*(   9) N   2                  0.00007     3.55773   
    47. RY*(  10) N   2                  0.00003     1.60605   
    48. RY*(  11) N   2                  0.00004     1.50324   
    49. RY*(  12) N   2                  0.00000     3.80636   
    50. RY*(  13) N   2                  0.00000     1.94587   
    51. RY*(  14) N   2                  0.00000     3.28049   
    52. RY*(  15) N   2                  0.00000    34.45782   
    53. RY*(  16) N   2                  0.00000     0.58986   
    54. RY*(  17) N   2                  0.00001     2.54038   
    55. RY*(   1) C   3                  0.00272     0.78576   
    56. RY*(   2) C   3                  0.00170     0.93791   
    57. RY*(   3) C   3                  0.00115     0.77949   
    58. RY*(   4) C   3                  0.00023     1.57854   
    59. RY*(   5) C   3                  0.00022     0.46685   
    60. RY*(   6) C   3                  0.00010     2.21696   
    61. RY*(   7) C   3                  0.00005     2.03861   
    62. RY*(   8) C   3                  0.00003     1.11785   
    63. RY*(   9) C   3                  0.00002     2.31206   
    64. RY*(  10) C   3                  0.00000     2.53338   
    65. RY*(  11) C   3                  0.00000    22.59851   
    66. RY*(  12) C   3                  0.00000     2.70189   
    67. RY*(  13) C   3                  0.00000     0.83552   
    68. RY*(  14) C   3                  0.00000     1.04586   
    69. RY*(  15) C   3                  0.00000     1.31231   
    70. RY*(  16) C   3                  0.00000     1.57547   
    71. RY*(  17) C   3                  0.00000     1.81123   
    72. RY*(   1) C   4                  0.01266     1.17899   
    73. RY*(   2) C   4                  0.00790     1.61433   
    74. RY*(   3) C   4                  0.00594     1.59833   
    75. RY*(   4) C   4                  0.00304     1.04313   
    76. RY*(   5) C   4                  0.00047     1.60794   
    77. RY*(   6) C   4                  0.00038     0.53795   
    78. RY*(   7) C   4                  0.00018     3.60427   
    79. RY*(   8) C   4                  0.00008     3.61098   
    80. RY*(   9) C   4                  0.00004     3.56542   
    81. RY*(  10) C   4                  0.00001     1.52385   
    82. RY*(  11) C   4                  0.00000     0.35835   
    83. RY*(  12) C   4                  0.00000     2.53851   
    84. RY*(  13) C   4                  0.00000     0.81659   
    85. RY*(  14) C   4                  0.00000     1.24087   
    86. RY*(  15) C   4                  0.00000    16.80105   
    87. RY*(  16) C   4                  0.00000     1.95445   
    88. RY*(  17) C   4                  0.00001     2.41539   
    89. RY*(   1) O   5                  0.00298     0.64983   
    90. RY*(   2) O   5                  0.00102     0.76422   
    91. RY*(   3) O   5                  0.00081     0.68880   
    92. RY*(   4) O   5                  0.00013     1.13317   
    93. RY*(   5) O   5                  0.00005     3.72932   
    94. RY*(   6) O   5                  0.00002     1.50340   
    95. RY*(   7) O   5                  0.00002     1.86887   
    96. RY*(   8) O   5                  0.00000     3.68649   
    97. RY*(   9) O   5                  0.00000     4.84043   
    98. RY*(  10) O   5                  0.00000    49.44974   
    99. RY*(  11) O   5                  0.00000     0.76505   
   100. RY*(  12) O   5                  0.00000     4.90377   
   101. RY*(  13) O   5                  0.00000     2.06683   
   102. RY*(  14) O   5                  0.00000     3.04256   
   103. RY*(  15) O   5                  0.00000     2.91302   
   104. RY*(  16) O   5                  0.00000     3.05202   
   105. RY*(  17) O   5                  0.00001     2.86681   
   106. RY*(   1) H   6                  0.00122     0.47623   
   107. RY*(   2) H   6                  0.00015     2.07613   
   108. RY*(   3) H   6                  0.00015     1.69285   
   109. RY*(   4) H   6                  0.00009     0.77600   
   110. RY*(   5) H   6                  0.00007     1.88751   
   111. RY*(   6) H   6                  0.00004     2.13227   
   112. RY*(   1) H   7                  0.00104     0.73849   
   113. RY*(   2) H   7                  0.00019     0.56779   
   114. RY*(   3) H   7                  0.00017     1.71281   
   115. RY*(   4) H   7                  0.00013     2.12046   
   116. RY*(   5) H   7                  0.00007     1.31292   
   117. RY*(   6) H   7                  0.00003     2.52945   
   118. RY*(   1) H   8                  0.00122     0.47614   
   119. RY*(   2) H   8                  0.00015     2.07534   
   120. RY*(   3) H   8                  0.00015     1.69316   
   121. RY*(   4) H   8                  0.00009     0.77768   
   122. RY*(   5) H   8                  0.00007     1.88717   
   123. RY*(   6) H   8                  0.00004     2.13176   
   124. RY*(   1) H   9                  0.00096     0.47697   
   125. RY*(   2) H   9                  0.00017     1.91780   
   126. RY*(   3) H   9                  0.00013     1.81809   
   127. RY*(   4) H   9                  0.00008     0.83567   
   128. RY*(   5) H   9                  0.00007     1.92520   
   129. RY*(   6) H   9                  0.00003     2.11624   
   130. RY*(   1) H  10                  0.00096     0.47702   
   131. RY*(   2) H  10                  0.00017     1.91782   
   132. RY*(   3) H  10                  0.00013     1.81770   
   133. RY*(   4) H  10                  0.00008     0.83504   
   134. RY*(   5) H  10                  0.00007     1.92499   
   135. RY*(   6) H  10                  0.00003     2.11728   
   136. RY*(   1) H  11                  0.00127     0.85367   
   137. RY*(   2) H  11                  0.00019     1.53657   
   138. RY*(   3) H  11                  0.00013     1.74296   
   139. RY*(   4) H  11                  0.00012     1.34784   
   140. RY*(   5) H  11                  0.00003     1.21948   
   141. RY*(   6) H  11                  0.00004     2.45701   
   142. RY*(   1) H  12                  0.00235     0.66899   
   143. RY*(   2) H  12                  0.00031     1.31521   
   144. RY*(   3) H  12                  0.00011     1.48790   
   145. RY*(   4) H  12                  0.00006     1.75686   
   146. RY*(   5) H  12                  0.00007     1.56990   
   147. RY*(   6) H  12                  0.00006     2.01193   
   148. BD*(   1) C   1 - N   2          0.01708     0.33484   
   149. BD*(   1) C   1 - H   6          0.01696     0.37534   
   150. BD*(   1) C   1 - H   7          0.00688     0.38065   
   151. BD*(   1) C   1 - H   8          0.01697     0.37534   
   152. BD*(   1) N   2 - C   3          0.02201     0.33619   
   153. BD*(   1) N   2 - C   4          0.07804     0.46844   
   154. BD*(   1) C   3 - H   9          0.01312     0.38358   
   155. BD*(   1) C   3 - H  10          0.01312     0.38356   
   156. BD*(   1) C   3 - H  11          0.00798     0.41228   
   157. BD*(   1) C   4 - O   5          0.28822     0.01095  74(g),90(g),77(g)
   158. BD*(   2) C   4 - O   5          0.00568     0.60945   
   159. BD*(   1) C   4 - H  12          0.06750     0.35637   
       -------------------------------
              Total Lewis   39.37650  ( 98.4412%)
        Valence non-Lewis    0.55356  (  1.3839%)
        Rydberg non-Lewis    0.06995  (  0.1749%)
       -------------------------------
            Total unit  1   40.00000  (100.0000%)
           Charge unit  1    0.00000
 Unable to Open any file for archive entry.
 1\1\GINC-CCC115\FOpt\RB3LYP\6-311++G(d,p)\C3H7N1O1\ROOT\12-Jun-2024\0\
 \# opt freq b3lyp/6-311++g(d,p) pop=nbo geom=connectivity\\CN(C)C=O\\0
 ,1\C,1.3164727527,0.073048813,-0.3879183345\N,-0.0769338089,0.14173337
 45,0.0115548119\C,-0.7617419492,-1.1080341634,0.3028064356\C,-0.734330
 8796,1.3305578462,0.115409312\O,-1.8973697882,1.474654461,0.4428788022
 \H,1.9264895306,-0.3896916726,0.395773468\H,1.6958957058,1.0795621824,
 -0.571318096\H,1.4326589743,-0.5135894704,-1.3059576148\H,-0.763074704
 9,-1.7601373763,-0.5771272134\H,-0.2674135546,-1.6347262083,1.12607845
 48\H,-1.7880331089,-0.8805142504,0.5847161166\H,-0.0826191591,2.187136
 4643,-0.1368961526\\Version=ES64L-G16RevC.02\State=1-A\HF=-248.5903079
 \RMSD=2.662e-09\RMSF=1.073e-05\Dipole=1.4225341,-0.7807378,-0.35575\Qu
 adrupole=-1.7249225,1.041302,0.6836205,3.3239011,0.474985,-0.9875551\P
 G=C01 [X(C3H7N1O1)]\\@
 The archive entry for this job was punched.


 IN THE FIGHT BETWEEN YOU AND THE WORLD, BACK THE WORLD

                                        -- FRANZ KAFKA
 Job cpu time:       0 days  0 hours  7 minutes  6.0 seconds.
 Elapsed time:       0 days  0 hours  1 minutes 16.2 seconds.
 File lengths (MBytes):  RWF=     15 Int=      0 D2E=      0 Chk=      3 Scr=      1
 Normal termination of Gaussian 16 at Wed Jun 12 22:05:05 2024.
 Link1:  Proceeding to internal job step number  2.
 ----------------------------------------------------------------------
 #N Geom=AllCheck Guess=TCheck SCRF=Check GenChk RB3LYP/6-311++G(d,p) F
 req
 ----------------------------------------------------------------------
 1/10=4,29=7,30=1,38=1,40=1/1,3;
 2/12=2,40=1/2;
 3/5=4,6=6,7=1111,11=2,14=-4,25=1,30=1,70=2,71=2,74=-5,116=1,140=1/1,2,3;
 4/5=101/1;
 5/5=2,38=6,98=1/2;
 8/6=4,10=90,11=11/1;
 11/6=1,8=1,9=11,15=111,16=1/1,2,10;
 10/6=1/2;
 6/7=2,8=2,9=2,10=2,28=1,40=1/1,7;
 7/8=1,10=1,25=1/1,2,3,16;
 1/10=4,30=1/3;
 99//99;
 Structure from the checkpoint file:  "CN(C)C=O.chk"
 --------
 CN(C)C=O
 --------
 Charge =  0 Multiplicity = 1
 Redundant internal coordinates found in file.  (old form).
 C,0,1.3164727527,0.073048813,-0.3879183345
 N,0,-0.0769338089,0.1417333745,0.0115548119
 C,0,-0.7617419492,-1.1080341634,0.3028064356
 C,0,-0.7343308796,1.3305578462,0.115409312
 O,0,-1.8973697882,1.474654461,0.4428788022
 H,0,1.9264895306,-0.3896916726,0.395773468
 H,0,1.6958957058,1.0795621824,-0.571318096
 H,0,1.4326589743,-0.5135894704,-1.3059576148
 H,0,-0.7630747049,-1.7601373763,-0.5771272134
 H,0,-0.2674135546,-1.6347262083,1.1260784548
 H,0,-1.7880331089,-0.8805142504,0.5847161166
 H,0,-0.0826191591,2.1871364643,-0.1368961526
 Recover connectivity data from disk.

 GradGradGradGradGradGradGradGradGradGradGradGradGradGradGradGradGradGrad
 Berny optimization.
 Initialization pass.
                           ----------------------------
                           !    Initial Parameters    !
                           ! (Angstroms and Degrees)  !
 --------------------------                            --------------------------
 ! Name  Definition              Value          Derivative Info.                !
 --------------------------------------------------------------------------------
 ! R1    R(1,2)                  1.4512         calculate D2E/DX2 analytically  !
 ! R2    R(1,6)                  1.0956         calculate D2E/DX2 analytically  !
 ! R3    R(1,7)                  1.0912         calculate D2E/DX2 analytically  !
 ! R4    R(1,8)                  1.0956         calculate D2E/DX2 analytically  !
 ! R5    R(2,3)                  1.4545         calculate D2E/DX2 analytically  !
 ! R6    R(2,4)                  1.3624         calculate D2E/DX2 analytically  !
 ! R7    R(3,9)                  1.0952         calculate D2E/DX2 analytically  !
 ! R8    R(3,10)                 1.0952         calculate D2E/DX2 analytically  !
 ! R9    R(3,11)                 1.0884         calculate D2E/DX2 analytically  !
 ! R10   R(4,5)                  1.2168         calculate D2E/DX2 analytically  !
 ! R11   R(4,12)                 1.1055         calculate D2E/DX2 analytically  !
 ! A1    A(2,1,6)              110.9588         calculate D2E/DX2 analytically  !
 ! A2    A(2,1,7)              109.6631         calculate D2E/DX2 analytically  !
 ! A3    A(2,1,8)              110.9664         calculate D2E/DX2 analytically  !
 ! A4    A(6,1,7)              108.4333         calculate D2E/DX2 analytically  !
 ! A5    A(6,1,8)              108.3099         calculate D2E/DX2 analytically  !
 ! A6    A(7,1,8)              108.4321         calculate D2E/DX2 analytically  !
 ! A7    A(1,2,3)              117.8086         calculate D2E/DX2 analytically  !
 ! A8    A(1,2,4)              121.708          calculate D2E/DX2 analytically  !
 ! A9    A(3,2,4)              120.4834         calculate D2E/DX2 analytically  !
 ! A10   A(2,3,9)              110.5655         calculate D2E/DX2 analytically  !
 ! A11   A(2,3,10)             110.5613         calculate D2E/DX2 analytically  !
 ! A12   A(2,3,11)             108.4336         calculate D2E/DX2 analytically  !
 ! A13   A(9,3,10)             108.5508         calculate D2E/DX2 analytically  !
 ! A14   A(9,3,11)             109.3555         calculate D2E/DX2 analytically  !
 ! A15   A(10,3,11)            109.3558         calculate D2E/DX2 analytically  !
 ! A16   A(2,4,5)              125.805          calculate D2E/DX2 analytically  !
 ! A17   A(2,4,12)             111.9779         calculate D2E/DX2 analytically  !
 ! A18   A(5,4,12)             122.2171         calculate D2E/DX2 analytically  !
 ! D1    D(6,1,2,3)            -60.1712         calculate D2E/DX2 analytically  !
 ! D2    D(6,1,2,4)            119.7856         calculate D2E/DX2 analytically  !
 ! D3    D(7,1,2,3)           -179.936          calculate D2E/DX2 analytically  !
 ! D4    D(7,1,2,4)              0.0208         calculate D2E/DX2 analytically  !
 ! D5    D(8,1,2,3)             60.296          calculate D2E/DX2 analytically  !
 ! D6    D(8,1,2,4)           -119.7472         calculate D2E/DX2 analytically  !
 ! D7    D(1,2,3,9)            -60.1609         calculate D2E/DX2 analytically  !
 ! D8    D(1,2,3,10)            60.0812         calculate D2E/DX2 analytically  !
 ! D9    D(1,2,3,11)           179.9591         calculate D2E/DX2 analytically  !
 ! D10   D(4,2,3,9)            119.8818         calculate D2E/DX2 analytically  !
 ! D11   D(4,2,3,10)          -119.8762         calculate D2E/DX2 analytically  !
 ! D12   D(4,2,3,11)             0.0017         calculate D2E/DX2 analytically  !
 ! D13   D(1,2,4,5)           -179.9784         calculate D2E/DX2 analytically  !
 ! D14   D(1,2,4,12)             0.0237         calculate D2E/DX2 analytically  !
 ! D15   D(3,2,4,5)             -0.0227         calculate D2E/DX2 analytically  !
 ! D16   D(3,2,4,12)           179.9794         calculate D2E/DX2 analytically  !
 --------------------------------------------------------------------------------
 Trust Radius=3.00D-01 FncErr=1.00D-07 GrdErr=1.00D-07 EigMax=2.50D+02 EigMin=1.00D-04
 Number of steps in this run=      2 maximum allowed number of steps=      2.
 GradGradGradGradGradGradGradGradGradGradGradGradGradGradGradGradGradGrad

                          Input orientation:                          
 ---------------------------------------------------------------------
 Center     Atomic      Atomic             Coordinates (Angstroms)
 Number     Number       Type             X           Y           Z
 ---------------------------------------------------------------------
      1          6           0        1.316473    0.073049   -0.387918
      2          7           0       -0.076934    0.141733    0.011555
      3          6           0       -0.761742   -1.108034    0.302806
      4          6           0       -0.734331    1.330558    0.115409
      5          8           0       -1.897370    1.474654    0.442879
      6          1           0        1.926490   -0.389692    0.395773
      7          1           0        1.695896    1.079562   -0.571318
      8          1           0        1.432659   -0.513589   -1.305958
      9          1           0       -0.763075   -1.760137   -0.577127
     10          1           0       -0.267414   -1.634726    1.126078
     11          1           0       -1.788033   -0.880514    0.584716
     12          1           0       -0.082619    2.187136   -0.136896
 ---------------------------------------------------------------------
                    Distance matrix (angstroms):
                    1          2          3          4          5
     1  C    0.000000
     2  N    1.451164   0.000000
     3  C    2.488179   1.454548   0.000000
     4  C    2.457735   1.362446   2.445935   0.000000
     5  O    3.603263   2.297108   2.824810   1.216824   0.000000
     6  H    1.095638   2.108018   2.784106   3.180853   4.254398
     7  H    1.091177   2.088585   3.404358   2.537833   3.754497
     8  H    1.095646   2.108117   2.785118   3.180724   4.254484
     9  H    2.778649   2.105813   1.095228   3.167464   3.576439
    10  H    2.778017   2.105767   1.095236   3.167392   3.576558
    11  H    3.390171   2.073973   1.088353   2.493868   2.361968
    12  H    2.547516   2.050791   3.393036   1.105492   2.033984
                    6          7          8          9         10
     6  H    0.000000
     7  H    1.774020   0.000000
     8  H    1.776262   1.774013   0.000000
     9  H    3.171500   3.756390   2.627988   0.000000
    10  H    2.626151   3.755409   3.172065   1.778291   0.000000
    11  H    3.751571   4.161259   3.752618   1.781616   1.781626
    12  H    3.310634   2.139757   3.310090   4.029615   4.029378
                   11         12
    11  H    0.000000
    12  H    3.583245   0.000000
 Stoichiometry    C3H7NO
 Framework group  C1[X(C3H7NO)]
 Deg. of freedom    30
 Full point group                 C1      NOp   1
 Largest Abelian subgroup         C1      NOp   1
 Largest concise Abelian subgroup C1      NOp   1
                         Standard orientation:                         
 ---------------------------------------------------------------------
 Center     Atomic      Atomic             Coordinates (Angstroms)
 Number     Number       Type             X           Y           Z
 ---------------------------------------------------------------------
      1          6           0       -1.590058   -0.763855    0.000074
      2          7           0       -0.344656   -0.018971   -0.000288
      3          6           0       -0.422691    1.433482    0.000032
      4          6           0        0.864857   -0.646139   -0.000033
      5          8           0        1.951101   -0.097747    0.000069
      6          1           0       -2.187264   -0.528434    0.887962
      7          1           0       -1.377724   -1.834173    0.000923
      8          1           0       -2.187104   -0.529830   -0.888300
      9          1           0       -0.953180    1.790461   -0.889164
     10          1           0       -0.953701    1.789968    0.889126
     11          1           0        0.589869    1.832522    0.000434
     12          1           0        0.760242   -1.746670    0.000039
 ---------------------------------------------------------------------
 Rotational constants (GHZ):           8.8884166           4.1766587           2.9469523
 Standard basis: 6-311++G(d,p) (5D, 7F)
 There are   164 symmetry adapted cartesian basis functions of A   symmetry.
 There are   159 symmetry adapted basis functions of A   symmetry.
   159 basis functions,   243 primitive gaussians,   164 cartesian basis functions
    20 alpha electrons       20 beta electrons
       nuclear repulsion energy       181.3046123309 Hartrees.
 NAtoms=   12 NActive=   12 NUniq=   12 SFac= 1.00D+00 NAtFMM=   60 NAOKFM=F Big=F
 Integral buffers will be    131072 words long.
 Raffenetti 2 integral format.
 Two-electron integral symmetry is turned on.
 One-electron integrals computed using PRISM.
 NBasis=   159 RedAO= T EigKep=  1.95D-04  NBF=   159
 NBsUse=   159 1.00D-06 EigRej= -1.00D+00 NBFU=   159
 Initial guess from the checkpoint file:  "CN(C)C=O.chk"
 B after Tr=    -0.000000   -0.000000    0.000000
         Rot=    1.000000    0.000000    0.000000   -0.000000 Ang=   0.00 deg.
 Keep R1 ints in memory in canonical form, NReq=88851254.
 Requested convergence on RMS density matrix=1.00D-08 within 128 cycles.
 Requested convergence on MAX density matrix=1.00D-06.
 Requested convergence on             energy=1.00D-06.
 No special actions if energy rises.
 SCF Done:  E(RB3LYP) =  -248.590307878     A.U. after    1 cycles
            NFock=  1  Conv=0.61D-09     -V/T= 2.0042
 DoSCS=F DFT=T ScalE2(SS,OS)=  1.000000  1.000000
 Range of M.O.s used for correlation:     1   159
 NBasis=   159 NAE=    20 NBE=    20 NFC=     0 NFV=     0
 NROrb=    159 NOA=    20 NOB=    20 NVA=   139 NVB=   139

 **** Warning!!: The largest alpha MO coefficient is  0.17581500D+02

 Symmetrizing basis deriv contribution to polar:
 IMax=3 JMax=2 DiffMx= 0.00D+00
 G2DrvN: will do    13 centers at a time, making    1 passes.
 Calling FoFCou, ICntrl=  3107 FMM=F I1Cent=   0 AccDes= 0.00D+00.
 End of G2Drv F.D. properties file   721 does not exist.
 End of G2Drv F.D. properties file   722 does not exist.
 End of G2Drv F.D. properties file   788 does not exist.
          IDoAtm=111111111111
          Differentiating once with respect to electric field.
                with respect to dipole field.
          Differentiating once with respect to nuclear coordinates.
 Keep R1 ints in memory in canonical form, NReq=88835506.
          There are    39 degrees of freedom in the 1st order CPHF.  IDoFFX=6 NUNeed=     3.
     36 vectors produced by pass  0 Test12= 7.13D-15 2.56D-09 XBig12= 5.48D+01 4.79D+00.
 AX will form    36 AO Fock derivatives at one time.
     36 vectors produced by pass  1 Test12= 7.13D-15 2.56D-09 XBig12= 1.76D+01 1.12D+00.
     36 vectors produced by pass  2 Test12= 7.13D-15 2.56D-09 XBig12= 1.24D-01 5.55D-02.
     36 vectors produced by pass  3 Test12= 7.13D-15 2.56D-09 XBig12= 5.30D-04 5.04D-03.
     36 vectors produced by pass  4 Test12= 7.13D-15 2.56D-09 XBig12= 9.75D-07 1.31D-04.
     21 vectors produced by pass  5 Test12= 7.13D-15 2.56D-09 XBig12= 1.27D-09 4.45D-06.
      6 vectors produced by pass  6 Test12= 7.13D-15 2.56D-09 XBig12= 1.49D-12 1.50D-07.
      1 vectors produced by pass  7 Test12= 7.13D-15 2.56D-09 XBig12= 1.23D-15 6.18D-09.
 InvSVY:  IOpt=1 It=  1 EMax= 1.78D-15
 Solved reduced A of dimension   208 with    39 vectors.
 Isotropic polarizability for W=    0.000000       49.87 Bohr**3.
 End of Minotr F.D. properties file   721 does not exist.
 End of Minotr F.D. properties file   722 does not exist.
 End of Minotr F.D. properties file   788 does not exist.

 **********************************************************************

            Population analysis using the SCF Density.

 **********************************************************************

 Orbital symmetries:
       Occupied  (A) (A) (A) (A) (A) (A) (A) (A) (A) (A) (A) (A)
                 (A) (A) (A) (A) (A) (A) (A) (A)
       Virtual   (A) (A) (A) (A) (A) (A) (A) (A) (A) (A) (A) (A)
                 (A) (A) (A) (A) (A) (A) (A) (A) (A) (A) (A) (A)
                 (A) (A) (A) (A) (A) (A) (A) (A) (A) (A) (A) (A)
                 (A) (A) (A) (A) (A) (A) (A) (A) (A) (A) (A) (A)
                 (A) (A) (A) (A) (A) (A) (A) (A) (A) (A) (A) (A)
                 (A) (A) (A) (A) (A) (A) (A) (A) (A) (A) (A) (A)
                 (A) (A) (A) (A) (A) (A) (A) (A) (A) (A) (A) (A)
                 (A) (A) (A) (A) (A) (A) (A) (A) (A) (A) (A) (A)
                 (A) (A) (A) (A) (A) (A) (A) (A) (A) (A) (A) (A)
                 (A) (A) (A) (A) (A) (A) (A) (A) (A) (A) (A) (A)
                 (A) (A) (A) (A) (A) (A) (A) (A) (A) (A) (A) (A)
                 (A) (A) (A) (A) (A) (A) (A)
 The electronic state is 1-A.
 Alpha  occ. eigenvalues --  -19.09308 -14.35626 -10.26995 -10.22122 -10.20762
 Alpha  occ. eigenvalues --   -1.04279  -0.95003  -0.74294  -0.71249  -0.57898
 Alpha  occ. eigenvalues --   -0.52602  -0.48883  -0.47656  -0.42272  -0.41995
 Alpha  occ. eigenvalues --   -0.41357  -0.39729  -0.38628  -0.26571  -0.25588
 Alpha virt. eigenvalues --   -0.01761   0.00079   0.00654   0.01724   0.02906
 Alpha virt. eigenvalues --    0.03632   0.04893   0.05237   0.05957   0.06896
 Alpha virt. eigenvalues --    0.07971   0.09012   0.10783   0.11122   0.11648
 Alpha virt. eigenvalues --    0.12445   0.12786   0.12978   0.13192   0.15830
 Alpha virt. eigenvalues --    0.16031   0.17017   0.18255   0.18854   0.19669
 Alpha virt. eigenvalues --    0.21366   0.21396   0.24610   0.25880   0.26318
 Alpha virt. eigenvalues --    0.27554   0.28399   0.29173   0.30087   0.32188
 Alpha virt. eigenvalues --    0.34668   0.38013   0.39932   0.41130   0.46548
 Alpha virt. eigenvalues --    0.46652   0.46688   0.52278   0.54647   0.56553
 Alpha virt. eigenvalues --    0.56943   0.61300   0.61493   0.63250   0.64211
 Alpha virt. eigenvalues --    0.65268   0.68998   0.69696   0.70590   0.73633
 Alpha virt. eigenvalues --    0.83390   0.84279   0.88505   0.89333   0.99573
 Alpha virt. eigenvalues --    1.02821   1.05073   1.09223   1.10615   1.16356
 Alpha virt. eigenvalues --    1.18940   1.23103   1.25724   1.34072   1.39711
 Alpha virt. eigenvalues --    1.42944   1.43633   1.44347   1.52516   1.53218
 Alpha virt. eigenvalues --    1.54595   1.55074   1.55379   1.58925   1.64410
 Alpha virt. eigenvalues --    1.66063   1.68357   1.71404   1.74651   1.75932
 Alpha virt. eigenvalues --    1.80103   1.81556   1.87647   1.95002   2.03094
 Alpha virt. eigenvalues --    2.03369   2.04234   2.12882   2.14523   2.22225
 Alpha virt. eigenvalues --    2.38759   2.39668   2.42514   2.44203   2.47428
 Alpha virt. eigenvalues --    2.48146   2.49058   2.50248   2.53642   2.55653
 Alpha virt. eigenvalues --    2.58232   2.59131   2.64626   2.70167   2.71821
 Alpha virt. eigenvalues --    2.79109   2.85927   2.87519   2.92594   2.94508
 Alpha virt. eigenvalues --    2.98382   3.06532   3.36808   3.40026   3.50496
 Alpha virt. eigenvalues --    3.56070   3.65001   3.70373   3.71718   3.73811
 Alpha virt. eigenvalues --    3.78377   3.85015   3.97896   3.98101   4.86811
 Alpha virt. eigenvalues --    4.95239   5.04381   5.19815   5.76789  23.88441
 Alpha virt. eigenvalues --   23.92425  23.93852  35.50521  50.00027
          Condensed to atoms (all electrons):
               1          2          3          4          5          6
     1  C    4.980658   0.258041  -0.067152  -0.072631   0.017179   0.403174
     2  N    0.258041   7.261642   0.212323   0.140143  -0.167056  -0.066458
     3  C   -0.067152   0.212323   5.054509  -0.028960  -0.039238   0.004652
     4  C   -0.072631   0.140143  -0.028960   4.949774   0.459705  -0.002400
     5  O    0.017179  -0.167056  -0.039238   0.459705   8.099686   0.000810
     6  H    0.403174  -0.066458   0.004652  -0.002400   0.000810   0.612952
     7  H    0.407948  -0.042295   0.002095   0.001988   0.002756  -0.026439
     8  H    0.403152  -0.066441   0.004537  -0.002348   0.000802  -0.085321
     9  H   -0.000907  -0.048927   0.403095  -0.008529  -0.001897  -0.003074
    10  H   -0.000915  -0.049056   0.403218  -0.008566  -0.001898   0.011156
    11  H   -0.000340  -0.089251   0.403204   0.026228   0.038164  -0.000083
    12  H   -0.001532  -0.284225  -0.002579   0.408771  -0.024510   0.000973
               7          8          9         10         11         12
     1  C    0.407948   0.403152  -0.000907  -0.000915  -0.000340  -0.001532
     2  N   -0.042295  -0.066441  -0.048927  -0.049056  -0.089251  -0.284225
     3  C    0.002095   0.004537   0.403095   0.403218   0.403204  -0.002579
     4  C    0.001988  -0.002348  -0.008529  -0.008566   0.026228   0.408771
     5  O    0.002756   0.000802  -0.001897  -0.001898   0.038164  -0.024510
     6  H   -0.026439  -0.085321  -0.003074   0.011156  -0.000083   0.000973
     7  H    0.551418  -0.026449   0.000050   0.000039  -0.003552   0.000125
     8  H   -0.026449   0.612964   0.011109  -0.003069  -0.000068   0.000959
     9  H    0.000050   0.011109   0.598037  -0.071715  -0.021442  -0.003239
    10  H    0.000039  -0.003069  -0.071715   0.598098  -0.021432  -0.003236
    11  H   -0.003552  -0.000068  -0.021442  -0.021432   0.476247   0.015701
    12  H    0.000125   0.000959  -0.003239  -0.003236   0.015701   0.814289
 Mulliken charges:
               1
     1  C   -0.326674
     2  N   -0.058439
     3  C   -0.349705
     4  C    0.136826
     5  O   -0.384502
     6  H    0.150058
     7  H    0.132317
     8  H    0.150173
     9  H    0.147442
    10  H    0.147376
    11  H    0.176624
    12  H    0.078503
 Sum of Mulliken charges =  -0.00000
 Mulliken charges with hydrogens summed into heavy atoms:
               1
     1  C    0.105875
     2  N   -0.058439
     3  C    0.121737
     4  C    0.215329
     5  O   -0.384502
 APT charges:
               1
     1  C    0.356820
     2  N   -0.745909
     3  C    0.278157
     4  C    1.068549
     5  O   -0.839849
     6  H   -0.041406
     7  H    0.010020
     8  H   -0.041464
     9  H   -0.031085
    10  H   -0.031088
    11  H    0.057441
    12  H   -0.040185
 Sum of APT charges =   0.00000
 APT charges with hydrogens summed into heavy atoms:
               1
     1  C    0.283969
     2  N   -0.745909
     3  C    0.273425
     4  C    1.028364
     5  O   -0.839849
 Electronic spatial extent (au):  <R**2>=            445.7698
 Charge=              0.0000 electrons
 Dipole moment (field-independent basis, Debye):
    X=             -4.2030    Y=             -0.4044    Z=              0.0005  Tot=              4.2224
 Quadrupole moment (field-independent basis, Debye-Ang):
   XX=            -38.0344   YY=            -27.9367   ZZ=            -31.4741
   XY=              0.0535   XZ=             -0.0007   YZ=             -0.0002
 Traceless Quadrupole moment (field-independent basis, Debye-Ang):
   XX=             -5.5527   YY=              4.5450   ZZ=              1.0076
   XY=              0.0535   XZ=             -0.0007   YZ=             -0.0002
 Octapole moment (field-independent basis, Debye-Ang**2):
  XXX=            -17.6622  YYY=             -1.4888  ZZZ=             -0.0010  XYY=              1.5512
  XXY=             -0.4022  XXZ=             -0.0004  XZZ=              0.0903  YZZ=              0.6884
  YYZ=              0.0009  XYZ=              0.0001
 Hexadecapole moment (field-independent basis, Debye-Ang**3):
 XXXX=           -380.2726 YYYY=           -193.9889 ZZZZ=            -46.0849 XXXY=              4.6046
 XXXZ=             -0.0027 YYYX=              0.3533 YYYZ=             -0.0054 ZZZX=              0.0021
 ZZZY=             -0.0001 XXYY=            -88.8526 XXZZ=            -62.2568 YYZZ=            -41.8170
 XXYZ=              0.0032 YYXZ=              0.0003 ZZXY=             -1.4739
 N-N= 1.813046123309D+02 E-N=-9.428668268594D+02  KE= 2.475611848785D+02
  Exact polarizability:      61.913      -0.809      50.649       0.002       0.000      37.048
 Approx polarizability:      88.672       0.136      64.788       0.005       0.000      51.144
 ******************************Gaussian NBO Version 3.1******************************
             N A T U R A L   A T O M I C   O R B I T A L   A N D
          N A T U R A L   B O N D   O R B I T A L   A N A L Y S I S
 ******************************Gaussian NBO Version 3.1******************************
       /RESON  / : Allow strongly delocalized NBO set

 Analyzing the SCF density

 Job title: CN(C)C=O                                                        

 Storage needed:     76599 in NPA,    101767 in NBO (1258290360 available)
 GSVD:  LWork=        4887 too small for GESVD, short by       35010 words or       35010 for optimal perf.


 NATURAL POPULATIONS:  Natural atomic orbital occupancies 
                                                          
   NAO  Atom  No  lang   Type(AO)    Occupancy      Energy
 ----------------------------------------------------------
     1    C    1  S      Cor( 1S)     1.99931     -10.08559
     2    C    1  S      Val( 2S)     1.06140      -0.26115
     3    C    1  S      Ryd( 4S)     0.00095       0.85704
     4    C    1  S      Ryd( 3S)     0.00010       0.41783
     5    C    1  S      Ryd( 5S)     0.00000      23.42344
     6    C    1  px     Val( 2p)     0.95691      -0.10024
     7    C    1  px     Ryd( 4p)     0.00237       0.54741
     8    C    1  px     Ryd( 3p)     0.00014       0.24700
     9    C    1  px     Ryd( 5p)     0.00007       3.02331
    10    C    1  py     Val( 2p)     1.11896      -0.11718
    11    C    1  py     Ryd( 4p)     0.00254       0.64024
    12    C    1  py     Ryd( 3p)     0.00013       0.30465
    13    C    1  py     Ryd( 5p)     0.00004       2.97259
    14    C    1  pz     Val( 2p)     1.19927      -0.12234
    15    C    1  pz     Ryd( 4p)     0.00029       0.57108
    16    C    1  pz     Ryd( 3p)     0.00009       0.24672
    17    C    1  pz     Ryd( 5p)     0.00001       2.94915
    18    C    1  dxy    Ryd( 3d)     0.00090       2.06597
    19    C    1  dxz    Ryd( 3d)     0.00129       2.13597
    20    C    1  dyz    Ryd( 3d)     0.00035       1.76720
    21    C    1  dx2y2  Ryd( 3d)     0.00084       2.15545
    22    C    1  dz2    Ryd( 3d)     0.00087       2.08643
 
    23    N    2  S      Cor( 1S)     1.99936     -14.19563
    24    N    2  S      Val( 2S)     1.23106      -0.53919
    25    N    2  S      Ryd( 3S)     0.00159       0.94696
    26    N    2  S      Ryd( 4S)     0.00015       1.20595
    27    N    2  S      Ryd( 5S)     0.00000      35.05891
    28    N    2  px     Val( 2p)     1.29896      -0.25840
    29    N    2  px     Ryd( 4p)     0.00187       1.02774
    30    N    2  px     Ryd( 3p)     0.00036       0.68180
    31    N    2  px     Ryd( 5p)     0.00012       4.36621
    32    N    2  py     Val( 2p)     1.29272      -0.25381
    33    N    2  py     Ryd( 4p)     0.00117       1.15165
    34    N    2  py     Ryd( 3p)     0.00034       0.73046
    35    N    2  py     Ryd( 5p)     0.00005       4.32756
    36    N    2  pz     Val( 2p)     1.66417      -0.25808
    37    N    2  pz     Ryd( 3p)     0.00546       0.53951
    38    N    2  pz     Ryd( 4p)     0.00059       0.63387
    39    N    2  pz     Ryd( 5p)     0.00000       3.80753
    40    N    2  dxy    Ryd( 3d)     0.00091       2.85527
    41    N    2  dxz    Ryd( 3d)     0.00046       2.21916
    42    N    2  dyz    Ryd( 3d)     0.00031       2.20324
    43    N    2  dx2y2  Ryd( 3d)     0.00073       2.87020
    44    N    2  dz2    Ryd( 3d)     0.00047       2.59884
 
    45    C    3  S      Cor( 1S)     1.99930     -10.07181
    46    C    3  S      Val( 2S)     1.06569      -0.25038
    47    C    3  S      Ryd( 3S)     0.00103       0.88137
    48    C    3  S      Ryd( 4S)     0.00005       1.24910
    49    C    3  S      Ryd( 5S)     0.00000      22.64007
    50    C    3  px     Val( 2p)     1.23773      -0.11590
    51    C    3  px     Ryd( 4p)     0.00289       0.61492
    52    C    3  px     Ryd( 3p)     0.00010       0.30626
    53    C    3  px     Ryd( 5p)     0.00003       3.05526
    54    C    3  py     Val( 2p)     0.85648      -0.08038
    55    C    3  py     Ryd( 4p)     0.00253       0.53924
    56    C    3  py     Ryd( 3p)     0.00019       0.27004
    57    C    3  py     Ryd( 5p)     0.00011       3.03116
    58    C    3  pz     Val( 2p)     1.19270      -0.10996
    59    C    3  pz     Ryd( 4p)     0.00102       0.56276
    60    C    3  pz     Ryd( 3p)     0.00024       0.25160
    61    C    3  pz     Ryd( 5p)     0.00003       2.99211
    62    C    3  dxy    Ryd( 3d)     0.00058       2.04583
    63    C    3  dxz    Ryd( 3d)     0.00075       2.05510
    64    C    3  dyz    Ryd( 3d)     0.00087       1.87086
    65    C    3  dx2y2  Ryd( 3d)     0.00125       2.19646
    66    C    3  dz2    Ryd( 3d)     0.00083       2.10811
 
    67    C    4  S      Cor( 1S)     1.99942     -10.14628
    68    C    4  S      Val( 2S)     0.83942      -0.15644
    69    C    4  S      Ryd( 3S)     0.01029       0.67955
    70    C    4  S      Ryd( 4S)     0.00029       0.88553
    71    C    4  S      Ryd( 5S)     0.00004      22.63952
    72    C    4  px     Val( 2p)     0.77135       0.00520
    73    C    4  px     Ryd( 4p)     0.01391       1.02643
    74    C    4  px     Ryd( 3p)     0.00050       0.56539
    75    C    4  px     Ryd( 5p)     0.00015       2.48995
    76    C    4  py     Val( 2p)     1.01602      -0.05971
    77    C    4  py     Ryd( 4p)     0.00497       1.19169
    78    C    4  py     Ryd( 3p)     0.00088       0.62573
    79    C    4  py     Ryd( 5p)     0.00016       2.37572
    80    C    4  pz     Val( 2p)     0.78675      -0.12218
    81    C    4  pz     Ryd( 4p)     0.00174       0.72022
    82    C    4  pz     Ryd( 3p)     0.00070       0.33028
    83    C    4  pz     Ryd( 5p)     0.00007       2.32617
    84    C    4  dxy    Ryd( 3d)     0.00262       2.53787
    85    C    4  dxz    Ryd( 3d)     0.00441       1.65043
    86    C    4  dyz    Ryd( 3d)     0.00078       1.53342
    87    C    4  dx2y2  Ryd( 3d)     0.00360       2.49652
    88    C    4  dz2    Ryd( 3d)     0.00060       1.98973
 
    89    O    5  S      Cor( 1S)     1.99977     -18.83649
    90    O    5  S      Val( 2S)     1.70627      -0.87302
    91    O    5  S      Ryd( 3S)     0.00478       0.83260
    92    O    5  S      Ryd( 4S)     0.00015       1.40110
    93    O    5  S      Ryd( 5S)     0.00000      49.76241
    94    O    5  px     Val( 2p)     1.61659      -0.27623
    95    O    5  px     Ryd( 3p)     0.00123       0.81206
    96    O    5  px     Ryd( 4p)     0.00010       0.88251
    97    O    5  px     Ryd( 5p)     0.00009       5.26028
    98    O    5  py     Val( 2p)     1.78774      -0.25495
    99    O    5  py     Ryd( 3p)     0.00256       0.72420
   100    O    5  py     Ryd( 4p)     0.00014       0.94443
   101    O    5  py     Ryd( 5p)     0.00003       5.01286
   102    O    5  pz     Val( 2p)     1.49625      -0.23873
   103    O    5  pz     Ryd( 3p)     0.00089       0.60027
   104    O    5  pz     Ryd( 4p)     0.00005       0.93193
   105    O    5  pz     Ryd( 5p)     0.00002       4.87362
   106    O    5  dxy    Ryd( 3d)     0.00130       3.44235
   107    O    5  dxz    Ryd( 3d)     0.00133       3.06716
   108    O    5  dyz    Ryd( 3d)     0.00033       2.91607
   109    O    5  dx2y2  Ryd( 3d)     0.00137       3.37153
   110    O    5  dz2    Ryd( 3d)     0.00040       3.09616
 
   111    H    6  S      Val( 1S)     0.80975       0.00553
   112    H    6  S      Ryd( 3S)     0.00120       0.47455
   113    H    6  S      Ryd( 4S)     0.00012       2.25812
   114    H    6  S      Ryd( 2S)     0.00008       0.20968
   115    H    6  px     Ryd( 2p)     0.00016       1.99330
   116    H    6  py     Ryd( 2p)     0.00016       1.75539
   117    H    6  pz     Ryd( 2p)     0.00031       2.35231
 
   118    H    7  S      Val( 1S)     0.79685       0.00549
   119    H    7  S      Ryd( 3S)     0.00101       0.70766
   120    H    7  S      Ryd( 2S)     0.00017       0.48433
   121    H    7  S      Ryd( 4S)     0.00011       1.72120
   122    H    7  px     Ryd( 2p)     0.00013       1.72377
   123    H    7  py     Ryd( 2p)     0.00038       2.63420
   124    H    7  pz     Ryd( 2p)     0.00017       1.71284
 
   125    H    8  S      Val( 1S)     0.80975       0.00554
   126    H    8  S      Ryd( 3S)     0.00120       0.47443
   127    H    8  S      Ryd( 4S)     0.00012       2.25937
   128    H    8  S      Ryd( 2S)     0.00008       0.20854
   129    H    8  px     Ryd( 2p)     0.00016       1.99320
   130    H    8  py     Ryd( 2p)     0.00016       1.75514
   131    H    8  pz     Ryd( 2p)     0.00031       2.35290
 
   132    H    9  S      Val( 1S)     0.81057       0.01202
   133    H    9  S      Ryd( 3S)     0.00095       0.47147
   134    H    9  S      Ryd( 4S)     0.00011       2.29019
   135    H    9  S      Ryd( 2S)     0.00007       0.20326
   136    H    9  px     Ryd( 2p)     0.00018       1.97411
   137    H    9  py     Ryd( 2p)     0.00013       1.79029
   138    H    9  pz     Ryd( 2p)     0.00031       2.36259
 
   139    H   10  S      Val( 1S)     0.81059       0.01199
   140    H   10  S      Ryd( 3S)     0.00095       0.47153
   141    H   10  S      Ryd( 4S)     0.00011       2.28989
   142    H   10  S      Ryd( 2S)     0.00007       0.20352
   143    H   10  px     Ryd( 2p)     0.00018       1.97445
   144    H   10  py     Ryd( 2p)     0.00013       1.78992
   145    H   10  pz     Ryd( 2p)     0.00031       2.36248
 
   146    H   11  S      Val( 1S)     0.76427       0.04553
   147    H   11  S      Ryd( 3S)     0.00124       0.82907
   148    H   11  S      Ryd( 4S)     0.00013       1.89797
   149    H   11  S      Ryd( 2S)     0.00010       0.26602
   150    H   11  px     Ryd( 2p)     0.00037       2.56609
   151    H   11  py     Ryd( 2p)     0.00013       1.85759
   152    H   11  pz     Ryd( 2p)     0.00013       1.74296
 
   153    H   12  S      Val( 1S)     0.89095      -0.02955
   154    H   12  S      Ryd( 2S)     0.00217       0.57529
   155    H   12  S      Ryd( 4S)     0.00031       1.29624
   156    H   12  S      Ryd( 3S)     0.00009       0.83254
   157    H   12  px     Ryd( 2p)     0.00011       1.90559
   158    H   12  py     Ryd( 2p)     0.00078       2.63727
   159    H   12  pz     Ryd( 2p)     0.00007       1.56990

 WARNING:  Population inversion found on atom  C    1
           Population inversion found on atom  N    2
           Population inversion found on atom  C    3
           Population inversion found on atom  C    4
           Population inversion found on atom  H    6
           Population inversion found on atom  H    7
           Population inversion found on atom  H    8
           Population inversion found on atom  H    9
           Population inversion found on atom  H   10
           Population inversion found on atom  H   11
           Population inversion found on atom  H   12


 Summary of Natural Population Analysis:                  
                                                          
                                       Natural Population 
                Natural  -----------------------------------------------
    Atom  No    Charge         Core      Valence    Rydberg      Total
 -----------------------------------------------------------------------
      C    1   -0.34685      1.99931     4.33654    0.01100     6.34685
      N    2   -0.50083      1.99936     5.48691    0.01456     7.50083
      C    3   -0.36439      1.99930     4.35260    0.01249     6.36439
      C    4    0.54134      1.99942     3.41354    0.04571     5.45866
      O    5   -0.62139      1.99977     6.60685    0.01477     8.62139
      H    6    0.18822      0.00000     0.80975    0.00203     0.81178
      H    7    0.20117      0.00000     0.79685    0.00198     0.79883
      H    8    0.18822      0.00000     0.80975    0.00203     0.81178
      H    9    0.18769      0.00000     0.81057    0.00174     0.81231
      H   10    0.18767      0.00000     0.81059    0.00174     0.81233
      H   11    0.23363      0.00000     0.76427    0.00210     0.76637
      H   12    0.10552      0.00000     0.89095    0.00354     0.89448
 =======================================================================
   * Total *    0.00000      9.99716    29.88915    0.11369    40.00000

                                 Natural Population      
 --------------------------------------------------------
   Core                       9.99716 ( 99.9716% of  10)
   Valence                   29.88915 ( 99.6305% of  30)
   Natural Minimal Basis     39.88631 ( 99.7158% of  40)
   Natural Rydberg Basis      0.11369 (  0.2842% of  40)
 --------------------------------------------------------

    Atom  No          Natural Electron Configuration
 ----------------------------------------------------------------------------
      C    1      [core]2S( 1.06)2p( 3.28)4p( 0.01)
      N    2      [core]2S( 1.23)2p( 4.26)3p( 0.01)
      C    3      [core]2S( 1.07)2p( 3.29)4p( 0.01)
      C    4      [core]2S( 0.84)2p( 2.57)3S( 0.01)3d( 0.01)4p( 0.02)
      O    5      [core]2S( 1.71)2p( 4.90)
      H    6            1S( 0.81)
      H    7            1S( 0.80)
      H    8            1S( 0.81)
      H    9            1S( 0.81)
      H   10            1S( 0.81)
      H   11            1S( 0.76)
      H   12            1S( 0.89)


 NATURAL BOND ORBITAL ANALYSIS:

                       Occupancies       Lewis Structure    Low   High
           Occ.    -------------------  -----------------   occ   occ
  Cycle   Thresh.   Lewis   Non-Lewis     CR  BD  3C  LP    (L)   (NL)   Dev
 =============================================================================
   1(1)    1.90    39.01619   0.98381      5  13   0   2     3      2    0.20
   2(2)    1.90    38.79698   1.20302      5  13   0   2     3      2    0.19
   3(3)    1.90    38.14593   1.85407      5  14   0   1     2      2    1.20
   4(4)    1.90    38.79698   1.20302      5  13   0   2     3      2    0.19
   5(5)    1.90    38.14593   1.85407      5  14   0   1     2      2    1.20
   6(6)    1.90    38.79698   1.20302      5  13   0   2     3      2    0.19
   7(7)    1.90    38.14593   1.85407      5  14   0   1     2      2    1.20
   8(8)    1.90    38.79698   1.20302      5  13   0   2     3      2    0.19
   9(9)    1.90    38.14593   1.85407      5  14   0   1     2      2    1.20
  10(1)    1.80    39.37650   0.62350      5  12   0   3     1      1    0.20
  11(2)    1.80    39.15729   0.84271      5  12   0   3     1      1    0.69
  12(3)    1.80    39.37650   0.62350      5  12   0   3     1      1    0.20
  13(1)    1.70    38.84101   1.15899      5  13   0   2     1      2    0.20
  14(2)    1.70    39.15729   0.84271      5  12   0   3     1      1    0.69
  15(3)    1.70    38.84101   1.15899      5  13   0   2     1      2    0.20
  16(4)    1.70    39.15729   0.84271      5  12   0   3     1      1    0.69
  17(5)    1.70    38.84101   1.15899      5  13   0   2     1      2    0.20
  18(6)    1.70    39.15729   0.84271      5  12   0   3     1      1    0.69
  19(7)    1.70    38.84101   1.15899      5  13   0   2     1      2    0.20
  20(8)    1.70    39.15729   0.84271      5  12   0   3     1      1    0.69
  21(9)    1.70    38.84101   1.15899      5  13   0   2     1      2    0.20
  22(1)    1.60    39.37650   0.62350      5  12   0   3     0      1    0.20
  23(2)    1.60    39.37650   0.62350      5  12   0   3     0      1    0.20
  24(1)    1.50    39.37650   0.62350      5  12   0   3     0      1    0.20
  25(2)    1.50    39.37650   0.62350      5  12   0   3     0      1    0.20
  26(1)    1.60    39.37650   0.62350      5  12   0   3     0      1    0.20
 -----------------------------------------------------------------------------

 Structure accepted: RESONANCE keyword permits strongly delocalized structure

 --------------------------------------------------------
   Core                      9.99715 ( 99.971% of  10)
   Valence Lewis            29.37935 ( 97.931% of  30)
  ==================       ============================
   Total Lewis              39.37650 ( 98.441% of  40)
  -----------------------------------------------------
   Valence non-Lewis         0.55356 (  1.384% of  40)
   Rydberg non-Lewis         0.06995 (  0.175% of  40)
  ==================       ============================
   Total non-Lewis           0.62350 (  1.559% of  40)
 --------------------------------------------------------


       (Occupancy)   Bond orbital/ Coefficients/ Hybrids
 ---------------------------------------------------------------------------------
     1. (1.99016) BD ( 1) C   1 - N   2  
                ( 37.13%)   0.6094* C   1 s( 24.51%)p 3.07( 75.35%)d 0.01(  0.13%)
                                           -0.0001 -0.4942 -0.0307 -0.0000 -0.0004
                                           -0.7426  0.0393  0.0060  0.0035 -0.4472
                                            0.0213  0.0038  0.0021  0.0003 -0.0000
                                            0.0000  0.0000 -0.0271  0.0000  0.0000
                                           -0.0154  0.0193
                ( 62.87%)   0.7929* N   2 s( 32.39%)p 2.09( 67.57%)d 0.00(  0.03%)
                                            0.0001 -0.5691 -0.0074  0.0017  0.0000
                                            0.7007 -0.0077 -0.0094 -0.0009  0.4296
                                           -0.0027 -0.0066 -0.0006 -0.0002 -0.0000
                                            0.0000  0.0000 -0.0133  0.0000  0.0000
                                           -0.0053  0.0109
     2. (1.99031) BD ( 1) C   1 - H   6  
                ( 59.81%)   0.7734* C   1 s( 25.25%)p 2.96( 74.69%)d 0.00(  0.06%)
                                           -0.0000  0.5025 -0.0074  0.0011  0.0000
                                           -0.4544  0.0030  0.0031 -0.0000  0.2021
                                            0.0138  0.0020 -0.0000  0.7066  0.0085
                                            0.0032  0.0016 -0.0062 -0.0183  0.0078
                                            0.0030  0.0127
                ( 40.19%)   0.6340* H   6 s( 99.96%)p 0.00(  0.04%)
                                            0.9998  0.0031  0.0004 -0.0001  0.0103
                                           -0.0034 -0.0160
     3. (1.98895) BD ( 1) C   1 - H   7  
                ( 60.13%)   0.7754* C   1 s( 25.07%)p 2.99( 74.87%)d 0.00(  0.06%)
                                            0.0001 -0.5007  0.0035  0.0024  0.0004
                                           -0.1779 -0.0165  0.0007  0.0010  0.8466
                                            0.0083  0.0010  0.0005 -0.0007 -0.0000
                                           -0.0000 -0.0000  0.0112 -0.0000  0.0000
                                            0.0184  0.0117
                ( 39.87%)   0.6315* H   7 s( 99.96%)p 0.00(  0.04%)
                                           -0.9998 -0.0014 -0.0003  0.0004  0.0017
                                           -0.0205  0.0000
     4. (1.99032) BD ( 1) C   1 - H   8  
                ( 59.81%)   0.7734* C   1 s( 25.25%)p 2.96( 74.69%)d 0.00(  0.06%)
                                           -0.0000  0.5025 -0.0074  0.0011  0.0000
                                           -0.4543  0.0030  0.0031 -0.0000  0.2010
                                            0.0137  0.0020 -0.0000 -0.7070 -0.0085
                                           -0.0032 -0.0016 -0.0062  0.0183 -0.0077
                                            0.0030  0.0128
                ( 40.19%)   0.6340* H   8 s( 99.96%)p 0.00(  0.04%)
                                            0.9998  0.0031  0.0004 -0.0001  0.0103
                                           -0.0034  0.0160
     5. (1.98851) BD ( 1) N   2 - C   3  
                ( 63.32%)   0.7957* N   2 s( 31.90%)p 2.13( 68.07%)d 0.00(  0.03%)
                                           -0.0001  0.5648  0.0033 -0.0018 -0.0000
                                           -0.0463  0.0018  0.0000 -0.0007  0.8236
                                           -0.0098 -0.0113 -0.0006  0.0001  0.0000
                                           -0.0000 -0.0000 -0.0014 -0.0000  0.0000
                                           -0.0129 -0.0109
                ( 36.68%)   0.6057* C   3 s( 23.76%)p 3.20( 76.10%)d 0.01(  0.14%)
                                            0.0001  0.4865  0.0300 -0.0002  0.0003
                                            0.0371 -0.0046  0.0009  0.0000 -0.8703
                                            0.0457  0.0069  0.0016 -0.0002  0.0000
                                           -0.0000 -0.0000 -0.0022 -0.0000  0.0000
                                           -0.0316 -0.0191
     6. (1.98982) BD ( 1) N   2 - C   4  
                ( 63.94%)   0.7997* N   2 s( 35.68%)p 1.80( 64.28%)d 0.00(  0.05%)
                                           -0.0000  0.5973 -0.0027  0.0031  0.0001
                                            0.7114 -0.0116 -0.0071  0.0012 -0.3694
                                            0.0105  0.0021 -0.0010  0.0002  0.0000
                                           -0.0000 -0.0000 -0.0145  0.0000 -0.0000
                                            0.0109 -0.0110
                ( 36.06%)   0.6005* C   4 s( 33.16%)p 2.01( 66.72%)d 0.00(  0.12%)
                                            0.0001  0.5755 -0.0149  0.0148  0.0006
                                           -0.6964  0.0373  0.0053 -0.0032  0.4249
                                           -0.0135 -0.0009  0.0047 -0.0001  0.0000
                                           -0.0000 -0.0000 -0.0266  0.0000 -0.0000
                                            0.0164 -0.0148
     7. (1.98921) BD ( 1) C   3 - H   9  
                ( 59.63%)   0.7722* C   3 s( 25.18%)p 2.97( 74.76%)d 0.00(  0.06%)
                                           -0.0001  0.5018 -0.0065  0.0009  0.0001
                                           -0.4235 -0.0102 -0.0000  0.0002  0.2614
                                           -0.0124 -0.0027  0.0009 -0.7068 -0.0081
                                           -0.0027 -0.0007 -0.0055  0.0175 -0.0096
                                            0.0048  0.0127
                ( 40.37%)   0.6354* H   9 s( 99.96%)p 0.00(  0.04%)
                                            0.9998  0.0021  0.0004 -0.0003  0.0077
                                           -0.0068  0.0160
     8. (1.98921) BD ( 1) C   3 - H  10  
                ( 59.63%)   0.7722* C   3 s( 25.18%)p 2.97( 74.76%)d 0.00(  0.06%)
                                           -0.0001  0.5018 -0.0066  0.0009  0.0001
                                           -0.4239 -0.0102 -0.0000  0.0002  0.2610
                                           -0.0124 -0.0027  0.0009  0.7067  0.0081
                                            0.0027  0.0007 -0.0055 -0.0176  0.0095
                                            0.0048  0.0127
                ( 40.37%)   0.6354* H  10 s( 99.96%)p 0.00(  0.04%)
                                            0.9998  0.0021  0.0004 -0.0003  0.0077
                                           -0.0068 -0.0160
     9. (1.98919) BD ( 1) C   3 - H  11  
                ( 61.81%)   0.7862* C   3 s( 25.96%)p 2.85( 73.98%)d 0.00(  0.06%)
                                           -0.0000  0.5095 -0.0038 -0.0016 -0.0004
                                            0.7990  0.0170  0.0011 -0.0004  0.3180
                                           -0.0040  0.0024  0.0019  0.0003  0.0000
                                            0.0000  0.0000  0.0130  0.0000  0.0000
                                            0.0181 -0.0110
                ( 38.19%)   0.6180* H  11 s( 99.96%)p 0.00(  0.04%)
                                            0.9998  0.0020  0.0001 -0.0004 -0.0196
                                           -0.0056 -0.0000
    10. (1.99775) BD ( 1) C   4 - O   5  
                ( 29.24%)   0.5408* C   4 s(  0.00%)p 1.00( 99.53%)d 0.00(  0.47%)
                                            0.0000  0.0004 -0.0000  0.0000 -0.0000
                                            0.0004 -0.0001 -0.0000  0.0000  0.0004
                                           -0.0000 -0.0000 -0.0000  0.9968  0.0352
                                            0.0211 -0.0021  0.0000  0.0600  0.0337
                                            0.0000 -0.0000
                ( 70.76%)   0.8412* O   5 s(  0.00%)p 1.00( 99.89%)d 0.00(  0.11%)
                                            0.0000  0.0005 -0.0000  0.0000  0.0000
                                           -0.0006  0.0000 -0.0000 -0.0000 -0.0002
                                            0.0000 -0.0000 -0.0000  0.9994 -0.0051
                                            0.0015 -0.0037  0.0000 -0.0304 -0.0146
                                            0.0000 -0.0000
    11. (1.99530) BD ( 2) C   4 - O   5  
                ( 35.70%)   0.5975* C   4 s( 34.87%)p 1.86( 64.96%)d 0.00(  0.17%)
                                           -0.0001  0.5861 -0.0719 -0.0045 -0.0022
                                            0.7102 -0.0711 -0.0016  0.0028  0.3741
                                           -0.0149 -0.0072  0.0007 -0.0007 -0.0000
                                           -0.0000  0.0000  0.0307 -0.0000 -0.0000
                                            0.0177 -0.0208
                ( 64.30%)   0.8019* O   5 s( 39.94%)p 1.50( 59.95%)d 0.00(  0.11%)
                                            0.0000  0.6303 -0.0462  0.0017 -0.0000
                                           -0.6911  0.0186  0.0004 -0.0010 -0.3485
                                            0.0113 -0.0028 -0.0009 -0.0008  0.0000
                                           -0.0000  0.0000  0.0229  0.0000  0.0000
                                            0.0185 -0.0155
    12. (1.98118) BD ( 1) C   4 - H  12  
                ( 56.94%)   0.7546* C   4 s( 32.46%)p 2.08( 67.46%)d 0.00(  0.08%)
                                            0.0004 -0.5674 -0.0517  0.0068 -0.0006
                                            0.0339  0.0226 -0.0004 -0.0028  0.8196
                                            0.0250 -0.0234 -0.0021 -0.0001  0.0000
                                            0.0000  0.0000 -0.0076  0.0000  0.0000
                                            0.0252  0.0103
                ( 43.06%)   0.6562* H  12 s( 99.94%)p 0.00(  0.06%)
                                           -0.9996 -0.0095 -0.0009  0.0003  0.0026
                                           -0.0246  0.0000
    13. (1.99931) CR ( 1) C   1           s(100.00%)p 0.00(  0.00%)
                                            1.0000  0.0000 -0.0000 -0.0000 -0.0000
                                           -0.0001  0.0000  0.0000  0.0000 -0.0001
                                            0.0000  0.0000  0.0000  0.0000 -0.0000
                                            0.0000  0.0000 -0.0000  0.0000  0.0000
                                           -0.0000  0.0000
    14. (1.99936) CR ( 1) N   2           s(100.00%)
                                            1.0000  0.0001  0.0000 -0.0000  0.0000
                                           -0.0001  0.0000  0.0000  0.0000 -0.0000
                                           -0.0000  0.0000  0.0000  0.0000  0.0000
                                            0.0000  0.0000  0.0000  0.0000 -0.0000
                                            0.0000 -0.0000
    15. (1.99930) CR ( 1) C   3           s(100.00%)p 0.00(  0.00%)
                                            1.0000  0.0000 -0.0000  0.0000 -0.0000
                                           -0.0000  0.0000 -0.0000  0.0000  0.0002
                                           -0.0000 -0.0000 -0.0000  0.0000 -0.0000
                                            0.0000  0.0000  0.0000 -0.0000 -0.0000
                                            0.0000  0.0000
    16. (1.99942) CR ( 1) C   4           s(100.00%)p 0.00(  0.00%)
                                            1.0000  0.0002  0.0000 -0.0000 -0.0000
                                            0.0001 -0.0000 -0.0000  0.0000 -0.0003
                                           -0.0000  0.0000  0.0000 -0.0000 -0.0000
                                           -0.0000  0.0000  0.0000 -0.0000 -0.0000
                                           -0.0000 -0.0000
    17. (1.99976) CR ( 1) O   5           s(100.00%)p 0.00(  0.00%)
                                            1.0000  0.0003  0.0000  0.0000  0.0000
                                            0.0003 -0.0000 -0.0000  0.0000  0.0000
                                           -0.0000 -0.0000  0.0000  0.0000 -0.0000
                                           -0.0000  0.0000 -0.0000 -0.0000 -0.0000
                                           -0.0000  0.0000
    18. (1.66581) LP ( 1) N   2           s(  0.00%)p 1.00( 99.99%)d 0.00(  0.01%)
                                            0.0000  0.0003 -0.0000  0.0000  0.0000
                                           -0.0000  0.0000 -0.0000 -0.0000 -0.0000
                                           -0.0000 -0.0000  0.0000 -0.9995 -0.0231
                                           -0.0182 -0.0009 -0.0000 -0.0090  0.0064
                                            0.0000 -0.0000
    19. (1.98437) LP ( 1) O   5           s( 60.28%)p 0.66( 39.71%)d 0.00(  0.01%)
                                           -0.0004  0.7760  0.0240 -0.0008  0.0000
                                            0.5692 -0.0046 -0.0029  0.0053  0.2702
                                           -0.0032 -0.0018  0.0025  0.0001 -0.0000
                                           -0.0000  0.0000 -0.0063 -0.0000 -0.0000
                                           -0.0059  0.0062
    20. (1.84927) LP ( 2) O   5           s(  0.02%)p99.99( 99.91%)d 3.99(  0.07%)
                                            0.0001  0.0117  0.0023 -0.0063  0.0001
                                           -0.4416 -0.0074  0.0033  0.0022  0.8966
                                            0.0127  0.0036 -0.0010 -0.0002 -0.0000
                                           -0.0000  0.0000 -0.0167  0.0000 -0.0000
                                            0.0211 -0.0007
    21. (0.00262) RY*( 1) C   1           s(  0.59%)p99.99( 88.43%)d18.64( 10.98%)
                                           -0.0000  0.0032  0.0732 -0.0223 -0.0058
                                           -0.0132  0.4948 -0.0878 -0.0103  0.0209
                                           -0.7879  0.0926  0.0414 -0.0000 -0.0000
                                           -0.0001 -0.0000  0.1413 -0.0002 -0.0000
                                           -0.2997  0.0001
    22. (0.00089) RY*( 2) C   1           s(  0.00%)p 1.00( 12.47%)d 7.02( 87.53%)
                                            0.0000  0.0000 -0.0006  0.0007  0.0000
                                            0.0000  0.0008  0.0005 -0.0002  0.0000
                                            0.0005 -0.0002 -0.0004 -0.0198  0.2973
                                           -0.1773  0.0671 -0.0001 -0.8342 -0.4236
                                           -0.0001  0.0004
    23. (0.00059) RY*( 3) C   1           s(  7.21%)p12.82( 92.38%)d 0.06(  0.41%)
                                            0.0000 -0.0083  0.2680 -0.0037  0.0137
                                           -0.0467 -0.8123 -0.0351  0.1850 -0.0283
                                           -0.4702  0.0462  0.0475 -0.0000  0.0013
                                           -0.0003  0.0001  0.0618 -0.0006 -0.0003
                                            0.0143 -0.0088
    24. (0.00024) RY*( 4) C   1           s( 37.39%)p 1.26( 46.93%)d 0.42( 15.68%)
                                            0.0000 -0.0031  0.2175  0.5700 -0.0412
                                           -0.0141 -0.0205  0.5303 -0.2574 -0.0084
                                            0.0240 -0.0170 -0.3468  0.0000 -0.0011
                                            0.0007  0.0000  0.3587  0.0002  0.0002
                                           -0.1160 -0.1212
    25. (0.00017) RY*( 5) C   1           s( 34.32%)p 1.49( 51.07%)d 0.43( 14.60%)
                                            0.0000 -0.0028  0.5377 -0.2034 -0.1127
                                           -0.0061  0.0716  0.0415 -0.1806  0.0028
                                            0.1348  0.6724 -0.0292 -0.0000 -0.0010
                                           -0.0001 -0.0002 -0.2980 -0.0007 -0.0004
                                           -0.0300 -0.2373
    26. (0.00011) RY*( 6) C   1           s(  0.00%)p 1.00( 87.41%)d 0.14( 12.59%)
                                           -0.0000 -0.0000  0.0009  0.0007  0.0000
                                            0.0000  0.0008  0.0007 -0.0001  0.0000
                                            0.0008  0.0004 -0.0002 -0.0016  0.7193
                                           -0.5679  0.1851 -0.0002  0.2839  0.2129
                                           -0.0008 -0.0002
    27. (0.00005) RY*( 7) C   1           s( 13.18%)p 3.81( 50.19%)d 2.78( 36.63%)
    28. (0.00002) RY*( 8) C   1           s(  0.00%)p 1.00( 20.85%)d 3.80( 79.15%)
    29. (0.00000) RY*( 9) C   1           s(  4.20%)p22.48( 94.37%)d 0.34(  1.43%)
    30. (0.00000) RY*(10) C   1           s( 97.20%)p 0.02(  2.13%)d 0.01(  0.67%)
    31. (0.00000) RY*(11) C   1           s(  0.00%)p 1.00( 84.44%)d 0.18( 15.56%)
    32. (0.00000) RY*(12) C   1           s(  0.00%)p 1.00( 94.90%)d 0.05(  5.10%)
    33. (0.00000) RY*(13) C   1           s( 10.47%)p 2.49( 26.09%)d 6.06( 63.44%)
    34. (0.00000) RY*(14) C   1           s( 41.79%)p 1.36( 56.71%)d 0.04(  1.50%)
    35. (0.00000) RY*(15) C   1           s( 42.87%)p 1.23( 52.65%)d 0.10(  4.48%)
    36. (0.00001) RY*(16) C   1           s(  3.94%)p 7.85( 30.88%)d16.56( 65.18%)
    37. (0.00001) RY*(17) C   1           s(  6.74%)p 1.26(  8.51%)d12.57( 84.75%)
    38. (0.00474) RY*( 1) N   2           s(  0.00%)p 1.00( 97.15%)d 0.03(  2.85%)
                                           -0.0000 -0.0000  0.0001 -0.0000 -0.0000
                                            0.0000  0.0002 -0.0002  0.0000  0.0000
                                            0.0001  0.0002 -0.0000 -0.0230  0.9816
                                           -0.0856 -0.0136  0.0000  0.1415 -0.0920
                                           -0.0000 -0.0001
    39. (0.00230) RY*( 2) N   2           s( 25.66%)p 2.71( 69.56%)d 0.19(  4.78%)
                                           -0.0000 -0.0019  0.5015 -0.0715 -0.0008
                                            0.0067  0.6954 -0.2407  0.0993 -0.0007
                                            0.3671  0.0093 -0.0970  0.0000 -0.0003
                                           -0.0000  0.0001 -0.1223 -0.0002  0.0001
                                           -0.1811 -0.0073
    40. (0.00156) RY*( 3) N   2           s( 55.80%)p 0.45( 25.07%)d 0.34( 19.13%)
                                           -0.0000 -0.0049  0.7445  0.0604 -0.0006
                                            0.0089 -0.4653  0.1366  0.1094 -0.0008
                                           -0.0024 -0.0343 -0.0478 -0.0000  0.0000
                                           -0.0001  0.0000  0.4103 -0.0001 -0.0001
                                           -0.1251 -0.0858
    41. (0.00092) RY*( 4) N   2           s(  9.61%)p 7.92( 76.07%)d 1.49( 14.32%)
                                            0.0000  0.0010  0.2593  0.1692  0.0142
                                            0.0046  0.2293 -0.1513  0.1476 -0.0003
                                           -0.7568  0.3001 -0.0241  0.0000 -0.0000
                                           -0.0001  0.0001 -0.0885 -0.0003  0.0000
                                            0.3666  0.0311
    42. (0.00025) RY*( 5) N   2           s( 24.10%)p 1.22( 29.51%)d 1.93( 46.40%)
                                           -0.0000 -0.0041  0.1266  0.4743  0.0009
                                           -0.0216 -0.3041 -0.1475  0.1929  0.0114
                                            0.3566 -0.0929 -0.0850  0.0000  0.0003
                                           -0.0003 -0.0000 -0.5348 -0.0015  0.0015
                                            0.4218 -0.0076
    43. (0.00023) RY*( 6) N   2           s(  0.00%)p 1.00(  1.93%)d50.81( 98.07%)
                                           -0.0000  0.0000  0.0000  0.0008  0.0001
                                           -0.0000 -0.0001 -0.0010  0.0007  0.0000
                                            0.0006 -0.0006 -0.0004 -0.0063 -0.1159
                                            0.0758  0.0085  0.0006  0.9722  0.1884
                                            0.0015  0.0002
    44. (0.00021) RY*( 7) N   2           s(  0.00%)p 1.00(  1.99%)d49.34( 98.01%)
                                           -0.0000 -0.0000  0.0010  0.0016 -0.0003
                                           -0.0001 -0.0021 -0.0013 -0.0014 -0.0000
                                           -0.0008  0.0017  0.0012 -0.0069 -0.1081
                                            0.0901  0.0005 -0.0049  0.1691 -0.9754
                                           -0.0041 -0.0010
    45. (0.00019) RY*( 8) N   2           s(  3.04%)p 8.14( 24.76%)d23.75( 72.20%)
                                           -0.0000 -0.0021  0.1151  0.1229 -0.0451
                                           -0.0084 -0.1915 -0.0667 -0.2573 -0.0108
                                           -0.1934  0.2422  0.2099  0.0000  0.0006
                                           -0.0005 -0.0001 -0.5369  0.0004  0.0076
                                           -0.6410 -0.1513
    46. (0.00007) RY*( 9) N   2           s(  4.88%)p12.65( 61.75%)d 6.83( 33.36%)
    47. (0.00003) RY*(10) N   2           s( 24.23%)p 2.96( 71.71%)d 0.17(  4.06%)
    48. (0.00004) RY*(11) N   2           s( 44.08%)p 0.98( 43.41%)d 0.28( 12.51%)
    49. (0.00000) RY*(12) N   2           s(  0.00%)p 1.00(100.00%)d 0.00(  0.00%)
    50. (0.00000) RY*(13) N   2           s(  6.91%)p11.37( 78.55%)d 2.10( 14.54%)
    51. (0.00000) RY*(14) N   2           s(  0.60%)p99.99( 96.09%)d 5.50(  3.31%)
    52. (0.00000) RY*(15) N   2           s( 98.56%)p 0.01(  1.03%)d 0.00(  0.41%)
    53. (0.00000) RY*(16) N   2           s(  0.00%)p 1.00( 98.95%)d 0.01(  1.05%)
    54. (0.00001) RY*(17) N   2           s(  2.56%)p 8.80( 22.57%)d29.19( 74.87%)
    55. (0.00272) RY*( 1) C   3           s(  0.18%)p99.99( 89.97%)d53.56(  9.85%)
                                            0.0000 -0.0040  0.0101  0.0399  0.0113
                                            0.0245 -0.9307  0.1523  0.0370  0.0065
                                            0.0572 -0.0709  0.0024 -0.0000  0.0004
                                            0.0001  0.0001 -0.3121 -0.0000  0.0002
                                            0.0310 -0.0086
    56. (0.00170) RY*( 2) C   3           s(  0.00%)p 1.00( 57.55%)d 0.74( 42.45%)
                                           -0.0000 -0.0000  0.0006 -0.0004 -0.0001
                                            0.0000 -0.0004 -0.0001  0.0000  0.0001
                                            0.0010  0.0000 -0.0002  0.0200 -0.7369
                                           -0.1227 -0.1304 -0.0003  0.0908 -0.6452
                                           -0.0001 -0.0002
    57. (0.00115) RY*( 3) C   3           s( 20.24%)p 3.88( 78.49%)d 0.06(  1.27%)
                                            0.0000 -0.0088  0.4484 -0.0357 -0.0031
                                           -0.0111  0.0201 -0.1232  0.0785  0.0545
                                            0.8482 -0.1864 -0.0769  0.0000  0.0011
                                            0.0001  0.0001  0.0960 -0.0001  0.0005
                                           -0.0209 -0.0548
    58. (0.00023) RY*( 4) C   3           s( 32.90%)p 1.89( 62.05%)d 0.15(  5.05%)
                                           -0.0000 -0.0011  0.4460  0.3579 -0.0448
                                           -0.0023  0.0402 -0.0004 -0.0170 -0.0006
                                           -0.2983 -0.5046  0.5244  0.0000 -0.0002
                                            0.0026  0.0001  0.0096  0.0002 -0.0006
                                            0.0304 -0.2225
    59. (0.00022) RY*( 5) C   3           s(  0.00%)p 1.00( 90.13%)d 0.11(  9.87%)
                                            0.0000 -0.0000  0.0014  0.0008 -0.0001
                                           -0.0000  0.0001  0.0003 -0.0000  0.0000
                                           -0.0008 -0.0013  0.0012 -0.0027 -0.1096
                                           -0.9422  0.0404  0.0001 -0.1526  0.2745
                                            0.0004 -0.0005
    60. (0.00010) RY*( 6) C   3           s( 25.85%)p 1.20( 31.10%)d 1.67( 43.05%)
    61. (0.00005) RY*( 7) C   3           s(  1.65%)p27.02( 44.52%)d32.67( 53.83%)
    62. (0.00003) RY*( 8) C   3           s( 30.16%)p 2.13( 64.18%)d 0.19(  5.66%)
    63. (0.00002) RY*( 9) C   3           s(  0.00%)p 1.00( 21.04%)d 3.75( 78.96%)
    64. (0.00000) RY*(10) C   3           s(  2.22%)p32.21( 71.36%)d11.93( 26.43%)
    65. (0.00000) RY*(11) C   3           s( 99.00%)p 0.01(  0.88%)d 0.00(  0.12%)
    66. (0.00000) RY*(12) C   3           s(  0.00%)p 1.00( 88.87%)d 0.13( 11.13%)
    67. (0.00000) RY*(13) C   3           s( 46.97%)p 1.00( 46.96%)d 0.13(  6.07%)
    68. (0.00000) RY*(14) C   3           s( 22.94%)p 2.96( 67.99%)d 0.40(  9.07%)
    69. (0.00000) RY*(15) C   3           s(  0.00%)p 1.00( 42.48%)d 1.35( 57.52%)
    70. (0.00000) RY*(16) C   3           s( 17.07%)p 1.63( 27.80%)d 3.23( 55.12%)
    71. (0.00000) RY*(17) C   3           s(  0.73%)p20.44( 15.02%)d99.99( 84.24%)
    72. (0.01266) RY*( 1) C   4           s( 11.74%)p 7.23( 84.87%)d 0.29(  3.40%)
                                            0.0000  0.0463  0.3329  0.0595 -0.0296
                                            0.0829  0.8469 -0.0174  0.0701  0.0081
                                            0.3385 -0.0617  0.0301  0.0000  0.0001
                                           -0.0000  0.0000 -0.0940 -0.0001 -0.0000
                                            0.1580  0.0131
    73. (0.00790) RY*( 2) C   4           s( 29.32%)p 0.61( 18.02%)d 1.80( 52.67%)
                                           -0.0000  0.0152  0.5369 -0.0676 -0.0083
                                           -0.0064 -0.1649 -0.2075  0.0336  0.0667
                                            0.2906  0.1388  0.0246 -0.0000 -0.0001
                                           -0.0001  0.0000  0.4249  0.0003  0.0000
                                           -0.5879  0.0227
    74. (0.00594) RY*( 3) C   4           s(  0.00%)p 1.00(  4.71%)d20.23( 95.29%)
                                            0.0000  0.0000 -0.0002  0.0002 -0.0000
                                            0.0000  0.0001 -0.0000 -0.0001 -0.0000
                                            0.0001 -0.0000  0.0000 -0.0529 -0.1356
                                           -0.1469  0.0658 -0.0002  0.9737  0.0696
                                            0.0003  0.0002
    75. (0.00304) RY*( 4) C   4           s( 16.88%)p 4.15( 70.04%)d 0.78( 13.09%)
                                            0.0000 -0.0078  0.4029  0.0794  0.0065
                                            0.0436  0.1593  0.1861  0.0773  0.0475
                                           -0.7566  0.2070  0.1224 -0.0000  0.0001
                                           -0.0000  0.0000 -0.2596  0.0001  0.0000
                                           -0.2483  0.0428
    76. (0.00047) RY*( 5) C   4           s( 36.36%)p 0.96( 34.97%)d 0.79( 28.67%)
                                            0.0000  0.0085  0.5781  0.1636  0.0509
                                            0.0075 -0.4520  0.2462 -0.0615  0.0253
                                            0.2523 -0.1291  0.0028  0.0000 -0.0008
                                            0.0001  0.0001 -0.3571 -0.0002 -0.0001
                                            0.3876  0.0944
    77. (0.00038) RY*( 6) C   4           s(  0.00%)p 1.00( 97.90%)d 0.02(  2.10%)
                                            0.0000  0.0000  0.0005  0.0002  0.0004
                                           -0.0000 -0.0005  0.0002  0.0004  0.0000
                                            0.0001 -0.0003 -0.0006 -0.0399  0.9421
                                           -0.0637 -0.2928  0.0003  0.1415 -0.0316
                                            0.0005  0.0004
    78. (0.00018) RY*( 7) C   4           s(  8.26%)p 7.27( 60.11%)d 3.83( 31.63%)
                                           -0.0000  0.0047  0.1241 -0.0778  0.2473
                                           -0.0131  0.0289  0.1165  0.3915  0.0051
                                           -0.2198 -0.2242 -0.5785  0.0000 -0.0009
                                           -0.0002  0.0007  0.4187 -0.0001 -0.0001
                                            0.2214  0.3032
    79. (0.00008) RY*( 8) C   4           s( 17.74%)p 2.91( 51.59%)d 1.73( 30.67%)
    80. (0.00004) RY*( 9) C   4           s(  5.64%)p10.23( 57.71%)d 6.50( 36.65%)
    81. (0.00001) RY*(10) C   4           s(  0.00%)p 1.00(  0.81%)d99.99( 99.19%)
    82. (0.00000) RY*(11) C   4           s(  0.00%)p 1.00( 97.20%)d 0.03(  2.80%)
    83. (0.00000) RY*(12) C   4           s(  0.00%)p 1.00( 99.85%)d 0.00(  0.15%)
    84. (0.00000) RY*(13) C   4           s( 93.38%)p 0.03(  3.20%)d 0.04(  3.42%)
    85. (0.00000) RY*(14) C   4           s(  1.38%)p64.94( 89.50%)d 6.62(  9.12%)
    86. (0.00000) RY*(15) C   4           s( 75.52%)p 0.13( 10.06%)d 0.19( 14.42%)
    87. (0.00000) RY*(16) C   4           s(  1.28%)p71.60( 91.78%)d 5.42(  6.94%)
    88. (0.00001) RY*(17) C   4           s(  2.01%)p14.46( 29.03%)d34.36( 68.96%)
    89. (0.00298) RY*( 1) O   5           s( 10.45%)p 8.45( 88.27%)d 0.12(  1.28%)
                                           -0.0000  0.0027  0.2991  0.1226  0.0012
                                           -0.0189  0.4346 -0.1053 -0.0100  0.0035
                                           -0.8175 -0.1118 -0.0385 -0.0000 -0.0000
                                            0.0000 -0.0000 -0.0434  0.0000  0.0000
                                            0.1043 -0.0001
    90. (0.00102) RY*( 2) O   5           s(  0.00%)p 1.00( 98.26%)d 0.02(  1.74%)
                                            0.0000  0.0000  0.0018 -0.0000 -0.0000
                                           -0.0001 -0.0004  0.0001  0.0001 -0.0001
                                            0.0003  0.0005  0.0001  0.0090  0.9614
                                           -0.2295  0.0749 -0.0001  0.1281 -0.0315
                                           -0.0001  0.0000
    91. (0.00081) RY*( 3) O   5           s( 83.69%)p 0.19( 15.50%)d 0.01(  0.81%)
                                           -0.0000  0.0106  0.9119  0.0719 -0.0067
                                           -0.0403 -0.0706  0.0823  0.0789 -0.0274
                                            0.2548  0.2477  0.0913 -0.0000 -0.0019
                                            0.0004 -0.0001 -0.0709 -0.0002  0.0000
                                           -0.0544  0.0116
    92. (0.00013) RY*( 4) O   5           s(  7.15%)p12.74( 91.11%)d 0.24(  1.74%)
                                            0.0000 -0.0104 -0.0362  0.2645  0.0116
                                            0.0225  0.7882 -0.1328 -0.1289  0.0108
                                            0.4932 -0.0769 -0.0762  0.0000  0.0003
                                           -0.0002  0.0000  0.0032  0.0001 -0.0000
                                            0.1225 -0.0491
    93. (0.00005) RY*( 5) O   5           s( 25.55%)p 1.35( 34.47%)d 1.56( 39.98%)
    94. (0.00002) RY*( 6) O   5           s(  6.69%)p10.76( 72.04%)d 3.18( 21.26%)
    95. (0.00002) RY*( 7) O   5           s(  8.35%)p10.83( 90.38%)d 0.15(  1.27%)
    96. (0.00000) RY*( 8) O   5           s( 11.42%)p 6.62( 75.60%)d 1.14( 12.98%)
    97. (0.00000) RY*( 9) O   5           s(  2.36%)p40.27( 95.10%)d 1.08(  2.54%)
    98. (0.00000) RY*(10) O   5           s( 99.53%)p 0.00(  0.46%)d 0.00(  0.01%)
    99. (0.00000) RY*(11) O   5           s(  0.00%)p 1.00(100.00%)
   100. (0.00000) RY*(12) O   5           s(  0.00%)p 1.00(100.00%)
   101. (0.00000) RY*(13) O   5           s( 39.32%)p 0.55( 21.65%)d 0.99( 39.04%)
   102. (0.00000) RY*(14) O   5           s(  0.00%)p 1.00(  1.74%)d56.63( 98.26%)
   103. (0.00000) RY*(15) O   5           s(  0.00%)p 1.00(  0.12%)d99.99( 99.88%)
   104. (0.00000) RY*(16) O   5           s(  3.46%)p 1.90(  6.58%)d25.98( 89.96%)
   105. (0.00001) RY*(17) O   5           s(  1.79%)p 5.19(  9.27%)d49.76( 88.94%)
   106. (0.00122) RY*( 1) H   6           s( 99.09%)p 0.01(  0.91%)
                                           -0.0018  0.9954  0.0022 -0.0016 -0.0377
                                            0.0791  0.0383
   107. (0.00015) RY*( 2) H   6           s( 52.96%)p 0.89( 47.04%)
                                            0.0041 -0.0158  0.7071  0.1713  0.4290
                                            0.1365  0.5175
   108. (0.00015) RY*( 3) H   6           s(  7.42%)p12.47( 92.58%)
                                           -0.0033  0.0768 -0.1345  0.2241  0.2400
                                           -0.9187  0.1554
   109. (0.00009) RY*( 4) H   6           s( 78.97%)p 0.27( 21.03%)
   110. (0.00007) RY*( 5) H   6           s( 45.63%)p 1.19( 54.37%)
   111. (0.00004) RY*( 6) H   6           s( 15.98%)p 5.26( 84.02%)
   112. (0.00104) RY*( 1) H   7           s( 97.38%)p 0.03(  2.62%)
                                           -0.0015  0.9867  0.0083  0.0055 -0.1616
                                           -0.0112  0.0001
   113. (0.00019) RY*( 2) H   7           s( 75.95%)p 0.32( 24.05%)
                                            0.0006 -0.0885  0.8448  0.1949 -0.4851
                                           -0.0718  0.0043
   114. (0.00017) RY*( 3) H   7           s(  0.00%)p 1.00(100.00%)
                                           -0.0000 -0.0002  0.0040  0.0005 -0.0015
                                           -0.0009 -1.0000
   115. (0.00013) RY*( 4) H   7           s( 81.79%)p 0.22( 18.21%)
                                           -0.0025 -0.0669 -0.4173  0.7996 -0.4106
                                            0.1162 -0.0008
   116. (0.00007) RY*( 5) H   7           s( 39.11%)p 1.56( 60.89%)
   117. (0.00003) RY*( 6) H   7           s(  5.82%)p16.20( 94.18%)
   118. (0.00122) RY*( 1) H   8           s( 99.08%)p 0.01(  0.92%)
                                           -0.0018  0.9954  0.0022 -0.0016 -0.0375
                                            0.0792 -0.0386
   119. (0.00015) RY*( 2) H   8           s( 52.91%)p 0.89( 47.09%)
                                            0.0041 -0.0161  0.7068  0.1708  0.4293
                                            0.1362 -0.5178
   120. (0.00015) RY*( 3) H   8           s(  7.41%)p12.49( 92.59%)
                                           -0.0033  0.0769 -0.1339  0.2242  0.2401
                                           -0.9190 -0.1540
   121. (0.00009) RY*( 4) H   8           s( 79.03%)p 0.27( 20.97%)
   122. (0.00007) RY*( 5) H   8           s( 45.63%)p 1.19( 54.37%)
   123. (0.00004) RY*( 6) H   8           s( 15.98%)p 5.26( 84.02%)
   124. (0.00096) RY*( 1) H   9           s( 99.78%)p 0.00(  0.22%)
                                           -0.0022  0.9989  0.0033 -0.0004  0.0043
                                           -0.0441 -0.0140
   125. (0.00017) RY*( 2) H   9           s( 32.59%)p 2.07( 67.41%)
                                            0.0019 -0.0325  0.5699 -0.0008  0.4028
                                           -0.4859 -0.5251
   126. (0.00013) RY*( 3) H   9           s( 10.17%)p 8.83( 89.83%)
                                            0.0021 -0.0152  0.3034 -0.0969 -0.8415
                                           -0.4284  0.0814
   127. (0.00008) RY*( 4) H   9           s( 76.06%)p 0.31( 23.94%)
   128. (0.00007) RY*( 5) H   9           s( 59.13%)p 0.69( 40.87%)
   129. (0.00003) RY*( 6) H   9           s( 22.30%)p 3.48( 77.70%)
   130. (0.00096) RY*( 1) H  10           s( 99.78%)p 0.00(  0.22%)
                                           -0.0022  0.9989  0.0033 -0.0004  0.0043
                                           -0.0440  0.0139
   131. (0.00017) RY*( 2) H  10           s( 32.60%)p 2.07( 67.40%)
                                            0.0019 -0.0324  0.5700 -0.0008  0.4025
                                           -0.4861  0.5251
   132. (0.00013) RY*( 3) H  10           s( 10.19%)p 8.82( 89.81%)
                                            0.0021 -0.0151  0.3035 -0.0976 -0.8415
                                           -0.4282 -0.0820
   133. (0.00008) RY*( 4) H  10           s( 76.12%)p 0.31( 23.88%)
   134. (0.00007) RY*( 5) H  10           s( 59.07%)p 0.69( 40.93%)
   135. (0.00003) RY*( 6) H  10           s( 22.27%)p 3.49( 77.73%)
   136. (0.00127) RY*( 1) H  11           s( 97.71%)p 0.02(  2.29%)
                                           -0.0033  0.9884 -0.0068 -0.0076 -0.0987
                                            0.1145 -0.0001
   137. (0.00019) RY*( 2) H  11           s( 53.91%)p 0.85( 46.09%)
                                            0.0035  0.1099  0.5725  0.4464  0.3529
                                           -0.5799 -0.0004
   138. (0.00013) RY*( 3) H  11           s(  0.00%)p 1.00(100.00%)
                                           -0.0000  0.0001  0.0005  0.0001 -0.0003
                                           -0.0002  1.0000
   139. (0.00012) RY*( 4) H  11           s( 94.84%)p 0.05(  5.16%)
                                            0.0022 -0.0193  0.7075 -0.6690  0.0629
                                            0.2182 -0.0002
   140. (0.00003) RY*( 5) H  11           s( 45.27%)p 1.21( 54.73%)
   141. (0.00004) RY*( 6) H  11           s(  8.30%)p11.05( 91.70%)
   142. (0.00235) RY*( 1) H  12           s( 95.80%)p 0.04(  4.20%)
                                           -0.0048  0.9787  0.0052 -0.0018  0.1146
                                           -0.1699  0.0000
   143. (0.00031) RY*( 2) H  12           s( 99.47%)p 0.01(  0.53%)
                                            0.0010 -0.0165  0.9972 -0.0073 -0.0107
                                           -0.0718 -0.0004
   144. (0.00011) RY*( 3) H  12           s( 51.91%)p 0.93( 48.09%)
                                           -0.0126  0.0456  0.0499  0.7172  0.4281
                                            0.5456 -0.0003
   145. (0.00006) RY*( 4) H  12           s( 13.78%)p 6.26( 86.22%)
   146. (0.00007) RY*( 5) H  12           s(  0.00%)p 1.00(100.00%)
   147. (0.00006) RY*( 6) H  12           s( 39.10%)p 1.56( 60.90%)
   148. (0.01708) BD*( 1) C   1 - N   2  
                ( 62.87%)   0.7929* C   1 s( 24.51%)p 3.07( 75.35%)d 0.01(  0.13%)
                                           -0.0001 -0.4942 -0.0307 -0.0000 -0.0004
                                           -0.7426  0.0393  0.0060  0.0035 -0.4472
                                            0.0213  0.0038  0.0021  0.0003 -0.0000
                                            0.0000  0.0000 -0.0271  0.0000  0.0000
                                           -0.0154  0.0193
                ( 37.13%)  -0.6094* N   2 s( 32.39%)p 2.09( 67.57%)d 0.00(  0.03%)
                                            0.0001 -0.5691 -0.0074  0.0017  0.0000
                                            0.7007 -0.0077 -0.0094 -0.0009  0.4296
                                           -0.0027 -0.0066 -0.0006 -0.0002 -0.0000
                                            0.0000  0.0000 -0.0133  0.0000  0.0000
                                           -0.0053  0.0109
   149. (0.01696) BD*( 1) C   1 - H   6  
                ( 40.19%)   0.6340* C   1 s( 25.25%)p 2.96( 74.69%)d 0.00(  0.06%)
                                            0.0000 -0.5025  0.0074 -0.0011 -0.0000
                                            0.4544 -0.0030 -0.0031  0.0000 -0.2021
                                           -0.0138 -0.0020  0.0000 -0.7066 -0.0085
                                           -0.0032 -0.0016  0.0062  0.0183 -0.0078
                                           -0.0030 -0.0127
                ( 59.81%)  -0.7734* H   6 s( 99.96%)p 0.00(  0.04%)
                                           -0.9998 -0.0031 -0.0004  0.0001 -0.0103
                                            0.0034  0.0160
   150. (0.00688) BD*( 1) C   1 - H   7  
                ( 39.87%)   0.6315* C   1 s( 25.07%)p 2.99( 74.87%)d 0.00(  0.06%)
                                           -0.0001  0.5007 -0.0035 -0.0024 -0.0004
                                            0.1779  0.0165 -0.0007 -0.0010 -0.8466
                                           -0.0083 -0.0010 -0.0005  0.0007  0.0000
                                            0.0000  0.0000 -0.0112  0.0000 -0.0000
                                           -0.0184 -0.0117
                ( 60.13%)  -0.7754* H   7 s( 99.96%)p 0.00(  0.04%)
                                            0.9998  0.0014  0.0003 -0.0004 -0.0017
                                            0.0205 -0.0000
   151. (0.01697) BD*( 1) C   1 - H   8  
                ( 40.19%)   0.6340* C   1 s( 25.25%)p 2.96( 74.69%)d 0.00(  0.06%)
                                            0.0000 -0.5025  0.0074 -0.0011 -0.0000
                                            0.4543 -0.0030 -0.0031  0.0000 -0.2010
                                           -0.0137 -0.0020  0.0000  0.7070  0.0085
                                            0.0032  0.0016  0.0062 -0.0183  0.0077
                                           -0.0030 -0.0128
                ( 59.81%)  -0.7734* H   8 s( 99.96%)p 0.00(  0.04%)
                                           -0.9998 -0.0031 -0.0004  0.0001 -0.0103
                                            0.0034 -0.0160
   152. (0.02201) BD*( 1) N   2 - C   3  
                ( 36.68%)   0.6057* N   2 s( 31.90%)p 2.13( 68.07%)d 0.00(  0.03%)
                                            0.0001 -0.5648 -0.0033  0.0018  0.0000
                                            0.0463 -0.0018 -0.0000  0.0007 -0.8236
                                            0.0098  0.0113  0.0006 -0.0001 -0.0000
                                            0.0000  0.0000  0.0014  0.0000 -0.0000
                                            0.0129  0.0109
                ( 63.32%)  -0.7957* C   3 s( 23.76%)p 3.20( 76.10%)d 0.01(  0.14%)
                                           -0.0001 -0.4865 -0.0300  0.0002 -0.0003
                                           -0.0371  0.0046 -0.0009 -0.0000  0.8703
                                           -0.0457 -0.0069 -0.0016  0.0002 -0.0000
                                            0.0000  0.0000  0.0022  0.0000 -0.0000
                                            0.0316  0.0191
   153. (0.07804) BD*( 1) N   2 - C   4  
                ( 36.06%)   0.6005* N   2 s( 35.68%)p 1.80( 64.28%)d 0.00(  0.05%)
                                            0.0000 -0.5973  0.0027 -0.0031 -0.0001
                                           -0.7114  0.0116  0.0071 -0.0012  0.3694
                                           -0.0105 -0.0021  0.0010 -0.0002 -0.0000
                                            0.0000  0.0000  0.0145 -0.0000  0.0000
                                           -0.0109  0.0110
                ( 63.94%)  -0.7997* C   4 s( 33.16%)p 2.01( 66.72%)d 0.00(  0.12%)
                                           -0.0001 -0.5755  0.0149 -0.0148 -0.0006
                                            0.6964 -0.0373 -0.0053  0.0032 -0.4249
                                            0.0135  0.0009 -0.0047  0.0001 -0.0000
                                            0.0000  0.0000  0.0266 -0.0000  0.0000
                                           -0.0164  0.0148
   154. (0.01312) BD*( 1) C   3 - H   9  
                ( 40.37%)   0.6354* C   3 s( 25.18%)p 2.97( 74.76%)d 0.00(  0.06%)
                                            0.0001 -0.5018  0.0065 -0.0009 -0.0001
                                            0.4235  0.0102  0.0000 -0.0002 -0.2614
                                            0.0124  0.0027 -0.0009  0.7068  0.0081
                                            0.0027  0.0007  0.0055 -0.0175  0.0096
                                           -0.0048 -0.0127
                ( 59.63%)  -0.7722* H   9 s( 99.96%)p 0.00(  0.04%)
                                           -0.9998 -0.0021 -0.0004  0.0003 -0.0077
                                            0.0068 -0.0160
   155. (0.01312) BD*( 1) C   3 - H  10  
                ( 40.37%)   0.6354* C   3 s( 25.18%)p 2.97( 74.76%)d 0.00(  0.06%)
                                            0.0001 -0.5018  0.0066 -0.0009 -0.0001
                                            0.4239  0.0102  0.0000 -0.0002 -0.2610
                                            0.0124  0.0027 -0.0009 -0.7067 -0.0081
                                           -0.0027 -0.0007  0.0055  0.0176 -0.0095
                                           -0.0048 -0.0127
                ( 59.63%)  -0.7722* H  10 s( 99.96%)p 0.00(  0.04%)
                                           -0.9998 -0.0021 -0.0004  0.0003 -0.0077
                                            0.0068  0.0160
   156. (0.00798) BD*( 1) C   3 - H  11  
                ( 38.19%)   0.6180* C   3 s( 25.96%)p 2.85( 73.98%)d 0.00(  0.06%)
                                            0.0000 -0.5095  0.0038  0.0016  0.0004
                                           -0.7990 -0.0170 -0.0011  0.0004 -0.3180
                                            0.0040 -0.0024 -0.0019 -0.0003 -0.0000
                                           -0.0000 -0.0000 -0.0130 -0.0000 -0.0000
                                           -0.0181  0.0110
                ( 61.81%)  -0.7862* H  11 s( 99.96%)p 0.00(  0.04%)
                                           -0.9998 -0.0020 -0.0001  0.0004  0.0196
                                            0.0056  0.0000
   157. (0.28822) BD*( 1) C   4 - O   5  
                ( 70.76%)   0.8412* C   4 s(  0.00%)p 1.00( 99.53%)d 0.00(  0.47%)
                                            0.0000  0.0004 -0.0000  0.0000 -0.0000
                                            0.0004 -0.0001 -0.0000  0.0000  0.0004
                                           -0.0000 -0.0000 -0.0000  0.9968  0.0352
                                            0.0211 -0.0021  0.0000  0.0600  0.0337
                                            0.0000 -0.0000
                ( 29.24%)  -0.5408* O   5 s(  0.00%)p 1.00( 99.89%)d 0.00(  0.11%)
                                            0.0000  0.0005 -0.0000  0.0000  0.0000
                                           -0.0006  0.0000 -0.0000 -0.0000 -0.0002
                                            0.0000 -0.0000 -0.0000  0.9994 -0.0051
                                            0.0015 -0.0037  0.0000 -0.0304 -0.0146
                                            0.0000 -0.0000
   158. (0.00568) BD*( 2) C   4 - O   5  
                ( 64.30%)   0.8019* C   4 s( 34.87%)p 1.86( 64.96%)d 0.00(  0.17%)
                                           -0.0001  0.5861 -0.0719 -0.0045 -0.0022
                                            0.7102 -0.0711 -0.0016  0.0028  0.3741
                                           -0.0149 -0.0072  0.0007 -0.0007 -0.0000
                                           -0.0000  0.0000  0.0307 -0.0000 -0.0000
                                            0.0177 -0.0208
                ( 35.70%)  -0.5975* O   5 s( 39.94%)p 1.50( 59.95%)d 0.00(  0.11%)
                                            0.0000  0.6303 -0.0462  0.0017 -0.0000
                                           -0.6911  0.0186  0.0004 -0.0010 -0.3485
                                            0.0113 -0.0028 -0.0009 -0.0008  0.0000
                                           -0.0000  0.0000  0.0229  0.0000  0.0000
                                            0.0185 -0.0155
   159. (0.06750) BD*( 1) C   4 - H  12  
                ( 43.06%)   0.6562* C   4 s( 32.46%)p 2.08( 67.46%)d 0.00(  0.08%)
                                           -0.0004  0.5674  0.0517 -0.0068  0.0006
                                           -0.0339 -0.0226  0.0004  0.0028 -0.8196
                                           -0.0250  0.0234  0.0021  0.0001 -0.0000
                                           -0.0000 -0.0000  0.0076 -0.0000 -0.0000
                                           -0.0252 -0.0103
                ( 56.94%)  -0.7546* H  12 s( 99.94%)p 0.00(  0.06%)
                                            0.9996  0.0095  0.0009 -0.0003 -0.0026
                                            0.0246 -0.0000


 NHO Directionality and "Bond Bending" (deviations from line of nuclear centers)

         [Thresholds for printing:  angular deviation  >  1.0 degree]
                                    hybrid p-character > 25.0%
                                    orbital occupancy  >  0.10e

                                Line of Centers        Hybrid 1              Hybrid 2
                                ---------------  -------------------   ------------------
                NBO               Theta   Phi    Theta   Phi    Dev    Theta   Phi    Dev
 ========================================================================================
     2. BD (   1) C   1 - H   6    35.9  158.5    34.7  154.1   2.8      --     --    --
     3. BD (   1) C   1 - H   7    90.0  281.2    90.0  282.7   1.5      --     --    --
     4. BD (   1) C   1 - H   8   144.2  158.6   145.3  154.2   2.8      --     --    --
     6. BD (   1) N   2 - C   4    90.0  332.6     --     --    --      90.0  147.7   4.9
     7. BD (   1) C   3 - H   9   144.3  146.1   145.2  150.3   2.6      --     --    --
     8. BD (   1) C   3 - H  10    35.7  146.1    34.8  150.4   2.6      --     --    --
    10. BD (   1) C   4 - O   5    90.0   26.8     0.0    0.0  90.0      0.0    0.0  90.0
    11. BD (   2) C   4 - O   5    90.0   26.8    90.1   28.8   2.1      --     --    --
    12. BD (   1) C   4 - H  12    90.0  264.6    90.0  266.3   1.7      --     --    --
    18. LP (   1) N   2             --     --    180.0    0.0   --       --     --    --
    19. LP (   1) O   5             --     --     90.0   25.3   --       --     --    --
    20. LP (   2) O   5             --     --     90.0  115.9   --       --     --    --
   157. BD*(   1) C   4 - O   5    90.0   26.8     0.0    0.0  90.0      0.0    0.0  90.0


 Second Order Perturbation Theory Analysis of Fock Matrix in NBO Basis

     Threshold for printing:   0.50 kcal/mol
                                                                              E(2)  E(j)-E(i) F(i,j)
         Donor NBO (i)                     Acceptor NBO (j)                 kcal/mol   a.u.    a.u. 
 ===================================================================================================

 within unit  1
   1. BD (   1) C   1 - N   2        / 55. RY*(   1) C   3                    1.01    1.54    0.035
   1. BD (   1) C   1 - N   2        / 75. RY*(   4) C   4                    1.63    1.80    0.048
   1. BD (   1) C   1 - N   2        /152. BD*(   1) N   2 - C   3            0.68    1.09    0.024
   1. BD (   1) C   1 - N   2        /153. BD*(   1) N   2 - C   4            0.78    1.23    0.028
   1. BD (   1) C   1 - N   2        /156. BD*(   1) C   3 - H  11            0.67    1.17    0.025
   1. BD (   1) C   1 - N   2        /158. BD*(   2) C   4 - O   5            2.33    1.37    0.050
   2. BD (   1) C   1 - H   6        / 38. RY*(   1) N   2                    0.71    1.18    0.026
   2. BD (   1) C   1 - H   6        /153. BD*(   1) N   2 - C   4            1.85    1.00    0.039
   3. BD (   1) C   1 - H   7        /152. BD*(   1) N   2 - C   3            4.25    0.88    0.055
   4. BD (   1) C   1 - H   8        / 38. RY*(   1) N   2                    0.71    1.18    0.026
   4. BD (   1) C   1 - H   8        /153. BD*(   1) N   2 - C   4            1.85    1.00    0.039
   5. BD (   1) N   2 - C   3        / 21. RY*(   1) C   1                    0.95    1.56    0.034
   5. BD (   1) N   2 - C   3        / 72. RY*(   1) C   4                    1.60    1.92    0.050
   5. BD (   1) N   2 - C   3        / 75. RY*(   4) C   4                    0.56    1.79    0.028
   5. BD (   1) N   2 - C   3        /148. BD*(   1) C   1 - N   2            0.59    1.08    0.023
   5. BD (   1) N   2 - C   3        /150. BD*(   1) C   1 - H   7            0.84    1.13    0.028
   5. BD (   1) N   2 - C   3        /153. BD*(   1) N   2 - C   4            1.01    1.21    0.032
   5. BD (   1) N   2 - C   3        /159. BD*(   1) C   4 - H  12            1.45    1.10    0.036
   6. BD (   1) N   2 - C   4        / 21. RY*(   1) C   1                    0.86    1.64    0.034
   6. BD (   1) N   2 - C   4        / 55. RY*(   1) C   3                    0.69    1.62    0.030
   6. BD (   1) N   2 - C   4        / 89. RY*(   1) O   5                    0.80    1.48    0.031
   6. BD (   1) N   2 - C   4        /148. BD*(   1) C   1 - N   2            1.11    1.17    0.032
   6. BD (   1) N   2 - C   4        /152. BD*(   1) N   2 - C   3            1.01    1.17    0.031
   6. BD (   1) N   2 - C   4        /158. BD*(   2) C   4 - O   5            0.95    1.44    0.033
   7. BD (   1) C   3 - H   9        / 38. RY*(   1) N   2                    0.66    1.17    0.025
   7. BD (   1) C   3 - H   9        /153. BD*(   1) N   2 - C   4            1.76    0.99    0.038
   8. BD (   1) C   3 - H  10        / 38. RY*(   1) N   2                    0.66    1.17    0.025
   8. BD (   1) C   3 - H  10        /153. BD*(   1) N   2 - C   4            1.76    0.99    0.038
   9. BD (   1) C   3 - H  11        /148. BD*(   1) C   1 - N   2            4.44    0.86    0.055
  10. BD (   1) C   4 - O   5        /157. BD*(   1) C   4 - O   5            1.21    0.38    0.021
  11. BD (   2) C   4 - O   5        / 72. RY*(   1) C   4                    1.06    2.23    0.044
  11. BD (   2) C   4 - O   5        /148. BD*(   1) C   1 - N   2            2.05    1.39    0.048
  11. BD (   2) C   4 - O   5        /153. BD*(   1) N   2 - C   4            1.11    1.52    0.037
  12. BD (   1) C   4 - H  12        / 39. RY*(   2) N   2                    0.89    1.80    0.036
  12. BD (   1) C   4 - H  12        / 89. RY*(   1) O   5                    0.95    1.19    0.030
  12. BD (   1) C   4 - H  12        /152. BD*(   1) N   2 - C   3            6.17    0.88    0.066
  13. CR (   1) C   1                / 39. RY*(   2) N   2                    0.63   11.34    0.075
  13. CR (   1) C   1                /112. RY*(   1) H   7                    0.55   10.82    0.069
  13. CR (   1) C   1                /152. BD*(   1) N   2 - C   3            0.83   10.42    0.084
  13. CR (   1) C   1                /153. BD*(   1) N   2 - C   4            0.82   10.55    0.085
  14. CR (   1) N   2                / 23. RY*(   3) C   1                    1.49   15.05    0.134
  14. CR (   1) N   2                / 57. RY*(   3) C   3                    1.44   14.98    0.131
  14. CR (   1) N   2                / 72. RY*(   1) C   4                    0.71   15.37    0.093
  14. CR (   1) N   2                / 73. RY*(   2) C   4                    0.70   15.81    0.094
  14. CR (   1) N   2                / 76. RY*(   5) C   4                    1.09   15.80    0.117
  15. CR (   1) C   3                / 41. RY*(   4) N   2                    0.54   11.58    0.070
  15. CR (   1) C   3                /136. RY*(   1) H  11                    0.71   10.93    0.079
  15. CR (   1) C   3                /148. BD*(   1) C   1 - N   2            0.87   10.41    0.085
  15. CR (   1) C   3                /153. BD*(   1) N   2 - C   4            0.76   10.54    0.081
  16. CR (   1) C   4                /148. BD*(   1) C   1 - N   2            1.26   10.48    0.103
  16. CR (   1) C   4                /152. BD*(   1) N   2 - C   3            1.30   10.48    0.105
  17. CR (   1) O   5                / 72. RY*(   1) C   4                    5.63   20.02    0.301
  18. LP (   1) N   2                / 22. RY*(   2) C   1                    1.04    1.94    0.044
  18. LP (   1) N   2                / 56. RY*(   2) C   3                    1.58    1.20    0.043
  18. LP (   1) N   2                / 74. RY*(   3) C   4                    1.63    1.86    0.054
  18. LP (   1) N   2                / 77. RY*(   6) C   4                    2.24    0.80    0.041
  18. LP (   1) N   2                /149. BD*(   1) C   1 - H   6            5.57    0.63    0.058
  18. LP (   1) N   2                /151. BD*(   1) C   1 - H   8            5.58    0.63    0.058
  18. LP (   1) N   2                /154. BD*(   1) C   3 - H   9            5.25    0.64    0.057
  18. LP (   1) N   2                /155. BD*(   1) C   3 - H  10            5.24    0.64    0.057
  18. LP (   1) N   2                /157. BD*(   1) C   4 - O   5           64.47    0.27    0.119
  19. LP (   1) O   5                / 72. RY*(   1) C   4                   14.03    1.86    0.144
  19. LP (   1) O   5                / 73. RY*(   2) C   4                    0.55    2.30    0.032
  19. LP (   1) O   5                / 80. RY*(   9) C   4                    0.76    4.25    0.051
  19. LP (   1) O   5                / 87. RY*(  16) C   4                    1.56    2.64    0.058
  19. LP (   1) O   5                / 91. RY*(   3) O   5                    0.60    1.37    0.026
  19. LP (   1) O   5                /153. BD*(   1) N   2 - C   4            0.90    1.15    0.029
  19. LP (   1) O   5                /159. BD*(   1) C   4 - H  12            0.99    1.04    0.029
  20. LP (   2) O   5                / 73. RY*(   2) C   4                    3.17    1.86    0.071
  20. LP (   2) O   5                / 76. RY*(   5) C   4                    0.90    1.86    0.038
  20. LP (   2) O   5                /104. RY*(  16) O   5                    0.50    3.30    0.038
  20. LP (   2) O   5                /153. BD*(   1) N   2 - C   4           23.73    0.72    0.119
  20. LP (   2) O   5                /156. BD*(   1) C   3 - H  11            0.52    0.66    0.017
  20. LP (   2) O   5                /159. BD*(   1) C   4 - H  12           21.64    0.61    0.104
 157. BD*(   1) C   4 - O   5        / 74. RY*(   3) C   4                    2.53    1.59    0.148
 157. BD*(   1) C   4 - O   5        / 77. RY*(   6) C   4                    1.20    0.53    0.059
 157. BD*(   1) C   4 - O   5        / 90. RY*(   2) O   5                    1.76    0.75    0.085


 Natural Bond Orbitals (Summary):

                                                            Principal Delocalizations
           NBO                        Occupancy    Energy   (geminal,vicinal,remote)
 ====================================================================================
 Molecular unit  1  (C3H7NO)
     1. BD (   1) C   1 - N   2          1.99016    -0.75784  158(v),75(v),55(v),153(g)
                                                    152(g),156(v)
     2. BD (   1) C   1 - H   6          1.99031    -0.53515  153(v),38(v)
     3. BD (   1) C   1 - H   7          1.98895    -0.54086  152(v)
     4. BD (   1) C   1 - H   8          1.99032    -0.53514  153(v),38(v)
     5. BD (   1) N   2 - C   3          1.98851    -0.74578  72(v),159(v),153(g),21(v)
                                                    150(v),148(g),75(v)
     6. BD (   1) N   2 - C   4          1.98982    -0.83047  148(g),152(g),158(g),21(v)
                                                    89(v),55(v)
     7. BD (   1) C   3 - H   9          1.98921    -0.52581  153(v),38(v)
     8. BD (   1) C   3 - H  10          1.98921    -0.52582  153(v),38(v)
     9. BD (   1) C   3 - H  11          1.98919    -0.52214  148(v)
    10. BD (   1) C   4 - O   5          1.99775    -0.36788  157(g)
    11. BD (   2) C   4 - O   5          1.99530    -1.05401  148(v),153(g),72(g)
    12. BD (   1) C   4 - H  12          1.98118    -0.54456  152(v),89(v),39(v)
    13. CR (   1) C   1                  1.99931   -10.08562  153(v),152(v),39(v),112(v)
    14. CR (   1) N   2                  1.99936   -14.19585  23(v),57(v),76(v),72(v)
                                                    73(v)
    15. CR (   1) C   3                  1.99930   -10.07183  148(v),153(v),136(v),41(v)
    16. CR (   1) C   4                  1.99942   -10.14662  152(v),148(v)
    17. CR (   1) O   5                  1.99976   -18.83765  72(v)
    18. LP (   1) N   2                  1.66581    -0.25854  157(v),151(v),149(v),154(v)
                                                    155(v),77(v),74(v),56(v)
                                                    22(v)
    19. LP (   1) O   5                  1.98437    -0.68598  72(v),87(v),159(v),153(v)
                                                    80(v),91(g),73(v)
    20. LP (   2) O   5                  1.84927    -0.24950  153(v),159(v),73(v),76(v)
                                                    156(r),104(g)
    21. RY*(   1) C   1                  0.00262     0.81334   
    22. RY*(   2) C   1                  0.00089     1.68031   
    23. RY*(   3) C   1                  0.00059     0.85023   
    24. RY*(   4) C   1                  0.00024     1.36070   
    25. RY*(   5) C   1                  0.00017     1.13391   
    26. RY*(   6) C   1                  0.00011     0.77030   
    27. RY*(   7) C   1                  0.00005     2.39867   
    28. RY*(   8) C   1                  0.00002     1.93880   
    29. RY*(   9) C   1                  0.00000     2.73186   
    30. RY*(  10) C   1                  0.00000    22.88317   
    31. RY*(  11) C   1                  0.00000     0.50980   
    32. RY*(  12) C   1                  0.00000     2.76968   
    33. RY*(  13) C   1                  0.00000     1.57074   
    34. RY*(  14) C   1                  0.00000     0.45696   
    35. RY*(  15) C   1                  0.00000     0.81719   
    36. RY*(  16) C   1                  0.00001     1.82541   
    37. RY*(  17) C   1                  0.00001     1.87838   
    38. RY*(   1) N   2                  0.00474     0.64128   
    39. RY*(   2) N   2                  0.00230     1.25253   
    40. RY*(   3) N   2                  0.00156     1.51246   
    41. RY*(   4) N   2                  0.00092     1.51023   
    42. RY*(   5) N   2                  0.00025     1.88309   
    43. RY*(   6) N   2                  0.00023     2.18726   
    44. RY*(   7) N   2                  0.00021     2.17903   
    45. RY*(   8) N   2                  0.00019     2.76288   
    46. RY*(   9) N   2                  0.00007     3.55773   
    47. RY*(  10) N   2                  0.00003     1.60605   
    48. RY*(  11) N   2                  0.00004     1.50324   
    49. RY*(  12) N   2                  0.00000     3.80636   
    50. RY*(  13) N   2                  0.00000     1.94587   
    51. RY*(  14) N   2                  0.00000     3.28049   
    52. RY*(  15) N   2                  0.00000    34.45782   
    53. RY*(  16) N   2                  0.00000     0.58986   
    54. RY*(  17) N   2                  0.00001     2.54038   
    55. RY*(   1) C   3                  0.00272     0.78576   
    56. RY*(   2) C   3                  0.00170     0.93791   
    57. RY*(   3) C   3                  0.00115     0.77949   
    58. RY*(   4) C   3                  0.00023     1.57854   
    59. RY*(   5) C   3                  0.00022     0.46685   
    60. RY*(   6) C   3                  0.00010     2.21696   
    61. RY*(   7) C   3                  0.00005     2.03861   
    62. RY*(   8) C   3                  0.00003     1.11785   
    63. RY*(   9) C   3                  0.00002     2.31206   
    64. RY*(  10) C   3                  0.00000     2.53338   
    65. RY*(  11) C   3                  0.00000    22.59851   
    66. RY*(  12) C   3                  0.00000     2.70189   
    67. RY*(  13) C   3                  0.00000     0.83552   
    68. RY*(  14) C   3                  0.00000     1.04585   
    69. RY*(  15) C   3                  0.00000     1.31231   
    70. RY*(  16) C   3                  0.00000     1.57547   
    71. RY*(  17) C   3                  0.00000     1.81123   
    72. RY*(   1) C   4                  0.01266     1.17899   
    73. RY*(   2) C   4                  0.00790     1.61433   
    74. RY*(   3) C   4                  0.00594     1.59833   
    75. RY*(   4) C   4                  0.00304     1.04313   
    76. RY*(   5) C   4                  0.00047     1.60794   
    77. RY*(   6) C   4                  0.00038     0.53795   
    78. RY*(   7) C   4                  0.00018     3.60427   
    79. RY*(   8) C   4                  0.00008     3.61098   
    80. RY*(   9) C   4                  0.00004     3.56542   
    81. RY*(  10) C   4                  0.00001     1.52385   
    82. RY*(  11) C   4                  0.00000     0.35835   
    83. RY*(  12) C   4                  0.00000     2.53851   
    84. RY*(  13) C   4                  0.00000     0.81659   
    85. RY*(  14) C   4                  0.00000     1.24087   
    86. RY*(  15) C   4                  0.00000    16.80105   
    87. RY*(  16) C   4                  0.00000     1.95445   
    88. RY*(  17) C   4                  0.00001     2.41539   
    89. RY*(   1) O   5                  0.00298     0.64983   
    90. RY*(   2) O   5                  0.00102     0.76422   
    91. RY*(   3) O   5                  0.00081     0.68880   
    92. RY*(   4) O   5                  0.00013     1.13317   
    93. RY*(   5) O   5                  0.00005     3.72932   
    94. RY*(   6) O   5                  0.00002     1.50340   
    95. RY*(   7) O   5                  0.00002     1.86887   
    96. RY*(   8) O   5                  0.00000     3.68649   
    97. RY*(   9) O   5                  0.00000     4.84043   
    98. RY*(  10) O   5                  0.00000    49.44974   
    99. RY*(  11) O   5                  0.00000     0.76505   
   100. RY*(  12) O   5                  0.00000     4.90377   
   101. RY*(  13) O   5                  0.00000     2.06683   
   102. RY*(  14) O   5                  0.00000     3.04256   
   103. RY*(  15) O   5                  0.00000     2.91302   
   104. RY*(  16) O   5                  0.00000     3.05202   
   105. RY*(  17) O   5                  0.00001     2.86681   
   106. RY*(   1) H   6                  0.00122     0.47623   
   107. RY*(   2) H   6                  0.00015     2.07613   
   108. RY*(   3) H   6                  0.00015     1.69285   
   109. RY*(   4) H   6                  0.00009     0.77601   
   110. RY*(   5) H   6                  0.00007     1.88751   
   111. RY*(   6) H   6                  0.00004     2.13227   
   112. RY*(   1) H   7                  0.00104     0.73849   
   113. RY*(   2) H   7                  0.00019     0.56779   
   114. RY*(   3) H   7                  0.00017     1.71281   
   115. RY*(   4) H   7                  0.00013     2.12046   
   116. RY*(   5) H   7                  0.00007     1.31292   
   117. RY*(   6) H   7                  0.00003     2.52945   
   118. RY*(   1) H   8                  0.00122     0.47614   
   119. RY*(   2) H   8                  0.00015     2.07534   
   120. RY*(   3) H   8                  0.00015     1.69316   
   121. RY*(   4) H   8                  0.00009     0.77768   
   122. RY*(   5) H   8                  0.00007     1.88717   
   123. RY*(   6) H   8                  0.00004     2.13176   
   124. RY*(   1) H   9                  0.00096     0.47697   
   125. RY*(   2) H   9                  0.00017     1.91780   
   126. RY*(   3) H   9                  0.00013     1.81809   
   127. RY*(   4) H   9                  0.00008     0.83567   
   128. RY*(   5) H   9                  0.00007     1.92520   
   129. RY*(   6) H   9                  0.00003     2.11624   
   130. RY*(   1) H  10                  0.00096     0.47702   
   131. RY*(   2) H  10                  0.00017     1.91782   
   132. RY*(   3) H  10                  0.00013     1.81770   
   133. RY*(   4) H  10                  0.00008     0.83504   
   134. RY*(   5) H  10                  0.00007     1.92499   
   135. RY*(   6) H  10                  0.00003     2.11728   
   136. RY*(   1) H  11                  0.00127     0.85367   
   137. RY*(   2) H  11                  0.00019     1.53657   
   138. RY*(   3) H  11                  0.00013     1.74296   
   139. RY*(   4) H  11                  0.00012     1.34784   
   140. RY*(   5) H  11                  0.00003     1.21948   
   141. RY*(   6) H  11                  0.00004     2.45701   
   142. RY*(   1) H  12                  0.00235     0.66899   
   143. RY*(   2) H  12                  0.00031     1.31521   
   144. RY*(   3) H  12                  0.00011     1.48790   
   145. RY*(   4) H  12                  0.00006     1.75686   
   146. RY*(   5) H  12                  0.00007     1.56990   
   147. RY*(   6) H  12                  0.00006     2.01193   
   148. BD*(   1) C   1 - N   2          0.01708     0.33484   
   149. BD*(   1) C   1 - H   6          0.01696     0.37534   
   150. BD*(   1) C   1 - H   7          0.00688     0.38065   
   151. BD*(   1) C   1 - H   8          0.01697     0.37534   
   152. BD*(   1) N   2 - C   3          0.02201     0.33619   
   153. BD*(   1) N   2 - C   4          0.07804     0.46844   
   154. BD*(   1) C   3 - H   9          0.01312     0.38358   
   155. BD*(   1) C   3 - H  10          0.01312     0.38356   
   156. BD*(   1) C   3 - H  11          0.00798     0.41228   
   157. BD*(   1) C   4 - O   5          0.28822     0.01095  74(g),90(g),77(g)
   158. BD*(   2) C   4 - O   5          0.00568     0.60945   
   159. BD*(   1) C   4 - H  12          0.06750     0.35637   
       -------------------------------
              Total Lewis   39.37650  ( 98.4412%)
        Valence non-Lewis    0.55356  (  1.3839%)
        Rydberg non-Lewis    0.06995  (  0.1749%)
       -------------------------------
            Total unit  1   40.00000  (100.0000%)
           Charge unit  1    0.00000
 Calling FoFJK, ICntrl=    100127 FMM=F ISym2X=0 I1Cent= 0 IOpClX= 0 NMat=1 NMatS=1 NMatT=0.
 Full mass-weighted force constant matrix:
 Low frequencies ---   -6.2994   -0.0009   -0.0009    0.0005    2.1133    7.8264
 Low frequencies ---  107.3667  164.5570  232.4091
 Diagonal vibrational polarizability:
        9.8179417       4.6923157       5.8688063
 Harmonic frequencies (cm**-1), IR intensities (KM/Mole), Raman scattering
 activities (A**4/AMU), depolarization ratios for plane and unpolarized
 incident light, reduced masses (AMU), force constants (mDyne/A),
 and normal coordinates:
                      1                      2                      3
                      A                      A                      A
 Frequencies --    107.3644               164.5566               232.4090
 Red. masses --      1.4127                 1.1873                 1.5312
 Frc consts  --      0.0096                 0.0189                 0.0487
 IR Inten    --      0.1082                 0.0690                 1.2020
  Atom  AN      X      Y      Z        X      Y      Z        X      Y      Z
     1   6    -0.00  -0.00  -0.04     0.00   0.00   0.07     0.00  -0.00   0.07
     2   7    -0.00   0.00   0.14    -0.00  -0.00  -0.08    -0.00   0.00  -0.16
     3   6     0.00   0.00   0.01     0.00  -0.00  -0.02     0.00   0.00   0.05
     4   6    -0.00   0.00   0.02    -0.00  -0.00  -0.02    -0.00   0.00  -0.07
     5   8     0.00   0.00  -0.10    -0.00   0.00   0.04    -0.00   0.00   0.06
     6   1    -0.18   0.11  -0.19     0.25  -0.26   0.31    -0.04   0.44  -0.07
     7   1    -0.00   0.00   0.13     0.00  -0.00  -0.32     0.00   0.00   0.62
     8   1     0.18  -0.11  -0.19    -0.25   0.26   0.31     0.04  -0.44  -0.07
     9   1     0.45  -0.03  -0.27     0.33   0.07  -0.19     0.14   0.16   0.03
    10   1    -0.45   0.03  -0.27    -0.33  -0.07  -0.19    -0.14  -0.16   0.03
    11   1    -0.00  -0.00   0.49    -0.00  -0.00   0.37     0.00  -0.00   0.28
    12   1    -0.00   0.00   0.07     0.00  -0.00  -0.04    -0.00   0.00  -0.12
                      4                      5                      6
                      A                      A                      A
 Frequencies --    318.4696               336.6083               392.9846
 Red. masses --      3.8932                 2.3399                 2.3808
 Frc consts  --      0.2326                 0.1562                 0.2166
 IR Inten    --     11.5358                18.6169                 1.7121
  Atom  AN      X      Y      Z        X      Y      Z        X      Y      Z
     1   6    -0.12  -0.00  -0.00     0.00   0.00  -0.05    -0.09   0.19   0.00
     2   7    -0.04  -0.14   0.00     0.00   0.00  -0.16     0.07  -0.10  -0.00
     3   6     0.29  -0.13   0.00    -0.00  -0.00   0.08    -0.13  -0.14   0.00
     4   6    -0.01  -0.03   0.00    -0.00   0.00   0.24     0.11  -0.05  -0.00
     5   8    -0.14   0.26  -0.00     0.00  -0.00  -0.14     0.08   0.05   0.00
     6   1    -0.10   0.07  -0.00     0.05  -0.00  -0.01    -0.02   0.42  -0.01
     7   1    -0.24  -0.03  -0.00     0.00   0.00  -0.08    -0.45   0.12   0.00
     8   1    -0.10   0.07   0.00    -0.05   0.00  -0.01    -0.02   0.42   0.01
     9   1     0.39   0.02  -0.00    -0.01   0.19   0.16    -0.22  -0.25   0.01
    10   1     0.39   0.02   0.00     0.01  -0.19   0.16    -0.22  -0.25  -0.01
    11   1     0.40  -0.41  -0.00    -0.00   0.00   0.14    -0.22   0.09   0.00
    12   1     0.21  -0.05   0.00    -0.00   0.00   0.86     0.18  -0.05  -0.00
                      7                      8                      9
                      A                      A                      A
 Frequencies --    658.0096               868.6408              1015.7285
 Red. masses --      5.1120                 3.9030                 1.6116
 Frc consts  --      1.3041                 1.7351                 0.9796
 IR Inten    --      7.2545                 1.8579                 0.0422
  Atom  AN      X      Y      Z        X      Y      Z        X      Y      Z
     1   6    -0.35  -0.16   0.00    -0.12  -0.10   0.00     0.00  -0.00   0.01
     2   7    -0.15  -0.01  -0.00     0.10  -0.07  -0.00     0.00  -0.00   0.05
     3   6     0.01   0.05  -0.00     0.00   0.34   0.00     0.00   0.00  -0.01
     4   6     0.13   0.20   0.00     0.13  -0.28   0.00     0.00   0.00  -0.22
     5   8     0.32  -0.06   0.00    -0.06   0.06  -0.00    -0.00  -0.00   0.06
     6   1    -0.33  -0.14   0.00    -0.11  -0.07  -0.00    -0.02  -0.02  -0.01
     7   1    -0.34  -0.16  -0.00    -0.25  -0.13   0.00    -0.00  -0.00  -0.02
     8   1    -0.33  -0.14  -0.00    -0.11  -0.07   0.00     0.02   0.02  -0.01
     9   1     0.16   0.23  -0.01    -0.11   0.18   0.01    -0.02   0.09   0.03
    10   1     0.16   0.23   0.01    -0.11   0.18  -0.01     0.02  -0.09   0.03
    11   1     0.13  -0.23  -0.00    -0.10   0.60   0.00    -0.00   0.00   0.04
    12   1     0.13   0.20   0.00     0.28  -0.30   0.00    -0.00   0.00   0.96
                     10                     11                     12
                      A                      A                      A
 Frequencies --   1079.3596              1093.6191              1124.5328
 Red. masses --      1.3699                 1.7772                 1.2225
 Frc consts  --      0.9403                 1.2523                 0.9108
 IR Inten    --      5.4542               120.8833                 0.0873
  Atom  AN      X      Y      Z        X      Y      Z        X      Y      Z
     1   6    -0.11   0.05   0.00     0.01   0.14  -0.00    -0.00   0.00   0.10
     2   7     0.02   0.06   0.00    -0.10   0.01   0.00     0.00   0.00  -0.00
     3   6     0.10  -0.06  -0.00    -0.11  -0.01   0.00    -0.00  -0.00  -0.10
     4   6     0.01  -0.00  -0.00     0.10  -0.13  -0.00     0.00  -0.00   0.01
     5   8     0.00   0.00   0.00     0.02   0.02   0.00    -0.00   0.00   0.00
     6   1    -0.18  -0.33   0.05    -0.09  -0.27   0.04    -0.43  -0.17  -0.14
     7   1     0.44   0.16  -0.00     0.51   0.23  -0.00    -0.00  -0.00  -0.21
     8   1    -0.17  -0.33  -0.05    -0.09  -0.27  -0.04     0.43   0.17  -0.14
     9   1    -0.17  -0.31   0.06     0.15   0.26  -0.04    -0.08   0.43   0.13
    10   1    -0.17  -0.31  -0.06     0.15   0.26   0.04     0.08  -0.43   0.13
    11   1    -0.11   0.44   0.00     0.07  -0.44  -0.00    -0.00  -0.00   0.20
    12   1    -0.00  -0.00   0.00     0.22  -0.14   0.00     0.00  -0.00  -0.13
                     13                     14                     15
                      A                      A                      A
 Frequencies --   1172.1045              1273.8912              1410.8555
 Red. masses --      1.3685                 4.3671                 1.7026
 Frc consts  --      1.1077                 4.1755                 1.9968
 IR Inten    --      2.5104                33.3327                83.9903
  Atom  AN      X      Y      Z        X      Y      Z        X      Y      Z
     1   6     0.00   0.00   0.10    -0.14  -0.12  -0.00     0.05  -0.06   0.00
     2   7     0.00   0.00  -0.10     0.25   0.33   0.00    -0.12   0.15   0.00
     3   6    -0.00  -0.00   0.10    -0.10  -0.18  -0.00     0.05  -0.08  -0.00
     4   6     0.00  -0.00  -0.02     0.07  -0.12   0.00     0.03  -0.05   0.00
     5   8    -0.00   0.00   0.01    -0.06   0.04  -0.00    -0.02  -0.03  -0.00
     6   1    -0.41  -0.14  -0.14    -0.11  -0.02  -0.02    -0.06   0.26  -0.15
     7   1    -0.00  -0.00  -0.22    -0.26  -0.14   0.00    -0.08  -0.08   0.00
     8   1     0.41   0.14  -0.14    -0.11  -0.02   0.02    -0.06   0.26   0.15
     9   1     0.10  -0.44  -0.14     0.24   0.19  -0.07    -0.13   0.06   0.14
    10   1    -0.10   0.44  -0.14     0.24   0.19   0.07    -0.13   0.06  -0.14
    11   1     0.00   0.00  -0.22    -0.00  -0.39  -0.00    -0.06   0.18   0.00
    12   1     0.00  -0.00   0.09    -0.52  -0.06   0.00     0.79  -0.10   0.00
                     16                     17                     18
                      A                      A                      A
 Frequencies --   1428.1783              1438.8920              1467.2747
 Red. masses --      1.6224                 1.1827                 1.1961
 Frc consts  --      1.9497                 1.4428                 1.5172
 IR Inten    --     18.5288                 6.9171                 7.5293
  Atom  AN      X      Y      Z        X      Y      Z        X      Y      Z
     1   6    -0.10  -0.01   0.00     0.01  -0.00   0.00    -0.08  -0.07   0.00
     2   7     0.12  -0.05   0.00    -0.05  -0.04  -0.00    -0.03   0.01   0.00
     3   6    -0.06  -0.02  -0.00     0.02  -0.10  -0.00     0.02   0.03   0.00
     4   6    -0.04   0.10  -0.00     0.02  -0.02   0.00     0.00  -0.05   0.00
     5   8    -0.06  -0.06  -0.00     0.02   0.02   0.00     0.03   0.03   0.00
     6   1     0.19   0.09   0.15     0.08   0.07   0.02     0.25   0.39   0.08
     7   1     0.38   0.09  -0.00     0.09   0.01  -0.00     0.57   0.07  -0.00
     8   1     0.19   0.09  -0.15     0.08   0.07  -0.02     0.25   0.39  -0.09
     9   1     0.27   0.16  -0.11     0.11   0.43   0.14    -0.19  -0.07   0.08
    10   1     0.27   0.16   0.11     0.11   0.43  -0.14    -0.19  -0.07  -0.08
    11   1    -0.12   0.15   0.00    -0.25   0.57   0.00     0.12  -0.22   0.00
    12   1     0.64   0.04   0.00    -0.38   0.01  -0.00    -0.22  -0.04  -0.00
                     19                     20                     21
                      A                      A                      A
 Frequencies --   1479.6437              1500.4841              1503.7537
 Red. masses --      1.0402                 1.0420                 1.0669
 Frc consts  --      1.3418                 1.3822                 1.4215
 IR Inten    --      4.0712                18.5099                12.6909
  Atom  AN      X      Y      Z        X      Y      Z        X      Y      Z
     1   6    -0.00  -0.00  -0.05     0.00  -0.00  -0.01     0.03  -0.03   0.00
     2   7    -0.00  -0.00  -0.01    -0.00   0.00  -0.02    -0.03  -0.00   0.00
     3   6     0.00   0.00   0.02    -0.00   0.00  -0.05    -0.03   0.02   0.00
     4   6    -0.00  -0.00  -0.00     0.00  -0.00  -0.00     0.00  -0.02   0.00
     5   8     0.00   0.00   0.00     0.00   0.00  -0.00     0.02   0.01   0.00
     6   1    -0.08  -0.47   0.05    -0.03  -0.14   0.01    -0.25   0.22  -0.24
     7   1     0.00   0.00   0.68     0.00   0.00   0.21     0.24   0.02   0.00
     8   1     0.08   0.47   0.05     0.03   0.14   0.01    -0.25   0.22   0.24
     9   1     0.11   0.09  -0.02    -0.34  -0.32   0.05     0.35  -0.22  -0.31
    10   1    -0.11  -0.09  -0.02     0.34   0.31   0.05     0.35  -0.22   0.31
    11   1     0.00  -0.00  -0.22    -0.00  -0.00   0.69    -0.10   0.21  -0.00
    12   1    -0.00  -0.00   0.00    -0.00  -0.00   0.02    -0.11  -0.01  -0.00
                     22                     23                     24
                      A                      A                      A
 Frequencies --   1539.1949              1752.2226              2943.5568
 Red. masses --      1.2038                 8.2562                 1.0836
 Frc consts  --      1.6804                14.9352                 5.5318
 IR Inten    --     24.0202               522.6413                90.5023
  Atom  AN      X      Y      Z        X      Y      Z        X      Y      Z
     1   6    -0.02   0.01   0.00    -0.01  -0.00  -0.00     0.00   0.00   0.00
     2   7    -0.09   0.06   0.00    -0.12  -0.01   0.00    -0.00  -0.00  -0.00
     3   6    -0.01   0.00   0.00     0.03   0.03   0.00     0.00  -0.00  -0.00
     4   6     0.01  -0.05   0.00     0.61   0.22   0.00    -0.01  -0.08   0.00
     5   8     0.03   0.02   0.00    -0.35  -0.18  -0.00    -0.00   0.00  -0.00
     6   1     0.43  -0.11   0.31     0.08   0.08   0.06    -0.02   0.01   0.03
     7   1    -0.25  -0.05  -0.00     0.03  -0.01   0.00     0.02  -0.05   0.00
     8   1     0.43  -0.11  -0.31     0.08   0.08  -0.06    -0.02   0.01  -0.03
     9   1     0.22  -0.22  -0.21    -0.03  -0.20  -0.07    -0.01   0.01  -0.02
    10   1     0.22  -0.23   0.21    -0.03  -0.20   0.07    -0.01   0.01   0.02
    11   1    -0.07   0.17  -0.00     0.07  -0.04  -0.00     0.02   0.01   0.00
    12   1     0.01  -0.05   0.00    -0.43   0.29  -0.00     0.07   0.99  -0.00
                     25                     26                     27
                      A                      A                      A
 Frequencies --   3005.0721              3013.4587              3049.7557
 Red. masses --      1.0359                 1.0377                 1.1044
 Frc consts  --      5.5114                 5.5520                 6.0520
 IR Inten    --     49.7685                62.9105                50.5502
  Atom  AN      X      Y      Z        X      Y      Z        X      Y      Z
     1   6    -0.05  -0.00  -0.00     0.02   0.00   0.00     0.00  -0.00  -0.09
     2   7    -0.00  -0.00   0.00     0.00  -0.00  -0.00     0.00   0.00   0.00
     3   6     0.01  -0.02  -0.00     0.03  -0.04  -0.00    -0.00   0.00  -0.02
     4   6     0.00  -0.00  -0.00    -0.00   0.01  -0.00    -0.00   0.00  -0.00
     5   8    -0.00  -0.00  -0.00     0.00   0.00   0.00     0.00   0.00   0.00
     6   1     0.32  -0.13  -0.51    -0.13   0.05   0.20    -0.37   0.16   0.55
     7   1    -0.07   0.31  -0.00     0.03  -0.13   0.00     0.00  -0.00  -0.02
     8   1     0.32  -0.13   0.51    -0.13   0.05  -0.20     0.37  -0.16   0.55
     9   1    -0.12   0.07  -0.21    -0.29   0.19  -0.52     0.08  -0.05   0.13
    10   1    -0.12   0.07   0.21    -0.29   0.19   0.52    -0.08   0.05   0.13
    11   1     0.10   0.04   0.00     0.26   0.10   0.00    -0.00  -0.00  -0.00
    12   1     0.00   0.04  -0.00    -0.00  -0.06   0.00    -0.00  -0.00  -0.00
                     28                     29                     30
                      A                      A                      A
 Frequencies --   3058.8120              3109.1036              3144.6219
 Red. masses --      1.1045                 1.0985                 1.0972
 Frc consts  --      6.0886                 6.2564                 6.3928
 IR Inten    --     19.9202                17.0814                 1.0507
  Atom  AN      X      Y      Z        X      Y      Z        X      Y      Z
     1   6    -0.00   0.00   0.02     0.03  -0.08   0.00     0.00  -0.00   0.00
     2   7    -0.00   0.00   0.00     0.00  -0.00  -0.00    -0.00  -0.00   0.00
     3   6     0.00   0.00  -0.09     0.00   0.00   0.00    -0.09  -0.02  -0.00
     4   6     0.00  -0.00  -0.00     0.00  -0.00  -0.00    -0.00  -0.00   0.00
     5   8    -0.00  -0.00   0.00    -0.00   0.00  -0.00    -0.00   0.00   0.00
     6   1     0.09  -0.04  -0.13    -0.12   0.04   0.20    -0.00   0.00   0.01
     7   1    -0.00   0.00   0.01    -0.19   0.92  -0.00    -0.01   0.04  -0.00
     8   1    -0.09   0.04  -0.13    -0.12   0.04  -0.20    -0.00   0.00  -0.01
     9   1     0.34  -0.22   0.55    -0.00   0.00  -0.01     0.08  -0.06   0.17
    10   1    -0.34   0.22   0.55    -0.00   0.00   0.01     0.08  -0.06  -0.17
    11   1    -0.00  -0.00  -0.02    -0.03  -0.01  -0.00     0.89   0.36   0.00
    12   1     0.00   0.00  -0.00    -0.00   0.03   0.00     0.00  -0.00  -0.00

 -------------------
 - Thermochemistry -
 -------------------
 Temperature   298.150 Kelvin.  Pressure   1.00000 Atm.
 Atom     1 has atomic number  6 and mass  12.00000
 Atom     2 has atomic number  7 and mass  14.00307
 Atom     3 has atomic number  6 and mass  12.00000
 Atom     4 has atomic number  6 and mass  12.00000
 Atom     5 has atomic number  8 and mass  15.99491
 Atom     6 has atomic number  1 and mass   1.00783
 Atom     7 has atomic number  1 and mass   1.00783
 Atom     8 has atomic number  1 and mass   1.00783
 Atom     9 has atomic number  1 and mass   1.00783
 Atom    10 has atomic number  1 and mass   1.00783
 Atom    11 has atomic number  1 and mass   1.00783
 Atom    12 has atomic number  1 and mass   1.00783
 Molecular mass:    73.05276 amu.
 Principal axes and moments of inertia in atomic units:
                           1         2         3
     Eigenvalues --   203.04417 432.10167 612.40937
           X            0.99985   0.01723  -0.00001
           Y           -0.01723   0.99985  -0.00000
           Z            0.00001   0.00000   1.00000
 This molecule is an asymmetric top.
 Rotational symmetry number  1.
 Rotational temperatures (Kelvin)      0.42658     0.20045     0.14143
 Rotational constants (GHZ):           8.88842     4.17666     2.94695
 Zero-point vibrational energy     267264.6 (Joules/Mol)
                                   63.87778 (Kcal/Mol)
 Warning -- explicit consideration of   6 degrees of freedom as
           vibrations may cause significant error
 Vibrational temperatures:    154.47   236.76   334.38   458.21   484.30
          (Kelvin)            565.42   946.73  1249.78  1461.41  1552.96
                             1573.47  1617.95  1686.40  1832.85  2029.91
                             2054.83  2070.24  2111.08  2128.88  2158.86
                             2163.57  2214.56  2521.06  4235.12  4323.63
                             4335.69  4387.92  4400.95  4473.31  4524.41
 
 Zero-point correction=                           0.101796 (Hartree/Particle)
 Thermal correction to Energy=                    0.107948
 Thermal correction to Enthalpy=                  0.108893
 Thermal correction to Gibbs Free Energy=         0.072563
 Sum of electronic and zero-point Energies=           -248.488512
 Sum of electronic and thermal Energies=              -248.482359
 Sum of electronic and thermal Enthalpies=            -248.481415
 Sum of electronic and thermal Free Energies=         -248.517745
 
                     E (Thermal)             CV                S
                      KCal/Mol        Cal/Mol-Kelvin    Cal/Mol-Kelvin
 Total                   67.739             20.053             76.462
 Electronic               0.000              0.000              0.000
 Translational            0.889              2.981             38.782
 Rotational               0.889              2.981             25.489
 Vibrational             65.961             14.092             12.191
 Vibration     1          0.606              1.943              3.316
 Vibration     2          0.623              1.886              2.497
 Vibration     3          0.653              1.791              1.860
 Vibration     4          0.705              1.638              1.318
 Vibration     5          0.717              1.602              1.228
 Vibration     6          0.760              1.485              0.989
                       Q            Log10(Q)             Ln(Q)
 Total Bot       0.420006D-33        -33.376745        -76.852795
 Total V=0       0.279253D+14         13.445998         30.960554
 Vib (Bot)       0.206249D-45        -45.685608       -105.195001
 Vib (Bot)    1  0.190868D+01          0.280734          0.646414
 Vib (Bot)    2  0.122680D+01          0.088774          0.204411
 Vib (Bot)    3  0.846567D+00         -0.072339         -0.166566
 Vib (Bot)    4  0.590806D+00         -0.228555         -0.526267
 Vib (Bot)    5  0.552813D+00         -0.257422         -0.592736
 Vib (Bot)    6  0.455861D+00         -0.341167         -0.785566
 Vib (V=0)       0.137131D+02          1.137134          2.618348
 Vib (V=0)    1  0.247309D+01          0.393240          0.905468
 Vib (V=0)    2  0.182478D+01          0.261211          0.601460
 Vib (V=0)    3  0.148320D+01          0.171199          0.394199
 Vib (V=0)    4  0.127398D+01          0.105164          0.242149
 Vib (V=0)    5  0.124539D+01          0.095304          0.219446
 Vib (V=0)    6  0.117662D+01          0.070635          0.162643
 Electronic      0.100000D+01          0.000000          0.000000
 Translational   0.245419D+08          7.389909         17.015894
 Rotational      0.829764D+05          4.918955         11.326312
 ***** Axes restored to original set *****
 -------------------------------------------------------------------
 Center     Atomic                   Forces (Hartrees/Bohr)
 Number     Number              X              Y              Z
 -------------------------------------------------------------------
      1        6           0.000028928   -0.000008325   -0.000016445
      2        7          -0.000021589   -0.000020729    0.000025992
      3        6           0.000017784    0.000017291   -0.000009610
      4        6           0.000005092   -0.000001595   -0.000003107
      5        8          -0.000016438    0.000013954    0.000002836
      6        1           0.000003924    0.000003830   -0.000001143
      7        1          -0.000004869   -0.000004130    0.000000106
      8        1          -0.000000496   -0.000000829    0.000003935
      9        1          -0.000001493    0.000001443   -0.000003318
     10        1          -0.000002708    0.000003126    0.000000768
     11        1          -0.000003153   -0.000000086   -0.000001546
     12        1          -0.000004981   -0.000003952    0.000001531
 -------------------------------------------------------------------
 Cartesian Forces:  Max     0.000028928 RMS     0.000010728
 FormGI is forming the generalized inverse of G from B-inverse, IUseBI=4.

 GradGradGradGradGradGradGradGradGradGradGradGradGradGradGradGradGradGrad
 Berny optimization.
 Internal  Forces:  Max     0.000030502 RMS     0.000008172
 Search for a local minimum.
 Step number   1 out of a maximum of    2
 All quantities printed in internal units (Hartrees-Bohrs-Radians)
 Second derivative matrix not updated -- analytic derivatives used.
 ITU=  0
     Eigenvalues ---    0.00099   0.00198   0.00483   0.01789   0.06034
     Eigenvalues ---    0.06116   0.06188   0.06237   0.08426   0.12622
     Eigenvalues ---    0.13054   0.14564   0.15797   0.16776   0.17312
     Eigenvalues ---    0.17776   0.21410   0.21930   0.26253   0.31619
     Eigenvalues ---    0.32258   0.32434   0.32445   0.32815   0.34074
     Eigenvalues ---    0.34840   0.36466   0.38238   0.44823   0.81821
 Angle between quadratic step and forces=  74.87 degrees.
 Linear search not attempted -- first point.
 Iteration  1 RMS(Cart)=  0.00041914 RMS(Int)=  0.00000013
 Iteration  2 RMS(Cart)=  0.00000015 RMS(Int)=  0.00000002
 Variable       Old X    -DE/DX   Delta X   Delta X   Delta X     New X
                                 (Linear)    (Quad)   (Total)
    R1        2.74230   0.00003   0.00000   0.00010   0.00010   2.74240
    R2        2.07046  -0.00000   0.00000  -0.00000  -0.00000   2.07045
    R3        2.06202  -0.00001   0.00000  -0.00002  -0.00002   2.06201
    R4        2.07047  -0.00000   0.00000  -0.00002  -0.00002   2.07045
    R5        2.74870  -0.00003   0.00000  -0.00009  -0.00009   2.74861
    R6        2.57465   0.00002   0.00000   0.00002   0.00002   2.57467
    R7        2.06968   0.00000   0.00000   0.00001   0.00001   2.06969
    R8        2.06970  -0.00000   0.00000  -0.00001  -0.00001   2.06969
    R9        2.05669   0.00000   0.00000   0.00001   0.00001   2.05670
   R10        2.29946   0.00002   0.00000   0.00002   0.00002   2.29948
   R11        2.08908  -0.00001   0.00000  -0.00002  -0.00002   2.08906
    A1        1.93660   0.00001   0.00000   0.00007   0.00007   1.93666
    A2        1.91398  -0.00001   0.00000  -0.00005  -0.00005   1.91394
    A3        1.93673  -0.00000   0.00000  -0.00007  -0.00007   1.93666
    A4        1.89252  -0.00000   0.00000   0.00000   0.00000   1.89252
    A5        1.89036  -0.00000   0.00000   0.00002   0.00002   1.89039
    A6        1.89250   0.00000   0.00000   0.00002   0.00002   1.89252
    A7        2.05615  -0.00000   0.00000  -0.00001  -0.00001   2.05614
    A8        2.12421   0.00000   0.00000  -0.00001  -0.00001   2.12420
    A9        2.10283   0.00000   0.00000   0.00002   0.00002   2.10285
   A10        1.92973  -0.00000   0.00000  -0.00002  -0.00002   1.92971
   A11        1.92966   0.00000   0.00000   0.00005   0.00005   1.92971
   A12        1.89252   0.00000   0.00000   0.00001   0.00001   1.89253
   A13        1.89457   0.00000   0.00000   0.00003   0.00003   1.89460
   A14        1.90861  -0.00000   0.00000  -0.00003  -0.00003   1.90858
   A15        1.90862  -0.00000   0.00000  -0.00003  -0.00003   1.90858
   A16        2.19571   0.00002   0.00000   0.00005   0.00005   2.19576
   A17        1.95438  -0.00001   0.00000  -0.00001  -0.00001   1.95437
   A18        2.13309  -0.00001   0.00000  -0.00004  -0.00004   2.13305
    D1       -1.05019  -0.00001   0.00000  -0.00110  -0.00110  -1.05129
    D2        2.09065  -0.00000   0.00000  -0.00035  -0.00035   2.09031
    D3       -3.14048  -0.00001   0.00000  -0.00112  -0.00112   3.14159
    D4        0.00036  -0.00000   0.00000  -0.00036  -0.00036   0.00000
    D5        1.05236  -0.00000   0.00000  -0.00108  -0.00108   1.05129
    D6       -2.08998   0.00000   0.00000  -0.00032  -0.00032  -2.09030
    D7       -1.05001   0.00000   0.00000   0.00067   0.00067  -1.04934
    D8        1.04862   0.00000   0.00000   0.00072   0.00072   1.04933
    D9        3.14088   0.00000   0.00000   0.00071   0.00071   3.14159
   D10        2.09233  -0.00000   0.00000  -0.00008  -0.00008   2.09225
   D11       -2.09223  -0.00000   0.00000  -0.00003  -0.00003  -2.09226
   D12        0.00003  -0.00000   0.00000  -0.00003  -0.00003  -0.00000
   D13       -3.14122  -0.00000   0.00000  -0.00038  -0.00038   3.14159
   D14        0.00041  -0.00000   0.00000  -0.00041  -0.00041  -0.00000
   D15       -0.00040   0.00000   0.00000   0.00040   0.00040   0.00000
   D16        3.14123   0.00000   0.00000   0.00036   0.00036  -3.14159
         Item               Value     Threshold  Converged?
 Maximum Force            0.000031     0.000450     YES
 RMS     Force            0.000008     0.000300     YES
 Maximum Displacement     0.001337     0.001800     YES
 RMS     Displacement     0.000419     0.001200     YES
 Predicted change in Energy=-1.767046D-08
 Optimization completed.
    -- Stationary point found.
                           ----------------------------
                           !   Optimized Parameters   !
                           ! (Angstroms and Degrees)  !
 --------------------------                            --------------------------
 ! Name  Definition              Value          Derivative Info.                !
 --------------------------------------------------------------------------------
 ! R1    R(1,2)                  1.4512         -DE/DX =    0.0                 !
 ! R2    R(1,6)                  1.0956         -DE/DX =    0.0                 !
 ! R3    R(1,7)                  1.0912         -DE/DX =    0.0                 !
 ! R4    R(1,8)                  1.0956         -DE/DX =    0.0                 !
 ! R5    R(2,3)                  1.4545         -DE/DX =    0.0                 !
 ! R6    R(2,4)                  1.3624         -DE/DX =    0.0                 !
 ! R7    R(3,9)                  1.0952         -DE/DX =    0.0                 !
 ! R8    R(3,10)                 1.0952         -DE/DX =    0.0                 !
 ! R9    R(3,11)                 1.0884         -DE/DX =    0.0                 !
 ! R10   R(4,5)                  1.2168         -DE/DX =    0.0                 !
 ! R11   R(4,12)                 1.1055         -DE/DX =    0.0                 !
 ! A1    A(2,1,6)              110.9588         -DE/DX =    0.0                 !
 ! A2    A(2,1,7)              109.6631         -DE/DX =    0.0                 !
 ! A3    A(2,1,8)              110.9664         -DE/DX =    0.0                 !
 ! A4    A(6,1,7)              108.4333         -DE/DX =    0.0                 !
 ! A5    A(6,1,8)              108.3099         -DE/DX =    0.0                 !
 ! A6    A(7,1,8)              108.4321         -DE/DX =    0.0                 !
 ! A7    A(1,2,3)              117.8086         -DE/DX =    0.0                 !
 ! A8    A(1,2,4)              121.708          -DE/DX =    0.0                 !
 ! A9    A(3,2,4)              120.4834         -DE/DX =    0.0                 !
 ! A10   A(2,3,9)              110.5655         -DE/DX =    0.0                 !
 ! A11   A(2,3,10)             110.5613         -DE/DX =    0.0                 !
 ! A12   A(2,3,11)             108.4336         -DE/DX =    0.0                 !
 ! A13   A(9,3,10)             108.5508         -DE/DX =    0.0                 !
 ! A14   A(9,3,11)             109.3555         -DE/DX =    0.0                 !
 ! A15   A(10,3,11)            109.3558         -DE/DX =    0.0                 !
 ! A16   A(2,4,5)              125.805          -DE/DX =    0.0                 !
 ! A17   A(2,4,12)             111.9779         -DE/DX =    0.0                 !
 ! A18   A(5,4,12)             122.2171         -DE/DX =    0.0                 !
 ! D1    D(6,1,2,3)            -60.1712         -DE/DX =    0.0                 !
 ! D2    D(6,1,2,4)            119.7856         -DE/DX =    0.0                 !
 ! D3    D(7,1,2,3)            180.064          -DE/DX =    0.0                 !
 ! D4    D(7,1,2,4)              0.0208         -DE/DX =    0.0                 !
 ! D5    D(8,1,2,3)             60.296          -DE/DX =    0.0                 !
 ! D6    D(8,1,2,4)           -119.7472         -DE/DX =    0.0                 !
 ! D7    D(1,2,3,9)            -60.1609         -DE/DX =    0.0                 !
 ! D8    D(1,2,3,10)            60.0812         -DE/DX =    0.0                 !
 ! D9    D(1,2,3,11)           179.9591         -DE/DX =    0.0                 !
 ! D10   D(4,2,3,9)            119.8818         -DE/DX =    0.0                 !
 ! D11   D(4,2,3,10)          -119.8762         -DE/DX =    0.0                 !
 ! D12   D(4,2,3,11)             0.0017         -DE/DX =    0.0                 !
 ! D13   D(1,2,4,5)            180.0216         -DE/DX =    0.0                 !
 ! D14   D(1,2,4,12)             0.0237         -DE/DX =    0.0                 !
 ! D15   D(3,2,4,5)             -0.0227         -DE/DX =    0.0                 !
 ! D16   D(3,2,4,12)          -180.0206         -DE/DX =    0.0                 !
 --------------------------------------------------------------------------------
 GradGradGradGradGradGradGradGradGradGradGradGradGradGradGradGradGradGrad


 ----------------------------------------------------------------------

 Electric dipole moment (input orientation):
 (Debye = 10**-18 statcoulomb cm , SI units = C m)
                  (au)            (Debye)         (10**-30 SI)
   Tot        0.166124D+01      0.422245D+01      0.140846D+02
   x          0.142253D+01      0.361572D+01      0.120607D+02
   y         -0.780738D+00     -0.198444D+01     -0.661937D+01
   z         -0.355750D+00     -0.904227D+00     -0.301618D+01

 Dipole polarizability, Alpha (input orientation).
 (esu units = cm**3 , SI units = C**2 m**2 J**-1)
 Alpha(0;0):
               (au)            (10**-24 esu)      (10**-40 SI)
   iso        0.498699D+02      0.738996D+01      0.822244D+01
   aniso      0.216111D+02      0.320243D+01      0.356318D+01
   xx         0.563215D+02      0.834599D+01      0.928617D+01
   yx        -0.562269D+01     -0.833197D+00     -0.927056D+00
   yy         0.547568D+02      0.811412D+01      0.902818D+01
   zx        -0.518860D+01     -0.768871D+00     -0.855484D+00
   zy         0.332122D+00      0.492155D-01      0.547596D-01
   zz         0.385315D+02      0.570977D+01      0.635298D+01

 ----------------------------------------------------------------------

 Dipole orientation:
     6          0.40335035         -1.28204806          2.22241025
     7          0.04989401         -0.16066178         -0.25504592
     6         -0.77417099          2.45902854         -0.37111503
     6          0.47056298         -1.49451727         -2.41668719
     8          0.22024670         -0.69795783         -4.55920120
     1          1.83823589         -0.25275722          3.30335839
     1          1.02100592         -3.23860945          2.01670156
     1         -1.36270477         -1.26323917          3.30293974
     1         -2.60752690          2.68649587          0.56196656
     1          0.59811796          3.69480120          0.56340667
     1         -0.94360830          3.00050222         -2.34799796
     1          1.08659714         -3.45103706         -2.02073586

 Electric dipole moment (dipole orientation):
 (Debye = 10**-18 statcoulomb cm , SI units = C m)
                  (au)            (Debye)         (10**-30 SI)
   Tot        0.166124D+01      0.422245D+01      0.140846D+02
   x          0.000000D+00      0.000000D+00      0.000000D+00
   y          0.000000D+00      0.000000D+00      0.000000D+00
   z          0.166124D+01      0.422245D+01      0.140846D+02

 Dipole polarizability, Alpha (dipole orientation).
 (esu units = cm**3 , SI units = C**2 m**2 J**-1)
 Alpha(0;0):
               (au)            (10**-24 esu)      (10**-40 SI)
   iso        0.498699D+02      0.738996D+01      0.822244D+01
   aniso      0.216111D+02      0.320243D+01      0.356318D+01
   xx         0.382975D+02      0.567511D+01      0.631441D+01
   yx        -0.396965D+01     -0.588241D+00     -0.654506D+00
   yy         0.496568D+02      0.735837D+01      0.818729D+01
   zx        -0.565039D+00     -0.837301D-01     -0.931624D-01
   zy         0.178025D+01      0.263806D+00      0.293524D+00
   zz         0.616555D+02      0.913640D+01      0.101656D+02

 ----------------------------------------------------------------------
 Unable to Open any file for archive entry.
 1\1\GINC-CCC115\Freq\RB3LYP\6-311++G(d,p)\C3H7N1O1\ROOT\12-Jun-2024\0\
 \#N Geom=AllCheck Guess=TCheck SCRF=Check GenChk RB3LYP/6-311++G(d,p) 
 Freq\\CN(C)C=O\\0,1\C,1.3164727527,0.073048813,-0.3879183345\N,-0.0769
 338089,0.1417333745,0.0115548119\C,-0.7617419492,-1.1080341634,0.30280
 64356\C,-0.7343308796,1.3305578462,0.115409312\O,-1.8973697882,1.47465
 4461,0.4428788022\H,1.9264895306,-0.3896916726,0.395773468\H,1.6958957
 058,1.0795621824,-0.571318096\H,1.4326589743,-0.5135894704,-1.30595761
 48\H,-0.7630747049,-1.7601373763,-0.5771272134\H,-0.2674135546,-1.6347
 262083,1.1260784548\H,-1.7880331089,-0.8805142504,0.5847161166\H,-0.08
 26191591,2.1871364643,-0.1368961526\\Version=ES64L-G16RevC.02\State=1-
 A\HF=-248.5903079\RMSD=6.077e-10\RMSF=1.073e-05\ZeroPoint=0.1017957\Th
 ermal=0.1079484\ETot=-248.4823595\HTot=-248.4814153\GTot=-248.5177446\
 Dipole=1.422534,-0.7807376,-0.3557501\DipoleDeriv=0.6169044,-0.1498479
 ,-0.0756497,-0.0806026,0.1153862,0.0383786,-0.0807231,0.0585228,0.3381
 68,-0.7835916,0.2367535,0.118338,0.5300732,-1.109989,-0.0957669,0.0969
 4,-0.0106552,-0.3441476,0.0463698,0.2191627,0.0620495,0.1089613,0.4876
 474,-0.0443488,0.0701383,-0.0764193,0.3004548,1.5958081,-0.776907,-0.3
 615754,-0.6559953,1.356712,0.102451,-0.3705736,0.1377003,0.2531271,-1.
 4109834,0.5688526,0.2551262,0.1538718,-0.6469014,-0.0257872,0.2856203,
 -0.146406,-0.4616627,-0.0854112,0.0683679,-0.0157916,0.1006614,0.02677
 29,0.0565809,-0.1102154,0.0738597,-0.065581,0.0303741,-0.0104836,0.018
 1262,-0.1009431,-0.0820552,0.041827,0.0247256,0.0155722,0.0817415,-0.0
 258225,0.0153385,-0.0091528,0.0641094,0.0005097,-0.1192556,0.0793179,-
 0.113012,-0.0990791,0.0883123,-0.0110813,0.0286303,-0.0196017,-0.08537
 22,-0.0516386,-0.0070486,-0.127671,-0.0961957,0.0229614,0.0479957,-0.1
 154324,0.0050781,-0.0599954,0.0534663,-0.0759641,0.1145842,-0.0562308,
 -0.0076037,-0.0498642,0.0333886,0.0330399,0.0943922,-0.0096429,0.02729
 23,0.0145041,0.0855344,-0.0873177,-0.1582868,0.0619431,-0.1386524,-0.0
 971071,0.0537361,0.0604904,0.0594202,0.063871\Polar=56.3215417,-5.6226
 904,54.7567933,-5.1885992,0.3321223,38.5314566\Quadrupole=-1.7249224,1
 .041302,0.6836204,3.3239009,0.4749848,-0.9875549\PG=C01 [X(C3H7N1O1)]\
 NImag=0\\0.48444565,0.00601480,0.60402036,0.01885458,-0.00564941,0.545
 93898,-0.21079192,0.01128410,0.04353865,0.61271345,0.00113045,-0.10961
 679,0.00347149,-0.06142080,0.67939996,0.04432410,0.00052342,-0.0708273
 9,-0.14202405,-0.02415558,0.15144264,-0.01722150,-0.03088641,0.0067891
 0,-0.12822891,-0.03475846,0.02087931,0.57580731,-0.00314541,0.00335888
 ,0.00054535,-0.04547110,-0.18431027,0.02198475,-0.05944147,0.50589947,
 0.00474290,0.00860178,-0.00368767,0.02169277,0.01890738,-0.07288376,-0
 .00227904,0.02077699,0.55199337,-0.03072495,0.02561180,0.00366011,-0.1
 4874187,0.04863525,0.02760160,0.02444106,-0.00670520,-0.00687497,0.908
 20094,0.01767833,0.00825499,-0.00659461,0.07354058,-0.29092469,-0.0030
 3984,0.00077163,-0.04418103,0.00295148,-0.01022462,0.62973163,0.004240
 93,-0.00889059,-0.01224230,0.02579619,0.00416524,-0.04921819,-0.007426
 74,0.00513857,0.00088547,-0.20998137,-0.02982706,0.24634943,0.00932867
 ,0.00489746,-0.00035127,-0.05733221,0.05700457,0.01755123,-0.00781215,
 -0.00842381,0.00213897,-0.62752552,0.03349009,0.15915416,0.72253272,-0
 .00229318,-0.00594563,0.00178688,0.06001372,-0.00363307,-0.01589937,0.
 00076086,0.00200314,-0.00055533,0.04182548,-0.11079762,-0.00927071,-0.
 08753541,0.10370354,0.00016999,-0.00030488,0.00932165,0.01732341,-0.01
 502231,0.01346462,0.00146472,0.00211056,-0.00316149,0.15854662,-0.0068
 4516,-0.11705604,-0.19435826,0.02015907,0.08675222,-0.11398034,0.05289
 779,-0.09551481,-0.03189157,0.02076814,-0.01567100,0.00163933,0.002500
 48,-0.00151674,-0.00101275,-0.00723215,-0.00390967,-0.00256949,0.00219
 071,0.00229597,0.13765880,0.05488822,-0.09489988,0.07762822,0.00277122
 ,-0.00086051,-0.00067309,-0.00071032,0.00093142,-0.00122296,0.00106780
 ,0.00022280,0.00119340,0.00018277,-0.00000640,-0.00068269,-0.06543087,
 0.09681235,-0.09847079,0.07984317,-0.18768691,0.00767621,-0.00601164,0
 .01431970,0.00006658,-0.00075856,0.00100082,0.00189051,0.00004447,0.00
 035214,-0.00004635,-0.00058974,-0.00076991,0.10482453,-0.08513124,0.19
 716305,-0.07776534,-0.07383768,0.01411137,-0.01629401,-0.03351223,0.00
 664191,-0.00515048,0.00358624,0.00131295,0.00017294,-0.00519170,0.0005
 4242,0.00054488,0.00100583,-0.00030295,0.00719408,0.01599789,-0.001345
 86,0.09062652,-0.08393474,-0.27728779,0.04107849,-0.00259197,0.0033862
 9,0.00037631,-0.00027076,0.00090238,0.00003314,0.00496303,-0.00189597,
 -0.00124976,-0.00111579,0.00091359,0.00024041,-0.00354785,-0.01095694,
 0.00086888,0.08968180,0.29861750,0.01484660,0.03814301,-0.05473904,0.0
 0438433,0.00934915,-0.00380429,0.00160358,-0.00108248,-0.00008905,-0.0
 0020401,0.00169700,0.00065691,-0.00014660,-0.00037604,-0.00017213,0.00
 861267,0.02168729,-0.00308810,-0.01976670,-0.04448853,0.05401147,-0.04
 778260,0.00542526,0.01017794,-0.01603766,0.02458778,0.03123900,0.00200
 736,0.00263671,0.00040480,0.00052119,-0.00553464,0.00479797,-0.0031752
 2,0.00190888,-0.00112811,0.00239407,-0.00971825,-0.01361058,0.00103436
 ,-0.00432858,-0.00964102,0.06083591,0.00865256,-0.12257326,-0.11234714
 ,0.00359361,-0.00068764,0.00019775,-0.00000246,0.00111903,0.00135769,0
 .00000916,0.00028741,-0.00159071,0.00059558,0.00006455,0.00040192,-0.0
 0133268,0.00799301,0.01212818,0.00224212,-0.01421966,-0.02495520,-0.01
 427661,0.12731135,0.01274524,-0.11304809,-0.22619515,0.01074137,-0.005
 78190,-0.00168802,-0.00074182,-0.00080169,0.00043860,-0.00201475,0.003
 57333,-0.00123674,0.00145453,-0.00065494,-0.00023958,-0.00015473,-0.01
 339110,-0.02066303,-0.00158419,0.00344414,0.00632672,-0.02080577,0.126
 00981,0.24346834,0.00160441,-0.00078070,-0.00213770,-0.00104703,-0.016
 91543,-0.01139187,-0.04918426,0.00441383,0.00446759,-0.00432247,0.0009
 8155,0.00069101,0.00169221,0.00095656,-0.00171638,-0.00015815,0.000066
 50,0.00000802,0.00015863,0.00022939,0.00014541,0.00018205,0.00057302,0
 .00061105,0.04685314,0.00224830,0.00051459,-0.00084339,-0.00262235,-0.
 03289786,-0.01947347,0.00295189,-0.12601010,-0.11587327,-0.00736606,0.
 00151462,-0.00100436,0.00238250,0.00002554,-0.00074962,-0.00038215,0.0
 0007460,0.00012586,0.00015119,0.00011383,0.00031183,-0.00087902,0.0003
 8708,0.00062306,0.00278306,0.15032192,-0.00018062,0.00049549,0.0012065
 8,0.00000954,0.00507589,0.01373092,0.00346537,-0.11970175,-0.22097472,
 0.00072115,0.00197699,-0.00068043,-0.00016055,-0.00055109,0.00039144,0
 .00003045,0.00002568,-0.00058855,-0.00020008,0.00005352,0.00022790,-0.
 00082057,-0.00065434,-0.00013981,-0.00311811,0.12939634,0.23373427,0.0
 0248097,-0.00066828,0.00142288,0.00858515,-0.01333047,0.01604869,-0.10
 703674,0.05651408,-0.09199991,-0.00368181,-0.00027043,0.00121256,0.002
 02673,0.00125672,0.00045365,0.00019604,0.00071060,-0.00091798,0.000199
 59,0.00015141,-0.00013642,-0.00028458,0.00000286,-0.00019863,0.0001878
 3,-0.00019678,0.00129500,0.10834548,0.00232213,0.00050647,-0.00046801,
 0.01016505,-0.02937806,0.02303793,0.05338105,-0.09635983,0.08332667,-0
 .00565119,0.00159233,0.00446790,0.00234120,0.00006828,-0.00063535,-0.0
 0099262,0.00039345,-0.00016371,-0.00000353,0.00005304,-0.00033179,-0.0
 0042897,0.00005533,0.00002092,-0.00852855,0.00997582,-0.01351792,-0.05
 563286,0.11682062,-0.00098445,-0.00006151,0.00034088,0.00186428,0.0094
 8541,0.00056015,-0.09065649,0.08581981,-0.19275824,0.00219839,-0.00250
 677,-0.00140064,-0.00128946,-0.00010496,0.00001302,0.00074818,0.000197
 85,-0.00015622,0.00022450,-0.00014241,0.00025119,-0.00015346,-0.000133
 53,-0.00044216,-0.01376021,0.01130097,-0.02043539,0.09845638,-0.099111
 38,0.20573261,0.00017721,-0.00324638,0.00014183,-0.01805849,-0.0014862
 5,0.00489834,-0.28924963,0.05082799,0.06603445,-0.00239465,0.00212744,
 0.00096527,0.00135232,0.00268121,-0.00106041,0.00019701,0.00008500,-0.
 00004384,-0.00077728,0.00036900,0.00034376,0.00006135,0.00011521,0.000
 07270,0.00358880,0.00036717,-0.00062503,-0.01089557,0.00310000,0.00322
 987,0.31619382,-0.00036006,-0.00547960,0.00049833,-0.03380537,0.004659
 26,0.00937445,0.06375415,-0.06240269,-0.01759994,-0.00515798,0.0013145
 4,0.00151075,0.00299583,-0.00083802,-0.00092839,0.00012983,-0.00001568
 ,-0.00020910,-0.00168804,-0.00034844,0.00055212,0.00018930,0.00001575,
 0.00014566,0.01650341,-0.00320278,-0.00278540,0.01194539,-0.00273631,-
 0.00487129,-0.05488907,0.06846163,-0.00007503,0.00133583,-0.00023853,0
 .00728044,-0.00002659,-0.00370197,0.06508473,-0.01383946,-0.06739995,0
 .00150324,-0.00060799,0.00107419,-0.00108467,-0.00083733,-0.00123916,0
 .00028352,-0.00005592,0.00014998,0.00049438,-0.00004586,0.00035638,-0.
 00026444,0.00002587,0.00025175,0.02516258,-0.00492016,-0.00584795,-0.0
 2439549,0.00453234,0.00817432,-0.07408018,0.01445077,0.06823154,0.0002
 2975,0.00328825,-0.00069268,0.00712508,0.00929743,-0.00009726,-0.00001
 137,0.00270766,0.00187624,-0.11493212,-0.10013608,0.02391728,-0.039062
 93,-0.02277137,0.01831177,0.00033297,0.00008943,-0.00003047,0.00005612
 ,0.00039507,-0.00004161,0.00024376,-0.00017237,-0.00012498,0.00044484,
 0.00056226,-0.00041655,-0.00012309,-0.00007171,0.00012246,-0.00019488,
 0.00038262,0.00009092,0.14589186,-0.00320140,-0.00085235,0.00089380,-0
 .01545671,-0.03513663,0.00774674,0.00445030,-0.00095040,-0.00070363,-0
 .08700746,-0.19511901,0.03535733,-0.00681499,0.01444212,0.00225643,0.0
 0043136,0.00031178,-0.00014657,0.00156811,0.00072218,-0.00050635,0.000
 41815,0.00024706,-0.00013919,-0.00028264,-0.00081725,0.00018660,-0.000
 48224,-0.00099114,0.00012781,-0.00005133,0.00057234,-0.00001150,0.1064
 2884,0.21757130,-0.00021345,-0.00098822,-0.00119110,0.00171686,0.00054
 347,0.00860559,0.00175070,-0.00019208,0.00663663,0.02295349,0.03917817
 ,-0.06748380,0.01713827,0.00689357,0.01269535,-0.00002837,0.00042455,-
 0.00003297,-0.00012774,-0.00016833,0.00006205,-0.00019576,-0.00044029,
 0.00011908,0.00103861,0.00110619,-0.00062428,-0.00124074,-0.00115760,0
 .00012046,0.00012324,-0.00013797,0.00018940,-0.04291512,-0.04506146,0.
 04090358\\-0.00002893,0.00000832,0.00001645,0.00002159,0.00002073,-0.0
 0002599,-0.00001778,-0.00001729,0.00000961,-0.00000509,0.00000159,0.00
 000311,0.00001644,-0.00001395,-0.00000284,-0.00000392,-0.00000383,0.00
 000114,0.00000487,0.00000413,-0.00000011,0.00000050,0.00000083,-0.0000
 0394,0.00000149,-0.00000144,0.00000332,0.00000271,-0.00000313,-0.00000
 077,0.00000315,0.00000009,0.00000155,0.00000498,0.00000395,-0.00000153
 \\\@
 The archive entry for this job was punched.


 IT IS A PROFOUNDLY ERRONEOUS TRUISM ... THAT WE SHOULD CULTIVATE
 THE HABIT OF THINKING OF WHAT WE ARE DOING.
 THE PRECISE OPPOSITE IS THE CASE.
 CIVILIZATION ADVANCES BY EXTENDING THE NUMBER OF IMPORTANT OPERATIONS
 WHICH WE CAN PERFORM WITHOUT THINKING ABOUT THEM.

                                    -- ALFRED NORTH WHITEHEAD
 Job cpu time:       0 days  0 hours  4 minutes 36.4 seconds.
 Elapsed time:       0 days  0 hours  0 minutes 36.7 seconds.
 File lengths (MBytes):  RWF=     33 Int=      0 D2E=      0 Chk=      3 Scr=      1
 Normal termination of Gaussian 16 at Wed Jun 12 22:05:44 2024.
