 Entering Gaussian System, Link 0=/apl/gaussian/16c02/g16/._.g16
 Initial command:
 /apl/gaussian/16c02/g16/l1.exe "/lwork/users/eso/6527393.ccpbs1/gaussian/Gau-3130575.inp" -scrdir="/lwork/users/eso/6527393.ccpbs1/gaussian/"
 Default CPUs for threads: 8,9,10,11,12,13,14,15
 Default is to use a total of   8 processors:
                                8 via shared-memory
                                1 via Linda
 Entering Link 1 = /apl/gaussian/16c02/g16/l1.exe PID=   3130576.
  
 Copyright (c) 1988-2021, Gaussian, Inc.  All Rights Reserved.
  
 This is part of the Gaussian(R) 16 program.  It is based on
 the Gaussian(R) 09 system (copyright 2009, Gaussian, Inc.),
 the Gaussian(R) 03 system (copyright 2003, Gaussian, Inc.),
 the Gaussian(R) 98 system (copyright 1998, Gaussian, Inc.),
 the Gaussian(R) 94 system (copyright 1995, Gaussian, Inc.),
 the Gaussian 92(TM) system (copyright 1992, Gaussian, Inc.),
 the Gaussian 90(TM) system (copyright 1990, Gaussian, Inc.),
 the Gaussian 88(TM) system (copyright 1988, Gaussian, Inc.),
 the Gaussian 86(TM) system (copyright 1986, Carnegie Mellon
 University), and the Gaussian 82(TM) system (copyright 1983,
 Carnegie Mellon University). Gaussian is a federally registered
 trademark of Gaussian, Inc.
  
 This software contains proprietary and confidential information,
 including trade secrets, belonging to Gaussian, Inc.
  
 This software is provided under written license and may be
 used, copied, transmitted, or stored only in accord with that
 written license.
  
 The following legend is applicable only to US Government
 contracts under FAR:
  
                    RESTRICTED RIGHTS LEGEND
  
 Use, reproduction and disclosure by the US Government is
 subject to restrictions as set forth in subparagraphs (a)
 and (c) of the Commercial Computer Software - Restricted
 Rights clause in FAR 52.227-19.
  
 Gaussian, Inc.
 340 Quinnipiac St., Bldg. 40, Wallingford CT 06492
  
  
 ---------------------------------------------------------------
 Warning -- This program may not be used in any manner that
 competes with the business of Gaussian, Inc. or will provide
 assistance to any competitor of Gaussian, Inc.  The licensee
 of this program is prohibited from giving any competitor of
 Gaussian, Inc. access to this program.  By using this program,
 the user acknowledges that Gaussian, Inc. is engaged in the
 business of creating and licensing software in the field of
 computational chemistry and represents and warrants to the
 licensee that it is not a competitor of Gaussian, Inc. and that
 it will not use this program in any manner prohibited above.
 ---------------------------------------------------------------
  

 Cite this work as:
 Gaussian 16, Revision C.02,
 M. J. Frisch, G. W. Trucks, H. B. Schlegel, G. E. Scuseria, 
 M. A. Robb, J. R. Cheeseman, G. Scalmani, V. Barone, 
 G. A. Petersson, H. Nakatsuji, X. Li, M. Caricato, A. V. Marenich, 
 J. Bloino, B. G. Janesko, R. Gomperts, B. Mennucci, H. P. Hratchian, 
 J. V. Ortiz, A. F. Izmaylov, J. L. Sonnenberg, D. Williams-Young, 
 F. Ding, F. Lipparini, F. Egidi, J. Goings, B. Peng, A. Petrone, 
 T. Henderson, D. Ranasinghe, V. G. Zakrzewski, J. Gao, N. Rega, 
 G. Zheng, W. Liang, M. Hada, M. Ehara, K. Toyota, R. Fukuda, 
 J. Hasegawa, M. Ishida, T. Nakajima, Y. Honda, O. Kitao, H. Nakai, 
 T. Vreven, K. Throssell, J. A. Montgomery, Jr., J. E. Peralta, 
 F. Ogliaro, M. J. Bearpark, J. J. Heyd, E. N. Brothers, K. N. Kudin, 
 V. N. Staroverov, T. A. Keith, R. Kobayashi, J. Normand, 
 K. Raghavachari, A. P. Rendell, J. C. Burant, S. S. Iyengar, 
 J. Tomasi, M. Cossi, J. M. Millam, M. Klene, C. Adamo, R. Cammi, 
 J. W. Ochterski, R. L. Martin, K. Morokuma, O. Farkas, 
 J. B. Foresman, and D. J. Fox, Gaussian, Inc., Wallingford CT, 2019.
 
 ******************************************
 Gaussian 16:  ES64L-G16RevC.02  7-Dec-2021
                12-Jun-2024 
 ******************************************
 %chk=CS(=O)C.chk
 %mem=9600MB
 SetSPE:  set environment variable "OMP_PROC_BIND" = "true"
 SetSPE:  set environment variable "OMP_PLACES" = "{8},{9},{10},{11},{12},{13},{14},{15}"
 --------------------------------------------------------
 # opt freq b3lyp/6-311++g(d,p) pop=nbo geom=connectivity
 --------------------------------------------------------
 1/18=20,19=15,26=3,38=1,57=2/1,3;
 2/9=110,12=2,17=6,18=5,40=1/2;
 3/5=4,6=6,7=1111,11=2,25=1,30=1,71=1,74=-5/1,2,3;
 4//1;
 5/5=2,38=5/2;
 6/7=2,8=2,9=2,10=2,28=1,40=1/1,7;
 7//1,2,3,16;
 1/18=20,19=15,26=3/3(2);
 2/9=110/2;
 99//99;
 2/9=110/2;
 3/5=4,6=6,7=1111,11=2,25=1,30=1,71=1,74=-5/1,2,3;
 4/5=5,16=3,69=1/1;
 5/5=2,38=5/2;
 7//1,2,3,16;
 1/18=20,19=15,26=3/3(-5);
 2/9=110/2;
 6/7=2,8=2,9=2,10=2,19=2,28=1,40=1/1,7;
 99/9=1/99;
 -------
 CS(=O)C
 -------
 Symbolic Z-matrix:
 Charge =  0 Multiplicity = 1
 C                    -1.33446  -0.24738  -0.06771 
 S                     0.03258   0.68195  -0.80288 
 O                    -0.03571   2.08233  -0.26964 
 C                     1.34333  -0.17998   0.09819 
 H                    -1.32061  -0.13462   1.01899 
 H                    -2.2745    0.1468   -0.46092 
 H                    -1.24439  -1.30237  -0.3367 
 H                     2.30375   0.26203  -0.17728 
 H                     1.34011  -1.23732  -0.17658 
 H                     1.1899   -0.07143   1.17452 
 

 GradGradGradGradGradGradGradGradGradGradGradGradGradGradGradGradGradGrad
 Berny optimization.
 Initialization pass.
                           ----------------------------
                           !    Initial Parameters    !
                           ! (Angstroms and Degrees)  !
 --------------------------                            --------------------------
 ! Name  Definition              Value          Derivative Info.                !
 --------------------------------------------------------------------------------
 ! R1    R(1,2)                  1.8091         estimate D2E/DX2                !
 ! R2    R(1,5)                  1.0926         estimate D2E/DX2                !
 ! R3    R(1,6)                  1.0925         estimate D2E/DX2                !
 ! R4    R(1,7)                  1.0925         estimate D2E/DX2                !
 ! R5    R(2,3)                  1.5            estimate D2E/DX2                !
 ! R6    R(2,4)                  1.8091         estimate D2E/DX2                !
 ! R7    R(4,8)                  1.0925         estimate D2E/DX2                !
 ! R8    R(4,9)                  1.0925         estimate D2E/DX2                !
 ! R9    R(4,10)                 1.0926         estimate D2E/DX2                !
 ! A1    A(2,1,5)              109.9727         estimate D2E/DX2                !
 ! A2    A(2,1,6)              108.5766         estimate D2E/DX2                !
 ! A3    A(2,1,7)              109.4941         estimate D2E/DX2                !
 ! A4    A(5,1,6)              109.3676         estimate D2E/DX2                !
 ! A5    A(5,1,7)              110.0909         estimate D2E/DX2                !
 ! A6    A(6,1,7)              109.313          estimate D2E/DX2                !
 ! A7    A(1,2,3)              107.5001         estimate D2E/DX2                !
 ! A8    A(1,2,4)               95.7587         estimate D2E/DX2                !
 ! A9    A(3,2,4)              107.5002         estimate D2E/DX2                !
 ! A10   A(2,4,8)              108.5766         estimate D2E/DX2                !
 ! A11   A(2,4,9)              109.494          estimate D2E/DX2                !
 ! A12   A(2,4,10)             109.9728         estimate D2E/DX2                !
 ! A13   A(8,4,9)              109.313          estimate D2E/DX2                !
 ! A14   A(8,4,10)             109.3677         estimate D2E/DX2                !
 ! A15   A(9,4,10)             110.0908         estimate D2E/DX2                !
 ! D1    D(5,1,2,3)            -51.9844         estimate D2E/DX2                !
 ! D2    D(5,1,2,4)             58.4234         estimate D2E/DX2                !
 ! D3    D(6,1,2,3)             67.645          estimate D2E/DX2                !
 ! D4    D(6,1,2,4)            178.0527         estimate D2E/DX2                !
 ! D5    D(7,1,2,3)           -173.0737         estimate D2E/DX2                !
 ! D6    D(7,1,2,4)            -62.666          estimate D2E/DX2                !
 ! D7    D(1,2,4,8)           -178.053          estimate D2E/DX2                !
 ! D8    D(1,2,4,9)             62.6657         estimate D2E/DX2                !
 ! D9    D(1,2,4,10)           -58.4235         estimate D2E/DX2                !
 ! D10   D(3,2,4,8)            -67.6453         estimate D2E/DX2                !
 ! D11   D(3,2,4,9)            173.0734         estimate D2E/DX2                !
 ! D12   D(3,2,4,10)            51.9842         estimate D2E/DX2                !
 --------------------------------------------------------------------------------
 Trust Radius=3.00D-01 FncErr=1.00D-07 GrdErr=1.00D-06 EigMax=2.50D+02 EigMin=1.00D-04
 Number of steps in this run=     46 maximum allowed number of steps=    100.
 GradGradGradGradGradGradGradGradGradGradGradGradGradGradGradGradGradGrad

                          Input orientation:                          
 ---------------------------------------------------------------------
 Center     Atomic      Atomic             Coordinates (Angstroms)
 Number     Number       Type             X           Y           Z
 ---------------------------------------------------------------------
      1          6           0       -1.334463   -0.247377   -0.067706
      2         16           0        0.032578    0.681948   -0.802878
      3          8           0       -0.035706    2.082327   -0.269638
      4          6           0        1.343331   -0.179978    0.098194
      5          1           0       -1.320611   -0.134617    1.018986
      6          1           0       -2.274499    0.146797   -0.460919
      7          1           0       -1.244392   -1.302375   -0.336703
      8          1           0        2.303748    0.262026   -0.177281
      9          1           0        1.340112   -1.237325   -0.176579
     10          1           0        1.189902   -0.071426    1.174524
 ---------------------------------------------------------------------
                    Distance matrix (angstroms):
                    1          2          3          4          5
     1  C    0.000000
     2  S    1.809122   0.000000
     3  O    2.674896   1.500023   0.000000
     4  C    2.683775   1.809122   2.674896   0.000000
     5  H    1.092615   2.411863   2.868165   2.818954   0.000000
     6  H    1.092546   2.392891   2.965646   3.675335   1.783036
     7  H    1.092471   2.405308   3.594666   2.853983   1.790911
     8  H    3.675334   2.392890   2.965649   1.092546   3.837233
     9  H    2.853980   2.405308   3.594666   1.092470   3.118459
    10  H    2.818957   2.411865   2.868165   1.092616   2.516120
                    6          7          8          9         10
     6  H    0.000000
     7  H    1.782316   0.000000
     8  H    4.588472   3.880988   0.000000
     9  H    3.880986   2.590277   1.782315   0.000000
    10  H    3.837235   3.118467   1.783037   1.790911   0.000000
 Stoichiometry    C2H6OS
 Framework group  C1[X(C2H6OS)]
 Deg. of freedom    24
 Full point group                 C1      NOp   1
 Largest Abelian subgroup         C1      NOp   1
 Largest concise Abelian subgroup C1      NOp   1
                         Standard orientation:                         
 ---------------------------------------------------------------------
 Center     Atomic      Atomic             Coordinates (Angstroms)
 Number     Number       Type             X           Y           Z
 ---------------------------------------------------------------------
      1          6           0       -1.341886   -0.808631    0.177770
      2         16           0       -0.000000    0.238464   -0.435301
      3          8           0       -0.000003    1.496304    0.381954
      4          6           0        1.341889   -0.808627    0.177771
      5          1           0       -1.258057   -0.926795    1.260738
      6          1           0       -2.294236   -0.329792   -0.061812
      7          1           0       -1.295137   -1.784570   -0.310952
      8          1           0        2.294237   -0.329787   -0.061816
      9          1           0        1.295139   -1.784567   -0.310949
     10          1           0        1.258063   -0.926789    1.260739
 ---------------------------------------------------------------------
 Rotational constants (GHZ):           6.9345435           6.8530513           4.1540397
 Standard basis: 6-311++G(d,p) (5D, 7F)
 There are   142 symmetry adapted cartesian basis functions of A   symmetry.
 There are   138 symmetry adapted basis functions of A   symmetry.
   138 basis functions,   212 primitive gaussians,   142 cartesian basis functions
    21 alpha electrons       21 beta electrons
       nuclear repulsion energy       183.5453047467 Hartrees.
 NAtoms=   10 NActive=   10 NUniq=   10 SFac= 1.00D+00 NAtFMM=   60 NAOKFM=F Big=F
 Integral buffers will be    131072 words long.
 Raffenetti 2 integral format.
 Two-electron integral symmetry is turned on.
 One-electron integrals computed using PRISM.
 NBasis=   138 RedAO= T EigKep=  1.10D-04  NBF=   138
 NBsUse=   138 1.00D-06 EigRej= -1.00D+00 NBFU=   138
 ExpMin= 3.60D-02 ExpMax= 9.34D+04 ExpMxC= 3.17D+03 IAcc=3 IRadAn=         5 AccDes= 0.00D+00
 Harris functional with IExCor=  402 and IRadAn=       5 diagonalized for initial guess.
 HarFok:  IExCor=  402 AccDes= 0.00D+00 IRadAn=         5 IDoV= 1 UseB2=F ITyADJ=14
 ICtDFT=  3500011 ScaDFX=  1.000000  1.000000  1.000000  1.000000
 FoFCou: FMM=F IPFlag=           0 FMFlag=      100000 FMFlg1=           0
         NFxFlg=           0 DoJE=T BraDBF=F KetDBF=T FulRan=T
         wScrn=  0.000000 ICntrl=       500 IOpCl=  0 I1Cent=   200000004 NGrid=           0
         NMat0=    1 NMatS0=      1 NMatT0=    0 NMatD0=    1 NMtDS0=    0 NMtDT0=    0
 Petite list used in FoFCou.
 Keep R1 ints in memory in canonical form, NReq=53745969.
 Requested convergence on RMS density matrix=1.00D-08 within 128 cycles.
 Requested convergence on MAX density matrix=1.00D-06.
 Requested convergence on             energy=1.00D-06.
 No special actions if energy rises.
 SCF Done:  E(RB3LYP) =  -553.267129278     A.U. after   12 cycles
            NFock= 12  Conv=0.28D-08     -V/T= 2.0020

 **********************************************************************

            Population analysis using the SCF Density.

 **********************************************************************

 Orbital symmetries:
       Occupied  (A) (A) (A) (A) (A) (A) (A) (A) (A) (A) (A) (A)
                 (A) (A) (A) (A) (A) (A) (A) (A) (A)
       Virtual   (A) (A) (A) (A) (A) (A) (A) (A) (A) (A) (A) (A)
                 (A) (A) (A) (A) (A) (A) (A) (A) (A) (A) (A) (A)
                 (A) (A) (A) (A) (A) (A) (A) (A) (A) (A) (A) (A)
                 (A) (A) (A) (A) (A) (A) (A) (A) (A) (A) (A) (A)
                 (A) (A) (A) (A) (A) (A) (A) (A) (A) (A) (A) (A)
                 (A) (A) (A) (A) (A) (A) (A) (A) (A) (A) (A) (A)
                 (A) (A) (A) (A) (A) (A) (A) (A) (A) (A) (A) (A)
                 (A) (A) (A) (A) (A) (A) (A) (A) (A) (A) (A) (A)
                 (A) (A) (A) (A) (A) (A) (A) (A) (A) (A) (A) (A)
                 (A) (A) (A) (A) (A) (A) (A) (A) (A)
 The electronic state is 1-A.
 Alpha  occ. eigenvalues --  -88.95560 -19.08232 -10.20612 -10.20612  -8.03287
 Alpha  occ. eigenvalues --   -5.99552  -5.99451  -5.98853  -1.02223  -0.80635
 Alpha  occ. eigenvalues --   -0.73261  -0.61466  -0.47957  -0.46982  -0.46952
 Alpha  occ. eigenvalues --   -0.43442  -0.41202  -0.40433  -0.36430  -0.27833
 Alpha  occ. eigenvalues --   -0.23830
 Alpha virt. eigenvalues --   -0.01724  -0.00293   0.01393   0.02114   0.02667
 Alpha virt. eigenvalues --    0.02984   0.04099   0.04808   0.05336   0.07349
 Alpha virt. eigenvalues --    0.07980   0.09175   0.10229   0.11113   0.11666
 Alpha virt. eigenvalues --    0.12259   0.12940   0.13885   0.14408   0.14458
 Alpha virt. eigenvalues --    0.15580   0.15731   0.16300   0.17938   0.21322
 Alpha virt. eigenvalues --    0.25504   0.26394   0.26703   0.28380   0.30273
 Alpha virt. eigenvalues --    0.31760   0.31956   0.34057   0.37931   0.38341
 Alpha virt. eigenvalues --    0.39451   0.46676   0.51455   0.51844   0.55153
 Alpha virt. eigenvalues --    0.61235   0.63021   0.63077   0.63527   0.67399
 Alpha virt. eigenvalues --    0.71448   0.71645   0.72559   0.75456   0.81989
 Alpha virt. eigenvalues --    0.85827   0.93283   0.95580   1.03470   1.07127
 Alpha virt. eigenvalues --    1.08448   1.08875   1.11650   1.15778   1.19138
 Alpha virt. eigenvalues --    1.19746   1.41118   1.41946   1.51896   1.53919
 Alpha virt. eigenvalues --    1.54063   1.56823   1.58828   1.61794   1.63321
 Alpha virt. eigenvalues --    1.66455   1.71511   1.71592   1.76547   1.86137
 Alpha virt. eigenvalues --    1.90645   1.91501   1.96471   2.02981   2.13969
 Alpha virt. eigenvalues --    2.15833   2.19342   2.21665   2.42589   2.42621
 Alpha virt. eigenvalues --    2.46889   2.48152   2.48560   2.49483   2.50989
 Alpha virt. eigenvalues --    2.55353   2.56851   2.68486   2.84495   2.86329
 Alpha virt. eigenvalues --    2.88145   2.96128   2.96961   2.98427   3.20020
 Alpha virt. eigenvalues --    3.25565   3.53002   3.71669   3.71818   3.72014
 Alpha virt. eigenvalues --    3.72216   5.05045   5.07083   5.17330   8.02328
 Alpha virt. eigenvalues --   17.34472  17.34547  17.40056  23.89180  23.90089
 Alpha virt. eigenvalues --   49.90275 189.16553
          Condensed to atoms (all electrons):
               1          2          3          4          5          6
     1  C    5.980065  -0.081161  -0.173761  -0.200285   0.376709   0.348914
     2  S   -0.081161  15.567731   0.194326  -0.081161  -0.037530  -0.043116
     3  O   -0.173761   0.194326   8.577099  -0.173760   0.006649   0.002903
     4  C   -0.200285  -0.081161  -0.173760   5.980065  -0.011415   0.035544
     5  H    0.376709  -0.037530   0.006649  -0.011415   0.540172  -0.021399
     6  H    0.348914  -0.043116   0.002903   0.035544  -0.021399   0.511262
     7  H    0.243852  -0.017741   0.017249   0.061891  -0.049854  -0.017779
     8  H    0.035543  -0.043114   0.002903   0.348912  -0.002728  -0.001498
     9  H    0.061891  -0.017741   0.017249   0.243852   0.005246  -0.005371
    10  H   -0.011415  -0.037531   0.006649   0.376710   0.005655  -0.002728
               7          8          9         10
     1  C    0.243852   0.035543   0.061891  -0.011415
     2  S   -0.017741  -0.043114  -0.017741  -0.037531
     3  O    0.017249   0.002903   0.017249   0.006649
     4  C    0.061891   0.348912   0.243852   0.376710
     5  H   -0.049854  -0.002728   0.005246   0.005655
     6  H   -0.017779  -0.001498  -0.005371  -0.002728
     7  H    0.645454  -0.005371  -0.021769   0.005246
     8  H   -0.005371   0.511261  -0.017779  -0.021398
     9  H   -0.021769  -0.017779   0.645455  -0.049855
    10  H    0.005246  -0.021398  -0.049855   0.540172
 Mulliken charges:
               1
     1  C   -0.580351
     2  S    0.597038
     3  O   -0.477505
     4  C   -0.580352
     5  H    0.188496
     6  H    0.193268
     7  H    0.138821
     8  H    0.193267
     9  H    0.138822
    10  H    0.188496
 Sum of Mulliken charges =  -0.00000
 Mulliken charges with hydrogens summed into heavy atoms:
               1
     1  C   -0.059766
     2  S    0.597038
     3  O   -0.477505
     4  C   -0.059767
 Electronic spatial extent (au):  <R**2>=            365.9536
 Charge=             -0.0000 electrons
 Dipole moment (field-independent basis, Debye):
    X=              0.0000    Y=             -4.3715    Z=             -0.6910  Tot=              4.4258
 Quadrupole moment (field-independent basis, Debye-Ang):
   XX=            -28.8797   YY=            -37.6992   ZZ=            -33.7677
   XY=              0.0000   XZ=              0.0000   YZ=             -1.9744
 Traceless Quadrupole moment (field-independent basis, Debye-Ang):
   XX=              4.5692   YY=             -4.2503   ZZ=             -0.3188
   XY=              0.0000   XZ=              0.0000   YZ=             -1.9744
 Octapole moment (field-independent basis, Debye-Ang**2):
  XXX=             -0.0000  YYY=             -9.0170  ZZZ=              3.0756  XYY=              0.0000
  XXY=              1.2311  XXZ=             -1.2977  XZZ=              0.0000  YZZ=             -0.6100
  YYZ=             -4.2511  XYZ=             -0.0000
 Hexadecapole moment (field-independent basis, Debye-Ang**3):
 XXXX=           -207.9851 YYYY=           -212.5755 ZZZZ=            -77.5702 XXXY=              0.0000
 XXXZ=             -0.0000 YYYX=              0.0000 YYYZ=              0.7171 ZZZX=              0.0000
 ZZZY=             -2.1508 XXYY=            -71.9724 XXZZ=            -50.3860 YYZZ=            -46.4408
 XXYZ=             -0.2186 YYXZ=              0.0000 ZZXY=              0.0000
 N-N= 1.835453047467D+02 E-N=-1.676053957071D+03  KE= 5.521712824837D+02
 ******************************Gaussian NBO Version 3.1******************************
             N A T U R A L   A T O M I C   O R B I T A L   A N D
          N A T U R A L   B O N D   O R B I T A L   A N A L Y S I S
 ******************************Gaussian NBO Version 3.1******************************
       /RESON  / : Allow strongly delocalized NBO set

 Analyzing the SCF density

 Job title: CS(=O)C                                                         

 Storage needed:     57894 in NPA,     76720 in NBO (1258290600 available)
 GSVD:  LWork=        5930 too small for GESVD, short by       19587 words or       19587 for optimal perf.


 NATURAL POPULATIONS:  Natural atomic orbital occupancies 
                                                          
   NAO  Atom  No  lang   Type(AO)    Occupancy      Energy
 ----------------------------------------------------------
     1    C    1  S      Cor( 1S)     1.99925     -10.08118
     2    C    1  S      Val( 2S)     1.20329      -0.36913
     3    C    1  S      Ryd( 4S)     0.00162       0.84873
     4    C    1  S      Ryd( 3S)     0.00026       0.67088
     5    C    1  S      Ryd( 5S)     0.00000      23.15938
     6    C    1  px     Val( 2p)     1.16230      -0.16573
     7    C    1  px     Ryd( 4p)     0.00196       0.58754
     8    C    1  px     Ryd( 3p)     0.00057       0.33263
     9    C    1  px     Ryd( 5p)     0.00009       2.93975
    10    C    1  py     Val( 2p)     1.17024      -0.15519
    11    C    1  py     Ryd( 4p)     0.00173       0.53920
    12    C    1  py     Ryd( 3p)     0.00034       0.32280
    13    C    1  py     Ryd( 5p)     0.00007       2.97810
    14    C    1  pz     Val( 2p)     1.22462      -0.14816
    15    C    1  pz     Ryd( 4p)     0.00107       0.51572
    16    C    1  pz     Ryd( 3p)     0.00006       0.30996
    17    C    1  pz     Ryd( 5p)     0.00006       3.01741
    18    C    1  dxy    Ryd( 3d)     0.00088       1.95267
    19    C    1  dxz    Ryd( 3d)     0.00050       1.74543
    20    C    1  dyz    Ryd( 3d)     0.00065       1.89723
    21    C    1  dx2y2  Ryd( 3d)     0.00062       1.93345
    22    C    1  dz2    Ryd( 3d)     0.00100       2.13349
 
    23    S    2  S      Cor( 1S)     2.00000     -87.87639
    24    S    2  S      Cor( 2S)     1.99913      -8.88176
    25    S    2  S      Val( 3S)     1.48416      -0.66384
    26    S    2  S      Ryd( 5S)     0.03053       0.69871
    27    S    2  S      Ryd( 4S)     0.00028       0.49476
    28    S    2  S      Ryd( 6S)     0.00001      16.93671
    29    S    2  S      Ryd( 7S)     0.00000     179.64787
    30    S    2  px     Cor( 2p)     1.99993      -5.98601
    31    S    2  px     Val( 3p)     0.96121      -0.19968
    32    S    2  px     Ryd( 5p)     0.00392       0.67228
    33    S    2  px     Ryd( 6p)     0.00017       1.44542
    34    S    2  px     Ryd( 4p)     0.00015       0.66324
    35    S    2  px     Ryd( 7p)     0.00000      16.69094
    36    S    2  py     Cor( 2p)     1.99991      -5.98488
    37    S    2  py     Val( 3p)     0.79670      -0.16848
    38    S    2  py     Ryd( 4p)     0.00686       0.69010
    39    S    2  py     Ryd( 6p)     0.00216       1.41463
    40    S    2  py     Ryd( 5p)     0.00045       0.69841
    41    S    2  py     Ryd( 7p)     0.00000      16.70905
    42    S    2  pz     Cor( 2p)     1.99993      -5.98099
    43    S    2  pz     Val( 3p)     1.44779      -0.24070
    44    S    2  pz     Ryd( 5p)     0.00824       0.79350
    45    S    2  pz     Ryd( 6p)     0.00034       1.35233
    46    S    2  pz     Ryd( 4p)     0.00019       0.67038
    47    S    2  pz     Ryd( 7p)     0.00000      16.74370
    48    S    2  dxy    Ryd( 3d)     0.02950       0.90423
    49    S    2  dxz    Ryd( 3d)     0.00667       0.84134
    50    S    2  dyz    Ryd( 3d)     0.01574       0.96450
    51    S    2  dx2y2  Ryd( 3d)     0.00971       0.87807
    52    S    2  dz2    Ryd( 3d)     0.01655       0.81250
 
    53    O    3  S      Cor( 1S)     1.99986     -18.87406
    54    O    3  S      Val( 2S)     1.84305      -0.95049
    55    O    3  S      Ryd( 3S)     0.00202       1.12055
    56    O    3  S      Ryd( 4S)     0.00018       1.32152
    57    O    3  S      Ryd( 5S)     0.00000      49.58261
    58    O    3  px     Val( 2p)     1.81508      -0.26288
    59    O    3  px     Ryd( 3p)     0.00168       0.58325
    60    O    3  px     Ryd( 4p)     0.00011       1.15008
    61    O    3  px     Ryd( 5p)     0.00001       4.73066
    62    O    3  py     Val( 2p)     1.54217      -0.28765
    63    O    3  py     Ryd( 3p)     0.00337       0.70918
    64    O    3  py     Ryd( 4p)     0.00023       1.11361
    65    O    3  py     Ryd( 5p)     0.00006       4.86064
    66    O    3  pz     Val( 2p)     1.74287      -0.27410
    67    O    3  pz     Ryd( 3p)     0.00248       0.59072
    68    O    3  pz     Ryd( 4p)     0.00024       1.08965
    69    O    3  pz     Ryd( 5p)     0.00002       4.78486
    70    O    3  dxy    Ryd( 3d)     0.00094       2.93653
    71    O    3  dxz    Ryd( 3d)     0.00040       2.89601
    72    O    3  dyz    Ryd( 3d)     0.00113       3.25014
    73    O    3  dx2y2  Ryd( 3d)     0.00086       3.09947
    74    O    3  dz2    Ryd( 3d)     0.00078       2.92832
 
    75    C    4  S      Cor( 1S)     1.99925     -10.08118
    76    C    4  S      Val( 2S)     1.20329      -0.36913
    77    C    4  S      Ryd( 4S)     0.00162       0.84872
    78    C    4  S      Ryd( 3S)     0.00026       0.67088
    79    C    4  S      Ryd( 5S)     0.00000      23.15938
    80    C    4  px     Val( 2p)     1.16230      -0.16573
    81    C    4  px     Ryd( 4p)     0.00196       0.58754
    82    C    4  px     Ryd( 3p)     0.00057       0.33263
    83    C    4  px     Ryd( 5p)     0.00009       2.93975
    84    C    4  py     Val( 2p)     1.17024      -0.15519
    85    C    4  py     Ryd( 4p)     0.00173       0.53920
    86    C    4  py     Ryd( 3p)     0.00034       0.32280
    87    C    4  py     Ryd( 5p)     0.00007       2.97810
    88    C    4  pz     Val( 2p)     1.22462      -0.14816
    89    C    4  pz     Ryd( 4p)     0.00107       0.51572
    90    C    4  pz     Ryd( 3p)     0.00006       0.30996
    91    C    4  pz     Ryd( 5p)     0.00006       3.01741
    92    C    4  dxy    Ryd( 3d)     0.00088       1.95267
    93    C    4  dxz    Ryd( 3d)     0.00050       1.74544
    94    C    4  dyz    Ryd( 3d)     0.00065       1.89723
    95    C    4  dx2y2  Ryd( 3d)     0.00062       1.93345
    96    C    4  dz2    Ryd( 3d)     0.00100       2.13348
 
    97    H    5  S      Val( 1S)     0.77708       0.01000
    98    H    5  S      Ryd( 3S)     0.00131       0.67451
    99    H    5  S      Ryd( 4S)     0.00015       2.07336
   100    H    5  S      Ryd( 2S)     0.00007       0.21669
   101    H    5  px     Ryd( 2p)     0.00013       1.67907
   102    H    5  py     Ryd( 2p)     0.00012       1.70260
   103    H    5  pz     Ryd( 2p)     0.00036       2.62033
 
   104    H    6  S      Val( 1S)     0.76849       0.01687
   105    H    6  S      Ryd( 2S)     0.00077       0.51264
   106    H    6  S      Ryd( 3S)     0.00019       0.82407
   107    H    6  S      Ryd( 4S)     0.00012       1.58258
   108    H    6  px     Ryd( 2p)     0.00034       2.39384
   109    H    6  py     Ryd( 2p)     0.00018       1.84490
   110    H    6  pz     Ryd( 2p)     0.00009       1.73009
 
   111    H    7  S      Val( 1S)     0.78422      -0.00314
   112    H    7  S      Ryd( 2S)     0.00492       0.21458
   113    H    7  S      Ryd( 3S)     0.00058       0.38472
   114    H    7  S      Ryd( 4S)     0.00014       2.23042
   115    H    7  px     Ryd( 2p)     0.00017       1.67674
   116    H    7  py     Ryd( 2p)     0.00034       2.42050
   117    H    7  pz     Ryd( 2p)     0.00014       1.87606
 
   118    H    8  S      Val( 1S)     0.76849       0.01687
   119    H    8  S      Ryd( 2S)     0.00077       0.51264
   120    H    8  S      Ryd( 3S)     0.00019       0.82406
   121    H    8  S      Ryd( 4S)     0.00012       1.58258
   122    H    8  px     Ryd( 2p)     0.00034       2.39384
   123    H    8  py     Ryd( 2p)     0.00018       1.84490
   124    H    8  pz     Ryd( 2p)     0.00009       1.73009
 
   125    H    9  S      Val( 1S)     0.78422      -0.00314
   126    H    9  S      Ryd( 2S)     0.00492       0.21458
   127    H    9  S      Ryd( 3S)     0.00058       0.38472
   128    H    9  S      Ryd( 4S)     0.00014       2.23042
   129    H    9  px     Ryd( 2p)     0.00017       1.67674
   130    H    9  py     Ryd( 2p)     0.00034       2.42050
   131    H    9  pz     Ryd( 2p)     0.00014       1.87606
 
   132    H   10  S      Val( 1S)     0.77708       0.01000
   133    H   10  S      Ryd( 3S)     0.00131       0.67451
   134    H   10  S      Ryd( 4S)     0.00015       2.07336
   135    H   10  S      Ryd( 2S)     0.00007       0.21669
   136    H   10  px     Ryd( 2p)     0.00013       1.67907
   137    H   10  py     Ryd( 2p)     0.00012       1.70260
   138    H   10  pz     Ryd( 2p)     0.00036       2.62033

 WARNING:  Population inversion found on atom  C    1
           Population inversion found on atom  S    2
           Population inversion found on atom  C    4
           Population inversion found on atom  H    5
           Population inversion found on atom  H   10


 Summary of Natural Population Analysis:                  
                                                          
                                       Natural Population 
                Natural  -----------------------------------------------
    Atom  No    Charge         Core      Valence    Rydberg      Total
 -----------------------------------------------------------------------
      C    1   -0.77119      1.99925     4.76045    0.01148     6.77119
      S    2    1.17975      9.99890     4.68986    0.13149    14.82025
      O    3   -0.95754      1.99986     6.94317    0.01452     8.95754
      C    4   -0.77119      1.99925     4.76045    0.01148     6.77119
      H    5    0.22077      0.00000     0.77708    0.00215     0.77923
      H    6    0.22982      0.00000     0.76849    0.00169     0.77018
      H    7    0.20949      0.00000     0.78422    0.00629     0.79051
      H    8    0.22982      0.00000     0.76849    0.00169     0.77018
      H    9    0.20949      0.00000     0.78422    0.00629     0.79051
      H   10    0.22077      0.00000     0.77708    0.00215     0.77923
 =======================================================================
   * Total *   -0.00000     15.99727    25.81351    0.18922    42.00000

                                 Natural Population      
 --------------------------------------------------------
   Core                      15.99727 ( 99.9829% of  16)
   Valence                   25.81351 ( 99.2827% of  26)
   Natural Minimal Basis     41.81078 ( 99.5495% of  42)
   Natural Rydberg Basis      0.18922 (  0.4505% of  42)
 --------------------------------------------------------

    Atom  No          Natural Electron Configuration
 ----------------------------------------------------------------------------
      C    1      [core]2S( 1.20)2p( 3.56)
      S    2      [core]3S( 1.48)3p( 3.21)3d( 0.08)4p( 0.01)5S( 0.03)5p( 0.01)
      O    3      [core]2S( 1.84)2p( 5.10)3p( 0.01)
      C    4      [core]2S( 1.20)2p( 3.56)
      H    5            1S( 0.78)
      H    6            1S( 0.77)
      H    7            1S( 0.78)
      H    8            1S( 0.77)
      H    9            1S( 0.78)
      H   10            1S( 0.78)


 NATURAL BOND ORBITAL ANALYSIS:

                       Occupancies       Lewis Structure    Low   High
           Occ.    -------------------  -----------------   occ   occ
  Cycle   Thresh.   Lewis   Non-Lewis     CR  BD  3C  LP    (L)   (NL)   Dev
 =============================================================================
   1(1)    1.90    40.62594   1.37406      8  10   0   3     2      3    0.92
   2(2)    1.90    40.62594   1.37406      8  10   0   3     2      3    0.92
   3(1)    1.80    41.58236   0.41764      8   9   0   4     0      2    0.25
   4(2)    1.80    41.58236   0.41764      8   9   0   4     0      2    0.25
   5(1)    1.70    41.58236   0.41764      8   9   0   4     0      2    0.25
   6(2)    1.70    41.58236   0.41764      8   9   0   4     0      2    0.25
   7(1)    1.60    41.58236   0.41764      8   9   0   4     0      2    0.25
   8(2)    1.60    41.58236   0.41764      8   9   0   4     0      2    0.25
   9(1)    1.50    41.58236   0.41764      8   9   0   4     0      2    0.25
  10(2)    1.50    41.58236   0.41764      8   9   0   4     0      2    0.25
  11(1)    1.80    41.58236   0.41764      8   9   0   4     0      2    0.25
 -----------------------------------------------------------------------------

 Structure accepted: RESONANCE keyword permits strongly delocalized structure

 --------------------------------------------------------
   Core                     15.99726 ( 99.983% of  16)
   Valence Lewis            25.58510 ( 98.404% of  26)
  ==================       ============================
   Total Lewis              41.58236 ( 99.006% of  42)
  -----------------------------------------------------
   Valence non-Lewis         0.29721 (  0.708% of  42)
   Rydberg non-Lewis         0.12043 (  0.287% of  42)
  ==================       ============================
   Total non-Lewis           0.41764 (  0.994% of  42)
 --------------------------------------------------------


       (Occupancy)   Bond orbital/ Coefficients/ Hybrids
 ---------------------------------------------------------------------------------
     1. (1.98651) BD ( 1) C   1 - S   2  
                ( 52.37%)   0.7237* C   1 s( 21.86%)p 3.57( 78.05%)d 0.00(  0.09%)
                                            0.0001  0.4675  0.0005 -0.0059 -0.0006
                                            0.6620  0.0126 -0.0126 -0.0055  0.5057
                                           -0.0136 -0.0034 -0.0039 -0.2931  0.0036
                                            0.0010  0.0018  0.0216 -0.0131 -0.0092
                                            0.0066 -0.0102
                ( 47.63%)   0.6901* S   2 s( 15.75%)p 5.28( 83.19%)d 0.07(  1.06%)
                                           -0.0000  0.0001  0.3935 -0.0508  0.0059
                                            0.0012 -0.0000  0.0000 -0.7010 -0.0342
                                            0.0053  0.0013 -0.0001 -0.0000 -0.4727
                                           -0.0190  0.0126  0.0026 -0.0006  0.0000
                                            0.3389 -0.0235 -0.0026 -0.0021  0.0003
                                            0.0742 -0.0442 -0.0476  0.0122 -0.0263
     2. (1.99387) BD ( 1) C   1 - H   5  
                ( 61.44%)   0.7838* C   1 s( 26.42%)p 2.78( 73.52%)d 0.00(  0.06%)
                                            0.0001  0.5140 -0.0006  0.0028  0.0002
                                            0.0806  0.0113  0.0032 -0.0007 -0.0883
                                            0.0016  0.0002 -0.0018  0.8490 -0.0024
                                            0.0037  0.0029  0.0005  0.0064 -0.0033
                                           -0.0001  0.0228
                ( 38.56%)   0.6210* H   5 s( 99.96%)p 0.00(  0.04%)
                                            0.9998  0.0035  0.0004  0.0001  0.0012
                                            0.0020 -0.0200
     3. (1.99169) BD ( 1) C   1 - H   6  
                ( 61.61%)   0.7849* C   1 s( 25.89%)p 2.86( 74.05%)d 0.00(  0.06%)
                                            0.0000  0.5088  0.0035  0.0033  0.0003
                                           -0.7424  0.0022 -0.0032 -0.0024  0.3878
                                            0.0056  0.0042  0.0001 -0.1970 -0.0060
                                           -0.0010 -0.0009 -0.0163  0.0095 -0.0063
                                            0.0090 -0.0106
                ( 38.39%)   0.6196* H   6 s( 99.96%)p 0.00(  0.04%)
                                            0.9998  0.0010  0.0002  0.0004  0.0185
                                           -0.0075  0.0026
     4. (1.98911) BD ( 1) C   1 - H   7  
                ( 60.83%)   0.7799* C   1 s( 25.79%)p 2.87( 74.15%)d 0.00(  0.06%)
                                           -0.0001  0.5078 -0.0000  0.0010 -0.0001
                                            0.0525  0.0116  0.0003  0.0001 -0.7648
                                            0.0097 -0.0019 -0.0010 -0.3920 -0.0007
                                           -0.0003 -0.0008 -0.0043 -0.0041  0.0184
                                           -0.0148 -0.0035
                ( 39.17%)   0.6259* H   7 s( 99.95%)p 0.00(  0.05%)
                                            0.9998 -0.0043  0.0009  0.0003  0.0032
                                            0.0196  0.0077
     5. (1.99188) BD ( 1) S   2 - O   3  
                ( 37.57%)   0.6130* S   2 s( 20.75%)p 3.76( 77.96%)d 0.06(  1.29%)
                                           -0.0000  0.0002  0.4407 -0.1151 -0.0096
                                           -0.0006 -0.0000  0.0000 -0.0000 -0.0000
                                           -0.0000 -0.0000  0.0000 -0.0001  0.7236
                                            0.0698  0.0223  0.0015 -0.0013 -0.0000
                                            0.5004  0.0141  0.0033 -0.0033 -0.0006
                                           -0.0000 -0.0000  0.0956 -0.0611  0.0053
                ( 62.43%)   0.7901* O   3 s( 20.34%)p 3.91( 79.55%)d 0.01(  0.11%)
                                            0.0000  0.4495 -0.0368 -0.0016 -0.0000
                                            0.0000 -0.0000 -0.0000 -0.0000 -0.7418
                                            0.0403  0.0099  0.0015 -0.4930  0.0228
                                           -0.0005 -0.0003 -0.0000 -0.0000  0.0261
                                           -0.0208 -0.0031
     6. (1.98651) BD ( 1) S   2 - C   4  
                ( 47.63%)   0.6901* S   2 s( 15.75%)p 5.28( 83.19%)d 0.07(  1.06%)
                                           -0.0000  0.0001  0.3935 -0.0508  0.0059
                                            0.0012 -0.0000 -0.0000  0.7010  0.0342
                                           -0.0053 -0.0013  0.0001 -0.0000 -0.4727
                                           -0.0190  0.0126  0.0026 -0.0006  0.0000
                                            0.3389 -0.0235 -0.0026 -0.0021  0.0003
                                           -0.0742  0.0442 -0.0476  0.0122 -0.0263
                ( 52.37%)   0.7237* C   4 s( 21.86%)p 3.57( 78.05%)d 0.00(  0.09%)
                                            0.0001  0.4675  0.0005 -0.0059 -0.0006
                                           -0.6620 -0.0126  0.0126  0.0055  0.5057
                                           -0.0136 -0.0034 -0.0039 -0.2931  0.0036
                                            0.0010  0.0018 -0.0216  0.0131 -0.0092
                                            0.0066 -0.0102
     7. (1.99169) BD ( 1) C   4 - H   8  
                ( 61.61%)   0.7849* C   4 s( 25.89%)p 2.86( 74.05%)d 0.00(  0.06%)
                                            0.0000  0.5088  0.0035  0.0033  0.0003
                                            0.7424 -0.0022  0.0032  0.0024  0.3878
                                            0.0056  0.0042  0.0001 -0.1971 -0.0060
                                           -0.0010 -0.0009  0.0163 -0.0095 -0.0063
                                            0.0090 -0.0106
                ( 38.39%)   0.6196* H   8 s( 99.96%)p 0.00(  0.04%)
                                            0.9998  0.0010  0.0002  0.0004 -0.0185
                                           -0.0075  0.0026
     8. (1.98911) BD ( 1) C   4 - H   9  
                ( 60.83%)   0.7799* C   4 s( 25.79%)p 2.87( 74.15%)d 0.00(  0.06%)
                                           -0.0001  0.5078 -0.0000  0.0010 -0.0001
                                           -0.0525 -0.0116 -0.0003 -0.0001 -0.7648
                                            0.0097 -0.0019 -0.0010 -0.3920 -0.0007
                                           -0.0003 -0.0008  0.0043  0.0041  0.0184
                                           -0.0148 -0.0035
                ( 39.17%)   0.6259* H   9 s( 99.95%)p 0.00(  0.05%)
                                            0.9998 -0.0043  0.0009  0.0003 -0.0032
                                            0.0196  0.0077
     9. (1.99387) BD ( 1) C   4 - H  10  
                ( 61.44%)   0.7838* C   4 s( 26.42%)p 2.78( 73.52%)d 0.00(  0.06%)
                                            0.0001  0.5140 -0.0006  0.0028  0.0002
                                           -0.0806 -0.0113 -0.0032  0.0007 -0.0883
                                            0.0016  0.0002 -0.0018  0.8490 -0.0024
                                            0.0037  0.0029 -0.0005 -0.0064 -0.0033
                                           -0.0001  0.0228
                ( 38.56%)   0.6210* H  10 s( 99.96%)p 0.00(  0.04%)
                                            0.9998  0.0035  0.0004  0.0001 -0.0012
                                            0.0020 -0.0200
    10. (1.99925) CR ( 1) C   1           s(100.00%)p 0.00(  0.00%)
                                            1.0000 -0.0001 -0.0000  0.0000  0.0000
                                           -0.0001 -0.0000  0.0000  0.0000 -0.0001
                                            0.0000  0.0000  0.0000 -0.0000 -0.0000
                                           -0.0000 -0.0000 -0.0000  0.0000  0.0000
                                           -0.0000 -0.0000
    11. (2.00000) CR ( 1) S   2           s(100.00%)
                                            1.0000  0.0000  0.0000 -0.0000 -0.0000
                                            0.0000  0.0000  0.0000  0.0000  0.0000
                                           -0.0000 -0.0000  0.0000  0.0000 -0.0000
                                            0.0000  0.0000  0.0000 -0.0000  0.0000
                                           -0.0000  0.0000 -0.0000 -0.0000  0.0000
                                           -0.0000  0.0000 -0.0000  0.0000 -0.0000
    12. (1.99913) CR ( 2) S   2           s(100.00%)
                                            0.0000  1.0000 -0.0002  0.0000  0.0000
                                            0.0000  0.0000 -0.0000  0.0000  0.0000
                                            0.0000  0.0000 -0.0000  0.0000 -0.0001
                                           -0.0000 -0.0000 -0.0000  0.0000 -0.0000
                                           -0.0000 -0.0000 -0.0000  0.0000  0.0000
                                            0.0000  0.0000 -0.0000  0.0000  0.0000
    13. (1.99993) CR ( 3) S   2           s(  0.00%)p 1.00(100.00%)
                                            0.0000 -0.0000  0.0000  0.0000  0.0000
                                           -0.0000  0.0000  1.0000  0.0001  0.0000
                                           -0.0000 -0.0000  0.0000  0.0000  0.0000
                                           -0.0000 -0.0000  0.0000  0.0000  0.0000
                                           -0.0000  0.0000 -0.0000  0.0000  0.0000
                                           -0.0000  0.0000 -0.0000  0.0000  0.0000
    14. (1.99991) CR ( 4) S   2           s(  0.00%)p 1.00(100.00%)
                                            0.0000  0.0000  0.0000 -0.0000 -0.0000
                                            0.0000 -0.0000  0.0000 -0.0000 -0.0000
                                           -0.0000  0.0000  0.0000  1.0000  0.0000
                                            0.0000  0.0000 -0.0000 -0.0000 -0.0000
                                            0.0001 -0.0000  0.0000 -0.0000 -0.0000
                                           -0.0000 -0.0000  0.0000 -0.0000 -0.0000
    15. (1.99993) CR ( 5) S   2           s(  0.00%)p 1.00(100.00%)
                                            0.0000 -0.0000 -0.0000 -0.0000 -0.0000
                                           -0.0000 -0.0000  0.0000 -0.0000 -0.0000
                                           -0.0000  0.0000  0.0000 -0.0000  0.0000
                                            0.0000 -0.0000 -0.0000  0.0000  1.0000
                                            0.0000 -0.0000  0.0000  0.0000 -0.0000
                                           -0.0000 -0.0000  0.0000 -0.0000  0.0000
    16. (1.99986) CR ( 1) O   3           s(100.00%)p 0.00(  0.00%)
                                            1.0000  0.0001  0.0000  0.0000  0.0000
                                           -0.0000 -0.0000  0.0000 -0.0000  0.0002
                                           -0.0000 -0.0000  0.0000 -0.0001 -0.0000
                                           -0.0000  0.0000  0.0000 -0.0000  0.0000
                                            0.0000  0.0000
    17. (1.99925) CR ( 1) C   4           s(100.00%)p 0.00(  0.00%)
                                            1.0000 -0.0001 -0.0000  0.0000  0.0000
                                            0.0001  0.0000 -0.0000 -0.0000 -0.0001
                                            0.0000  0.0000  0.0000 -0.0000 -0.0000
                                           -0.0000 -0.0000  0.0000 -0.0000  0.0000
                                           -0.0000 -0.0000
    18. (1.96952) LP ( 1) S   2           s( 49.51%)p 1.02( 50.45%)d 0.00(  0.03%)
                                           -0.0000  0.0002  0.7013  0.0578 -0.0011
                                           -0.0006  0.0000 -0.0000  0.0000 -0.0000
                                            0.0000 -0.0000  0.0000  0.0001  0.0691
                                            0.0090 -0.0051  0.0115 -0.0002  0.0000
                                           -0.7051  0.0490 -0.0005 -0.0001  0.0002
                                            0.0000 -0.0000  0.0030  0.0171  0.0044
    19. (1.99391) LP ( 1) O   3           s( 78.90%)p 0.27( 21.09%)d 0.00(  0.00%)
                                           -0.0001  0.8882  0.0114  0.0003 -0.0000
                                           -0.0000  0.0000  0.0000 -0.0000  0.3141
                                           -0.0138 -0.0029  0.0045  0.3347 -0.0053
                                           -0.0001  0.0029  0.0000  0.0000 -0.0043
                                            0.0017 -0.0021
    20. (1.89069) LP ( 2) O   3           s(  0.88%)p99.99( 99.06%)d 0.07(  0.06%)
                                           -0.0002  0.0937  0.0008  0.0040  0.0001
                                           -0.0000 -0.0000  0.0000 -0.0000  0.5894
                                            0.0093 -0.0004 -0.0002 -0.8017 -0.0178
                                           -0.0054  0.0001  0.0000 -0.0000  0.0106
                                            0.0126  0.0193
    21. (1.81675) LP ( 3) O   3           s(  0.00%)p 1.00( 99.93%)d 0.00(  0.07%)
                                           -0.0000 -0.0000 -0.0000  0.0000  0.0000
                                            0.9995  0.0141  0.0012 -0.0018  0.0000
                                            0.0000 -0.0000 -0.0000  0.0000 -0.0000
                                            0.0000 -0.0000 -0.0223 -0.0147 -0.0000
                                            0.0000 -0.0000
    22. (0.00273) RY*( 1) C   1           s( 40.14%)p 1.34( 53.92%)d 0.15(  5.94%)
                                           -0.0000  0.0090  0.6312  0.0528 -0.0089
                                            0.0061 -0.5440 -0.1314 -0.0340 -0.0037
                                            0.1446  0.1029  0.0336  0.0060  0.4235
                                            0.1115 -0.0166  0.0549  0.1138  0.0868
                                            0.0938 -0.1647
    23. (0.00222) RY*( 2) C   1           s( 23.92%)p 2.92( 69.88%)d 0.26(  6.20%)
                                            0.0000 -0.0064  0.4640 -0.1539  0.0134
                                           -0.0122  0.2946 -0.2103 -0.0099 -0.0138
                                           -0.6944 -0.1605  0.0456  0.0069 -0.2294
                                            0.0282 -0.0620  0.0907  0.0405  0.0547
                                            0.1315 -0.1785
    24. (0.00108) RY*( 3) C   1           s(  8.53%)p10.25( 87.43%)d 0.47(  4.04%)
                                           -0.0000  0.0080  0.1089  0.2706 -0.0103
                                            0.0058 -0.4390  0.4060 -0.1566 -0.0035
                                           -0.2637  0.3271 -0.1579 -0.0064 -0.5218
                                           -0.0074  0.1354  0.0357 -0.0980 -0.1401
                                           -0.0412  0.0906
    25. (0.00046) RY*( 4) C   1           s(  5.68%)p10.06( 57.14%)d 6.55( 37.18%)
                                            0.0000  0.0002 -0.0842  0.2228  0.0084
                                           -0.0150  0.1390  0.0377  0.1148  0.0017
                                           -0.4124  0.2830 -0.0800 -0.0024  0.5201
                                            0.0316  0.0961  0.2263  0.0044 -0.1486
                                           -0.5413  0.0735
    26. (0.00016) RY*( 5) C   1           s(  9.83%)p 8.21( 80.71%)d 0.96(  9.46%)
                                            0.0000 -0.0133  0.3109  0.0354 -0.0165
                                            0.0015  0.4440 -0.3037 -0.2229 -0.0027
                                            0.3084  0.5138 -0.1896  0.0005 -0.0876
                                           -0.0323  0.2535 -0.1337 -0.2061 -0.1781
                                            0.0289  0.0409
    27. (0.00013) RY*( 6) C   1           s( 16.53%)p 2.10( 34.72%)d 2.95( 48.74%)
                                           -0.0000 -0.0060  0.2832  0.2913  0.0151
                                            0.0092  0.2902  0.2249  0.0707  0.0183
                                            0.3205 -0.0962  0.0011 -0.0022 -0.2690
                                            0.0786 -0.1284  0.1608  0.4733  0.2592
                                           -0.4027 -0.0911
    28. (0.00009) RY*( 7) C   1           s( 15.92%)p 3.57( 56.89%)d 1.71( 27.19%)
    29. (0.00002) RY*( 8) C   1           s(  3.77%)p13.66( 51.47%)d11.88( 44.76%)
    30. (0.00000) RY*( 9) C   1           s(  0.53%)p99.99( 99.14%)d 0.62(  0.33%)
    31. (0.00000) RY*(10) C   1           s(  0.39%)p99.99( 97.98%)d 4.18(  1.63%)
    32. (0.00000) RY*(11) C   1           s(  2.21%)p40.71( 89.94%)d 3.55(  7.85%)
    33. (0.00000) RY*(12) C   1           s(  0.10%)p99.99( 82.64%)d99.99( 17.26%)
    34. (0.00000) RY*(13) C   1           s(  2.33%)p 7.49( 17.46%)d34.43( 80.21%)
    35. (0.00000) RY*(14) C   1           s( 67.24%)p 0.16( 10.44%)d 0.33( 22.32%)
    36. (0.00000) RY*(15) C   1           s(  0.61%)p14.54(  8.90%)d99.99( 90.49%)
    37. (0.00000) RY*(16) C   1           s( 99.79%)p 0.00(  0.13%)d 0.00(  0.09%)
    38. (0.00000) RY*(17) C   1           s(  2.51%)p 0.57(  1.44%)d38.21( 96.05%)
    39. (0.03726) RY*( 1) S   2           s( 21.39%)p 0.68( 14.62%)d 2.99( 63.99%)
                                            0.0000 -0.0000  0.0253  0.4618 -0.0072
                                            0.0044 -0.0003  0.0000  0.0000 -0.0000
                                            0.0000  0.0000  0.0000 -0.0000 -0.0569
                                            0.2360 -0.1549 -0.0180  0.0021  0.0000
                                            0.0892  0.2286  0.0136  0.0501  0.0052
                                            0.0000 -0.0000  0.3638  0.2603  0.6631
    40. (0.03309) RY*( 2) S   2           s(  0.00%)p 1.00( 10.21%)d 8.79( 89.79%)
                                           -0.0000 -0.0000 -0.0000 -0.0000 -0.0000
                                           -0.0000  0.0000  0.0000  0.1029 -0.2945
                                            0.0523  0.0451  0.0064 -0.0000  0.0000
                                           -0.0000  0.0000  0.0000  0.0000  0.0000
                                           -0.0000 -0.0000  0.0000 -0.0000 -0.0000
                                            0.9325  0.1685 -0.0000 -0.0000 -0.0000
    41. (0.00513) RY*( 3) S   2           s(  3.03%)p 4.85( 14.70%)d27.13( 82.26%)
                                           -0.0000 -0.0000  0.0169  0.1609 -0.0638
                                            0.0087  0.0000 -0.0000 -0.0000  0.0000
                                           -0.0000 -0.0000 -0.0000  0.0000  0.1259
                                           -0.2540  0.1229  0.1032  0.0069  0.0000
                                            0.0643  0.1656  0.0794  0.0540  0.0100
                                            0.0000  0.0000 -0.6522  0.6275  0.0592
    42. (0.00408) RY*( 4) S   2           s( 24.99%)p 0.92( 22.88%)d 2.09( 52.13%)
                                           -0.0000 -0.0000  0.0325  0.4987 -0.0040
                                            0.0133  0.0002  0.0000 -0.0000  0.0000
                                            0.0000 -0.0000  0.0000 -0.0000  0.0361
                                           -0.3521 -0.1924  0.0682 -0.0096  0.0000
                                            0.0705  0.1725 -0.1342  0.0949 -0.0046
                                           -0.0000  0.0000 -0.3221 -0.6397  0.0911
    43. (0.00263) RY*( 5) S   2           s(  9.74%)p 5.89( 57.35%)d 3.38( 32.91%)
                                           -0.0000 -0.0000  0.0331  0.3081 -0.0259
                                            0.0267  0.0004  0.0000 -0.0000  0.0000
                                            0.0000 -0.0000  0.0000  0.0000  0.0440
                                           -0.4083 -0.3514  0.1364 -0.0089  0.0000
                                            0.0399 -0.4268 -0.2764  0.0478 -0.0161
                                            0.0000 -0.0000  0.3498  0.3229 -0.3202
    44. (0.00117) RY*( 6) S   2           s(  0.00%)p 1.00(  3.99%)d24.09( 96.01%)
                                            0.0000  0.0000 -0.0000  0.0000  0.0000
                                            0.0000 -0.0000 -0.0000 -0.0798  0.0587
                                           -0.1594 -0.0681  0.0011  0.0000 -0.0000
                                            0.0000 -0.0000 -0.0000 -0.0000 -0.0000
                                           -0.0000 -0.0000  0.0000 -0.0000  0.0000
                                           -0.1358  0.9704  0.0000  0.0000 -0.0000
    45. (0.00027) RY*( 7) S   2           s(  0.00%)p 1.00( 94.12%)d 0.06(  5.88%)
                                            0.0000  0.0000  0.0000  0.0000  0.0000
                                           -0.0000 -0.0000 -0.0000 -0.0177  0.8729
                                            0.3247  0.2711  0.0094  0.0000  0.0000
                                            0.0000  0.0000  0.0000 -0.0000 -0.0000
                                            0.0000 -0.0000  0.0000 -0.0000  0.0000
                                            0.2370  0.0512 -0.0000 -0.0000  0.0000
    46. (0.00025) RY*( 8) S   2           s( 46.89%)p 1.03( 48.11%)d 0.11(  5.01%)
                                           -0.0000 -0.0000  0.0146  0.1873  0.6541
                                           -0.0756 -0.0001 -0.0000  0.0000 -0.0000
                                           -0.0000 -0.0000 -0.0000  0.0000  0.0326
                                            0.1672  0.0479  0.2762 -0.0083 -0.0000
                                            0.0055 -0.4590  0.1977 -0.3511  0.0168
                                           -0.0000 -0.0000 -0.1754 -0.0437  0.1319
    47. (0.00008) RY*( 9) S   2           s(  0.00%)p 1.00( 99.64%)d 0.00(  0.36%)
    48. (0.00008) RY*(10) S   2           s( 19.28%)p 3.27( 63.10%)d 0.91( 17.62%)
    49. (0.00001) RY*(11) S   2           s( 19.16%)p 3.70( 70.79%)d 0.52( 10.05%)
    50. (0.00000) RY*(12) S   2           s(  0.05%)p99.99( 99.91%)d 0.98(  0.05%)
    51. (0.00001) RY*(13) S   2           s( 39.21%)p 1.21( 47.51%)d 0.34( 13.28%)
    52. (0.00000) RY*(14) S   2           s(  6.97%)p12.37( 86.26%)d 0.97(  6.77%)
    53. (0.00000) RY*(15) S   2           s(  7.62%)p12.09( 92.08%)d 0.04(  0.31%)
    54. (0.00000) RY*(16) S   2           s(  0.02%)p99.99( 99.97%)d 0.78(  0.01%)
    55. (0.00000) RY*(17) S   2           s(  0.00%)p 1.00( 93.54%)d 0.07(  6.46%)
    56. (0.00000) RY*(18) S   2           s(100.00%)p 0.00(  0.00%)d 0.00(  0.00%)
    57. (0.00000) RY*(19) S   2           s(  0.00%)p 1.00( 99.99%)d 0.00(  0.01%)
    58. (0.00000) RY*(20) S   2           s( 99.57%)p 0.00(  0.35%)d 0.00(  0.08%)
    59. (0.00000) RY*(21) S   2           s(  0.32%)p99.99( 86.08%)d42.57( 13.60%)
    60. (0.00213) RY*( 1) O   3           s(  0.66%)p99.99( 95.69%)d 5.56(  3.65%)
                                            0.0000  0.0022 -0.0005  0.0810  0.0014
                                            0.0000  0.0000 -0.0000  0.0000 -0.0030
                                           -0.6476  0.0273 -0.0522 -0.0169  0.6911
                                           -0.2363  0.0160  0.0000 -0.0000  0.0438
                                            0.0970  0.1588
    61. (0.00145) RY*( 2) O   3           s(  0.00%)p 1.00( 96.80%)d 0.03(  3.20%)
                                            0.0000 -0.0000 -0.0000 -0.0000 -0.0000
                                           -0.0084  0.9528 -0.2436  0.0289  0.0000
                                            0.0000 -0.0000 -0.0000 -0.0000  0.0000
                                           -0.0000 -0.0000  0.1669  0.0643  0.0000
                                           -0.0000  0.0000
    62. (0.00040) RY*( 3) O   3           s( 58.44%)p 0.65( 37.79%)d 0.06(  3.77%)
                                            0.0000  0.0094  0.5535 -0.5272  0.0039
                                            0.0000  0.0000  0.0000  0.0000 -0.0403
                                           -0.3135 -0.3593 -0.0246 -0.0283 -0.2915
                                           -0.2465 -0.0417  0.0000  0.0000 -0.1738
                                            0.0720 -0.0484
    63. (0.00016) RY*( 4) O   3           s(  9.62%)p 8.81( 84.72%)d 0.59(  5.66%)
                                            0.0000  0.0078  0.1709  0.2587 -0.0044
                                            0.0000  0.0000 -0.0000 -0.0000 -0.0353
                                           -0.5178  0.4473  0.0783 -0.0213 -0.4075
                                            0.4490  0.0600  0.0000  0.0000 -0.1520
                                            0.1647  0.0798
    64. (0.00006) RY*( 5) O   3           s( 33.20%)p 1.76( 58.58%)d 0.25(  8.22%)
    65. (0.00002) RY*( 6) O   3           s(  0.00%)p 1.00( 97.26%)d 0.03(  2.74%)
    66. (0.00001) RY*( 7) O   3           s( 88.65%)p 0.12( 10.84%)d 0.01(  0.51%)
    67. (0.00000) RY*( 8) O   3           s( 99.97%)p 0.00(  0.03%)d 0.00(  0.00%)
    68. (0.00000) RY*( 9) O   3           s(  7.43%)p12.36( 91.86%)d 0.10(  0.71%)
    69. (0.00000) RY*(10) O   3           s(  0.00%)p 1.00( 99.88%)d 0.00(  0.12%)
    70. (0.00001) RY*(11) O   3           s(  0.22%)p99.99( 99.20%)d 2.60(  0.58%)
    71. (0.00000) RY*(12) O   3           s(  0.52%)p99.99( 99.40%)d 0.15(  0.08%)
    72. (0.00000) RY*(13) O   3           s(  0.00%)p 1.00(  3.32%)d29.09( 96.68%)
    73. (0.00000) RY*(14) O   3           s(  0.00%)p 1.00(  2.81%)d34.63( 97.19%)
    74. (0.00000) RY*(15) O   3           s(  0.00%)p 1.00( 11.35%)d 7.81( 88.65%)
    75. (0.00000) RY*(16) O   3           s(  0.63%)p 6.52(  4.09%)d99.99( 95.29%)
    76. (0.00000) RY*(17) O   3           s(  0.54%)p12.47(  6.75%)d99.99( 92.71%)
    77. (0.00273) RY*( 1) C   4           s( 40.14%)p 1.34( 53.92%)d 0.15(  5.94%)
                                           -0.0000  0.0090  0.6312  0.0528 -0.0089
                                           -0.0061  0.5440  0.1314  0.0340 -0.0037
                                            0.1446  0.1029  0.0336  0.0060  0.4235
                                            0.1115 -0.0166 -0.0549 -0.1138  0.0868
                                            0.0938 -0.1647
    78. (0.00222) RY*( 2) C   4           s( 23.92%)p 2.92( 69.88%)d 0.26(  6.20%)
                                            0.0000 -0.0064  0.4640 -0.1539  0.0134
                                            0.0122 -0.2946  0.2103  0.0099 -0.0138
                                           -0.6944 -0.1605  0.0456  0.0069 -0.2294
                                            0.0282 -0.0620 -0.0907 -0.0405  0.0547
                                            0.1315 -0.1785
    79. (0.00108) RY*( 3) C   4           s(  8.53%)p10.25( 87.43%)d 0.47(  4.04%)
                                           -0.0000  0.0080  0.1089  0.2706 -0.0103
                                           -0.0058  0.4390 -0.4060  0.1566 -0.0035
                                           -0.2637  0.3271 -0.1579 -0.0064 -0.5218
                                           -0.0074  0.1354 -0.0357  0.0980 -0.1401
                                           -0.0412  0.0906
    80. (0.00046) RY*( 4) C   4           s(  5.68%)p10.06( 57.14%)d 6.55( 37.18%)
                                            0.0000  0.0002 -0.0842  0.2228  0.0084
                                            0.0150 -0.1390 -0.0377 -0.1148  0.0017
                                           -0.4124  0.2830 -0.0800 -0.0024  0.5201
                                            0.0316  0.0961 -0.2263 -0.0044 -0.1486
                                           -0.5413  0.0735
    81. (0.00016) RY*( 5) C   4           s(  9.83%)p 8.21( 80.71%)d 0.96(  9.46%)
                                            0.0000 -0.0133  0.3108  0.0354 -0.0165
                                           -0.0015 -0.4440  0.3037  0.2229 -0.0027
                                            0.3084  0.5138 -0.1896  0.0005 -0.0876
                                           -0.0323  0.2535  0.1337  0.2062 -0.1781
                                            0.0290  0.0409
    82. (0.00013) RY*( 6) C   4           s( 16.53%)p 2.10( 34.72%)d 2.95( 48.74%)
                                           -0.0000 -0.0060  0.2832  0.2913  0.0151
                                           -0.0092 -0.2902 -0.2249 -0.0707  0.0183
                                            0.3205 -0.0962  0.0011 -0.0022 -0.2690
                                            0.0786 -0.1284 -0.1608 -0.4733  0.2591
                                           -0.4027 -0.0911
    83. (0.00009) RY*( 7) C   4           s( 15.92%)p 3.57( 56.89%)d 1.71( 27.19%)
    84. (0.00002) RY*( 8) C   4           s(  3.77%)p13.66( 51.47%)d11.88( 44.76%)
    85. (0.00000) RY*( 9) C   4           s(  0.53%)p99.99( 99.14%)d 0.62(  0.33%)
    86. (0.00000) RY*(10) C   4           s(  0.39%)p99.99( 97.98%)d 4.18(  1.63%)
    87. (0.00000) RY*(11) C   4           s(  2.21%)p40.71( 89.94%)d 3.55(  7.85%)
    88. (0.00000) RY*(12) C   4           s(  0.10%)p99.99( 82.64%)d99.99( 17.26%)
    89. (0.00000) RY*(13) C   4           s(  2.33%)p 7.49( 17.46%)d34.43( 80.21%)
    90. (0.00000) RY*(14) C   4           s( 67.24%)p 0.16( 10.44%)d 0.33( 22.32%)
    91. (0.00000) RY*(15) C   4           s(  0.61%)p14.54(  8.90%)d99.99( 90.49%)
    92. (0.00000) RY*(16) C   4           s( 99.79%)p 0.00(  0.13%)d 0.00(  0.09%)
    93. (0.00000) RY*(17) C   4           s(  2.51%)p 0.57(  1.44%)d38.21( 96.05%)
    94. (0.00133) RY*( 1) H   5           s( 99.43%)p 0.01(  0.57%)
                                           -0.0038  0.9971  0.0024  0.0008  0.0209
                                            0.0718 -0.0093
    95. (0.00019) RY*( 2) H   5           s( 41.96%)p 1.38( 58.04%)
                                            0.0005 -0.0450  0.6382  0.1012  0.6117
                                            0.4394  0.1148
    96. (0.00012) RY*( 3) H   5           s( 54.41%)p 0.84( 45.59%)
                                            0.0051  0.0440  0.7262 -0.1215 -0.4256
                                           -0.4830  0.2037
    97. (0.00009) RY*( 4) H   5           s(  3.88%)p24.74( 96.12%)
    98. (0.00007) RY*( 5) H   5           s( 84.92%)p 0.18( 15.08%)
    99. (0.00003) RY*( 6) H   5           s( 15.44%)p 5.48( 84.56%)
   100. (0.00077) RY*( 1) H   6           s( 99.14%)p 0.01(  0.86%)
                                           -0.0015  0.9957  0.0011 -0.0010  0.0322
                                            0.0439  0.0754
   101. (0.00020) RY*( 2) H   6           s( 91.33%)p 0.09(  8.67%)
                                            0.0023 -0.0117  0.9509  0.0946 -0.0124
                                            0.2932 -0.0233
   102. (0.00016) RY*( 3) H   6           s( 27.60%)p 2.62( 72.40%)
                                           -0.0016 -0.0279 -0.2673  0.4514  0.4001
                                            0.7202 -0.2125
   103. (0.00012) RY*( 4) H   6           s( 60.77%)p 0.65( 39.23%)
                                            0.0060  0.0527  0.0121  0.7777 -0.4336
                                           -0.3308 -0.3079
   104. (0.00007) RY*( 5) H   6           s( 10.43%)p 8.59( 89.57%)
   105. (0.00004) RY*( 6) H   6           s( 10.77%)p 8.28( 89.23%)
   106. (0.00494) RY*( 1) H   7           s( 99.89%)p 0.00(  0.11%)
                                            0.0043  0.9994 -0.0008 -0.0003 -0.0212
                                           -0.0079  0.0245
   107. (0.00058) RY*( 2) H   7           s( 99.26%)p 0.01(  0.74%)
                                           -0.0021  0.0024  0.9963 -0.0007  0.0710
                                            0.0473  0.0107
   108. (0.00016) RY*( 3) H   7           s(  2.11%)p46.43( 97.89%)
                                            0.0015 -0.0265  0.0671  0.1260 -0.9576
                                           -0.0280  0.2473
   109. (0.00015) RY*( 4) H   7           s( 84.27%)p 0.19( 15.73%)
                                           -0.0002  0.0109 -0.0037  0.9179  0.0207
                                            0.1432 -0.3693
   110. (0.00007) RY*( 5) H   7           s( 14.17%)p 6.06( 85.83%)
   111. (0.00003) RY*( 6) H   7           s(  0.34%)p99.99( 99.66%)
   112. (0.00077) RY*( 1) H   8           s( 99.14%)p 0.01(  0.86%)
                                           -0.0015  0.9957  0.0011 -0.0010 -0.0322
                                            0.0440  0.0754
   113. (0.00020) RY*( 2) H   8           s( 91.33%)p 0.09(  8.67%)
                                            0.0023 -0.0117  0.9509  0.0946  0.0124
                                            0.2932 -0.0233
   114. (0.00016) RY*( 3) H   8           s( 27.60%)p 2.62( 72.40%)
                                           -0.0016 -0.0279 -0.2673  0.4514 -0.4001
                                            0.7202 -0.2125
   115. (0.00012) RY*( 4) H   8           s( 60.77%)p 0.65( 39.23%)
                                            0.0060  0.0527  0.0121  0.7777  0.4336
                                           -0.3308 -0.3079
   116. (0.00007) RY*( 5) H   8           s( 10.43%)p 8.59( 89.57%)
   117. (0.00004) RY*( 6) H   8           s( 10.77%)p 8.28( 89.23%)
   118. (0.00494) RY*( 1) H   9           s( 99.89%)p 0.00(  0.11%)
                                            0.0043  0.9994 -0.0008 -0.0003  0.0212
                                           -0.0079  0.0245
   119. (0.00058) RY*( 2) H   9           s( 99.26%)p 0.01(  0.74%)
                                           -0.0021  0.0024  0.9963 -0.0007 -0.0710
                                            0.0473  0.0107
   120. (0.00016) RY*( 3) H   9           s(  2.11%)p46.44( 97.89%)
                                            0.0015 -0.0265  0.0671  0.1260  0.9576
                                           -0.0280  0.2473
   121. (0.00015) RY*( 4) H   9           s( 84.27%)p 0.19( 15.73%)
                                           -0.0002  0.0109 -0.0037  0.9179 -0.0206
                                            0.1432 -0.3693
   122. (0.00007) RY*( 5) H   9           s( 14.17%)p 6.06( 85.83%)
   123. (0.00003) RY*( 6) H   9           s(  0.34%)p99.99( 99.66%)
   124. (0.00133) RY*( 1) H  10           s( 99.43%)p 0.01(  0.57%)
                                           -0.0038  0.9971  0.0024  0.0008 -0.0209
                                            0.0718 -0.0093
   125. (0.00019) RY*( 2) H  10           s( 41.96%)p 1.38( 58.04%)
                                            0.0005 -0.0450  0.6382  0.1012 -0.6117
                                            0.4394  0.1148
   126. (0.00012) RY*( 3) H  10           s( 54.40%)p 0.84( 45.60%)
                                            0.0051  0.0440  0.7262 -0.1215  0.4256
                                           -0.4830  0.2037
   127. (0.00009) RY*( 4) H  10           s(  3.88%)p24.75( 96.12%)
   128. (0.00007) RY*( 5) H  10           s( 84.92%)p 0.18( 15.08%)
   129. (0.00003) RY*( 6) H  10           s( 15.44%)p 5.48( 84.56%)
   130. (0.10761) BD*( 1) C   1 - S   2  
                ( 47.63%)   0.6901* C   1 s( 21.86%)p 3.57( 78.05%)d 0.00(  0.09%)
                                           -0.0001 -0.4675 -0.0005  0.0059  0.0006
                                           -0.6620 -0.0126  0.0126  0.0055 -0.5057
                                            0.0136  0.0034  0.0039  0.2931 -0.0036
                                           -0.0010 -0.0018 -0.0216  0.0131  0.0092
                                           -0.0066  0.0102
                ( 52.37%)  -0.7237* S   2 s( 15.75%)p 5.28( 83.19%)d 0.07(  1.06%)
                                            0.0000 -0.0001 -0.3935  0.0508 -0.0059
                                           -0.0012  0.0000 -0.0000  0.7010  0.0342
                                           -0.0053 -0.0013  0.0001  0.0000  0.4727
                                            0.0190 -0.0126 -0.0026  0.0006 -0.0000
                                           -0.3389  0.0235  0.0026  0.0021 -0.0003
                                           -0.0742  0.0442  0.0476 -0.0122  0.0263
   131. (0.01386) BD*( 1) C   1 - H   5  
                ( 38.56%)   0.6210* C   1 s( 26.42%)p 2.78( 73.52%)d 0.00(  0.06%)
                                           -0.0001 -0.5140  0.0006 -0.0028 -0.0002
                                           -0.0806 -0.0113 -0.0032  0.0007  0.0883
                                           -0.0016 -0.0002  0.0018 -0.8490  0.0024
                                           -0.0037 -0.0029 -0.0005 -0.0064  0.0033
                                            0.0001 -0.0228
                ( 61.44%)  -0.7838* H   5 s( 99.96%)p 0.00(  0.04%)
                                           -0.9998 -0.0035 -0.0004 -0.0001 -0.0012
                                           -0.0020  0.0200
   132. (0.00686) BD*( 1) C   1 - H   6  
                ( 38.39%)   0.6196* C   1 s( 25.89%)p 2.86( 74.05%)d 0.00(  0.06%)
                                           -0.0000 -0.5088 -0.0035 -0.0033 -0.0003
                                            0.7424 -0.0022  0.0032  0.0024 -0.3878
                                           -0.0056 -0.0042 -0.0001  0.1970  0.0060
                                            0.0010  0.0009  0.0163 -0.0095  0.0063
                                           -0.0090  0.0106
                ( 61.61%)  -0.7849* H   6 s( 99.96%)p 0.00(  0.04%)
                                           -0.9998 -0.0010 -0.0002 -0.0004 -0.0185
                                            0.0075 -0.0026
   133. (0.00880) BD*( 1) C   1 - H   7  
                ( 39.17%)   0.6259* C   1 s( 25.79%)p 2.87( 74.15%)d 0.00(  0.06%)
                                            0.0001 -0.5078  0.0000 -0.0010  0.0001
                                           -0.0525 -0.0116 -0.0003 -0.0001  0.7648
                                           -0.0097  0.0019  0.0010  0.3920  0.0007
                                            0.0003  0.0008  0.0043  0.0041 -0.0184
                                            0.0148  0.0035
                ( 60.83%)  -0.7799* H   7 s( 99.95%)p 0.00(  0.05%)
                                           -0.9998  0.0043 -0.0009 -0.0003 -0.0032
                                           -0.0196 -0.0077
   134. (0.02295) BD*( 1) S   2 - O   3  
                ( 62.43%)   0.7901* S   2 s( 20.75%)p 3.76( 77.96%)d 0.06(  1.29%)
                                           -0.0000  0.0002  0.4407 -0.1151 -0.0096
                                           -0.0006 -0.0000  0.0000 -0.0000 -0.0000
                                           -0.0000 -0.0000  0.0000 -0.0001  0.7236
                                            0.0698  0.0223  0.0015 -0.0013 -0.0000
                                            0.5004  0.0141  0.0033 -0.0033 -0.0006
                                           -0.0000 -0.0000  0.0956 -0.0611  0.0053
                ( 37.57%)  -0.6130* O   3 s( 20.34%)p 3.91( 79.55%)d 0.01(  0.11%)
                                            0.0000  0.4495 -0.0368 -0.0016 -0.0000
                                            0.0000 -0.0000 -0.0000 -0.0000 -0.7418
                                            0.0403  0.0099  0.0015 -0.4930  0.0228
                                           -0.0005 -0.0003 -0.0000 -0.0000  0.0261
                                           -0.0208 -0.0031
   135. (0.10761) BD*( 1) S   2 - C   4  
                ( 52.37%)   0.7237* S   2 s( 15.75%)p 5.28( 83.19%)d 0.07(  1.06%)
                                           -0.0000  0.0001  0.3935 -0.0508  0.0059
                                            0.0012 -0.0000 -0.0000  0.7010  0.0342
                                           -0.0053 -0.0013  0.0001 -0.0000 -0.4727
                                           -0.0190  0.0126  0.0026 -0.0006  0.0000
                                            0.3389 -0.0235 -0.0026 -0.0021  0.0003
                                           -0.0742  0.0442 -0.0476  0.0122 -0.0263
                ( 47.63%)  -0.6901* C   4 s( 21.86%)p 3.57( 78.05%)d 0.00(  0.09%)
                                            0.0001  0.4675  0.0005 -0.0059 -0.0006
                                           -0.6620 -0.0126  0.0126  0.0055  0.5057
                                           -0.0136 -0.0034 -0.0039 -0.2931  0.0036
                                            0.0010  0.0018 -0.0216  0.0131 -0.0092
                                            0.0066 -0.0102
   136. (0.00686) BD*( 1) C   4 - H   8  
                ( 38.39%)   0.6196* C   4 s( 25.89%)p 2.86( 74.05%)d 0.00(  0.06%)
                                           -0.0000 -0.5088 -0.0035 -0.0033 -0.0003
                                           -0.7424  0.0022 -0.0032 -0.0024 -0.3878
                                           -0.0056 -0.0042 -0.0001  0.1971  0.0060
                                            0.0010  0.0009 -0.0163  0.0095  0.0063
                                           -0.0090  0.0106
                ( 61.61%)  -0.7849* H   8 s( 99.96%)p 0.00(  0.04%)
                                           -0.9998 -0.0010 -0.0002 -0.0004  0.0185
                                            0.0075 -0.0026
   137. (0.00880) BD*( 1) C   4 - H   9  
                ( 39.17%)   0.6259* C   4 s( 25.79%)p 2.87( 74.15%)d 0.00(  0.06%)
                                            0.0001 -0.5078  0.0000 -0.0010  0.0001
                                            0.0525  0.0116  0.0003  0.0001  0.7648
                                           -0.0097  0.0019  0.0010  0.3920  0.0007
                                            0.0003  0.0008 -0.0043 -0.0041 -0.0184
                                            0.0148  0.0035
                ( 60.83%)  -0.7799* H   9 s( 99.95%)p 0.00(  0.05%)
                                           -0.9998  0.0043 -0.0009 -0.0003  0.0032
                                           -0.0196 -0.0077
   138. (0.01386) BD*( 1) C   4 - H  10  
                ( 38.56%)   0.6210* C   4 s( 26.42%)p 2.78( 73.52%)d 0.00(  0.06%)
                                           -0.0001 -0.5140  0.0006 -0.0028 -0.0002
                                            0.0806  0.0113  0.0032 -0.0007  0.0883
                                           -0.0016 -0.0002  0.0018 -0.8490  0.0024
                                           -0.0037 -0.0029  0.0005  0.0064  0.0033
                                            0.0001 -0.0228
                ( 61.44%)  -0.7838* H  10 s( 99.96%)p 0.00(  0.04%)
                                           -0.9998 -0.0035 -0.0004 -0.0001  0.0012
                                           -0.0020  0.0200


 NHO Directionality and "Bond Bending" (deviations from line of nuclear centers)

         [Thresholds for printing:  angular deviation  >  1.0 degree]
                                    hybrid p-character > 25.0%
                                    orbital occupancy  >  0.10e

                                Line of Centers        Hybrid 1              Hybrid 2
                                ---------------  -------------------   ------------------
                NBO               Theta   Phi    Theta   Phi    Dev    Theta   Phi    Dev
 ========================================================================================
     1. BD (   1) C   1 - S   2   109.8   38.0   109.4   36.4   1.5     70.3  213.2   4.5
     2. BD (   1) C   1 - H   5     7.6  305.4     8.6  316.9   1.9      --     --    --
     3. BD (   1) C   1 - H   6   102.7  153.3   103.6  151.9   1.7      --     --    --
     4. BD (   1) C   1 - H   7   116.6  272.7   117.4  274.9   2.0      --     --    --
     5. BD (   1) S   2 - O   3    57.0   90.0     --     --    --     124.3  270.0   1.3
     6. BD (   1) S   2 - C   4    70.2  322.0    70.3  326.8   4.5    109.4  143.6   1.5
     7. BD (   1) C   4 - H   8   102.7   26.7   103.6   28.1   1.7      --     --    --
     8. BD (   1) C   4 - H   9   116.6  267.3   117.4  265.1   2.0      --     --    --
     9. BD (   1) C   4 - H  10     7.6  234.6     8.6  223.1   1.9      --     --    --
    18. LP (   1) S   2             --     --    172.7   90.0   --       --     --    --
    20. LP (   2) O   3             --     --    144.0   90.0   --       --     --    --
    21. LP (   3) O   3             --     --     90.0    0.0   --       --     --    --
   130. BD*(   1) C   1 - S   2   109.8   38.0   109.4   36.4   1.5     70.3  213.2   4.5
   135. BD*(   1) S   2 - C   4    70.2  322.0    70.3  326.8   4.5    109.4  143.6   1.5


 Second Order Perturbation Theory Analysis of Fock Matrix in NBO Basis

     Threshold for printing:   0.50 kcal/mol
                                                                              E(2)  E(j)-E(i) F(i,j)
         Donor NBO (i)                     Acceptor NBO (j)                 kcal/mol   a.u.    a.u. 
 ===================================================================================================

 within unit  1
   1. BD (   1) C   1 - S   2        /134. BD*(   1) S   2 - O   3            1.51    0.90    0.033
   1. BD (   1) C   1 - S   2        /136. BD*(   1) C   4 - H   8            1.48    1.01    0.035
   2. BD (   1) C   1 - H   5        /130. BD*(   1) C   1 - S   2            0.52    0.68    0.017
   3. BD (   1) C   1 - H   6        / 42. RY*(   4) S   2                    0.57    1.33    0.025
   3. BD (   1) C   1 - H   6        /135. BD*(   1) S   2 - C   4            0.87    0.68    0.022
   4. BD (   1) C   1 - H   7        /130. BD*(   1) C   1 - S   2            0.64    0.68    0.019
   4. BD (   1) C   1 - H   7        /134. BD*(   1) S   2 - O   3            1.63    0.82    0.033
   5. BD (   1) S   2 - O   3        /133. BD*(   1) C   1 - H   7            0.51    1.24    0.022
   5. BD (   1) S   2 - O   3        /137. BD*(   1) C   4 - H   9            0.51    1.24    0.022
   6. BD (   1) S   2 - C   4        /132. BD*(   1) C   1 - H   6            1.48    1.01    0.035
   6. BD (   1) S   2 - C   4        /134. BD*(   1) S   2 - O   3            1.51    0.90    0.033
   7. BD (   1) C   4 - H   8        / 42. RY*(   4) S   2                    0.57    1.33    0.025
   7. BD (   1) C   4 - H   8        /130. BD*(   1) C   1 - S   2            0.87    0.68    0.022
   8. BD (   1) C   4 - H   9        /134. BD*(   1) S   2 - O   3            1.64    0.82    0.033
   8. BD (   1) C   4 - H   9        /135. BD*(   1) S   2 - C   4            0.64    0.68    0.019
   9. BD (   1) C   4 - H  10        /135. BD*(   1) S   2 - C   4            0.52    0.68    0.017
  10. CR (   1) C   1                / 94. RY*(   1) H   5                    0.62   10.77    0.073
  10. CR (   1) C   1                /109. RY*(   4) H   7                    0.51   12.23    0.070
  10. CR (   1) C   1                /130. BD*(   1) C   1 - S   2            1.46   10.21    0.112
  12. CR (   2) S   2                / 63. RY*(   4) O   3                    0.55   10.08    0.066
  12. CR (   2) S   2                /134. BD*(   1) S   2 - O   3            0.85    9.15    0.079
  16. CR (   1) O   3                / 41. RY*(   3) S   2                    0.59   19.71    0.096
  16. CR (   1) O   3                / 43. RY*(   5) S   2                    0.99   20.27    0.126
  17. CR (   1) C   4                /121. RY*(   4) H   9                    0.51   12.23    0.070
  17. CR (   1) C   4                /124. RY*(   1) H  10                    0.62   10.77    0.073
  17. CR (   1) C   4                /135. BD*(   1) S   2 - C   4            1.46   10.21    0.112
  18. LP (   1) S   2                /131. BD*(   1) C   1 - H   5            2.22    0.91    0.040
  18. LP (   1) S   2                /138. BD*(   1) C   4 - H  10            2.22    0.91    0.040
  19. LP (   1) O   3                / 42. RY*(   4) S   2                    2.13    1.58    0.052
  19. LP (   1) O   3                / 43. RY*(   5) S   2                    3.48    2.20    0.078
  20. LP (   2) O   3                / 39. RY*(   1) S   2                   13.32    0.83    0.096
  20. LP (   2) O   3                / 42. RY*(   4) S   2                    0.63    1.06    0.024
  20. LP (   2) O   3                / 59. RY*(  21) S   2                    0.75    0.95    0.025
  20. LP (   2) O   3                /130. BD*(   1) C   1 - S   2            7.43    0.40    0.049
  20. LP (   2) O   3                /135. BD*(   1) S   2 - C   4            7.43    0.40    0.049
  21. LP (   3) O   3                / 40. RY*(   2) S   2                    9.35    1.04    0.092
  21. LP (   3) O   3                / 44. RY*(   6) S   2                    0.94    1.13    0.031
  21. LP (   3) O   3                / 45. RY*(   7) S   2                    0.51    1.22    0.023
  21. LP (   3) O   3                /130. BD*(   1) C   1 - S   2           12.25    0.40    0.063
  21. LP (   3) O   3                /133. BD*(   1) C   1 - H   7            0.67    0.63    0.019
  21. LP (   3) O   3                /135. BD*(   1) S   2 - C   4           12.25    0.40    0.063
  21. LP (   3) O   3                /137. BD*(   1) C   4 - H   9            0.67    0.63    0.019
 130. BD*(   1) C   1 - S   2        / 22. RY*(   1) C   1                    0.52    0.69    0.072
 130. BD*(   1) C   1 - S   2        / 39. RY*(   1) S   2                    0.86    0.43    0.064
 130. BD*(   1) C   1 - S   2        / 40. RY*(   2) S   2                    1.96    0.65    0.120
 130. BD*(   1) C   1 - S   2        / 44. RY*(   6) S   2                    0.67    0.74    0.085
 130. BD*(   1) C   1 - S   2        /106. RY*(   1) H   7                    0.59    0.08    0.026
 135. BD*(   1) S   2 - C   4        / 39. RY*(   1) S   2                    0.86    0.43    0.064
 135. BD*(   1) S   2 - C   4        / 40. RY*(   2) S   2                    1.96    0.65    0.120
 135. BD*(   1) S   2 - C   4        / 44. RY*(   6) S   2                    0.67    0.74    0.085
 135. BD*(   1) S   2 - C   4        / 77. RY*(   1) C   4                    0.52    0.69    0.072
 135. BD*(   1) S   2 - C   4        /118. RY*(   1) H   9                    0.59    0.08    0.026


 Natural Bond Orbitals (Summary):

                                                            Principal Delocalizations
           NBO                        Occupancy    Energy   (geminal,vicinal,remote)
 ====================================================================================
 Molecular unit  1  (C2H6OS)
     1. BD (   1) C   1 - S   2          1.98651    -0.63224  134(g),136(v)
     2. BD (   1) C   1 - H   5          1.99387    -0.54878  130(g)
     3. BD (   1) C   1 - H   6          1.99169    -0.54690  135(v),42(v)
     4. BD (   1) C   1 - H   7          1.98911    -0.55351  134(v),130(g)
     5. BD (   1) S   2 - O   3          1.99188    -0.87763  133(v),137(v)
     6. BD (   1) S   2 - C   4          1.98651    -0.63224  134(g),132(v)
     7. BD (   1) C   4 - H   8          1.99169    -0.54690  130(v),42(v)
     8. BD (   1) C   4 - H   9          1.98911    -0.55351  134(v),135(g)
     9. BD (   1) C   4 - H  10          1.99387    -0.54878  135(g)
    10. CR (   1) C   1                  1.99925   -10.08102  130(g),94(v),109(v)
    11. CR (   1) S   2                  2.00000   -87.87640   
    12. CR (   2) S   2                  1.99913    -8.88121  134(g),63(v)
    13. CR (   3) S   2                  1.99993    -5.98603   
    14. CR (   4) S   2                  1.99991    -5.98489   
    15. CR (   5) S   2                  1.99993    -5.98099   
    16. CR (   1) O   3                  1.99986   -18.87435  43(v),41(v)
    17. CR (   1) C   4                  1.99925   -10.08102  135(g),124(v),121(v)
    18. LP (   1) S   2                  1.96952    -0.53864  131(v),138(v)
    19. LP (   1) O   3                  1.99391    -0.79977  43(v),42(v)
    20. LP (   2) O   3                  1.89069    -0.27109  39(v),130(v),135(v),59(v)
                                                    42(v)
    21. LP (   3) O   3                  1.81675    -0.26405  130(v),135(v),40(v),44(v)
                                                    133(r),137(r),45(v)
    22. RY*(   1) C   1                  0.00273     0.81680   
    23. RY*(   2) C   1                  0.00222     0.67816   
    24. RY*(   3) C   1                  0.00108     0.85837   
    25. RY*(   4) C   1                  0.00046     0.93695   
    26. RY*(   5) C   1                  0.00016     1.04409   
    27. RY*(   6) C   1                  0.00013     1.15422   
    28. RY*(   7) C   1                  0.00009     0.93183   
    29. RY*(   8) C   1                  0.00002     1.29612   
    30. RY*(   9) C   1                  0.00000     2.57210   
    31. RY*(  10) C   1                  0.00000     2.68167   
    32. RY*(  11) C   1                  0.00000     0.45146   
    33. RY*(  12) C   1                  0.00000     2.72833   
    34. RY*(  13) C   1                  0.00000     1.63864   
    35. RY*(  14) C   1                  0.00000     0.97392   
    36. RY*(  15) C   1                  0.00000     1.91168   
    37. RY*(  16) C   1                  0.00000    23.12679   
    38. RY*(  17) C   1                  0.00000     2.07183   
    39. RY*(   1) S   2                  0.03726     0.55912   
    40. RY*(   2) S   2                  0.03309     0.77756   
    41. RY*(   3) S   2                  0.00513     0.83910   
    42. RY*(   4) S   2                  0.00408     0.78477   
    43. RY*(   5) S   2                  0.00263     1.39555   
    44. RY*(   6) S   2                  0.00117     0.86753   
    45. RY*(   7) S   2                  0.00027     0.95801   
    46. RY*(   8) S   2                  0.00025     0.89936   
    47. RY*(   9) S   2                  0.00008     1.46701   
    48. RY*(  10) S   2                  0.00008     0.62849   
    49. RY*(  11) S   2                  0.00001     1.25190   
    50. RY*(  12) S   2                  0.00000    16.71607   
    51. RY*(  13) S   2                  0.00001     0.68745   
    52. RY*(  14) S   2                  0.00000     1.31544   
    53. RY*(  15) S   2                  0.00000     0.69706   
    54. RY*(  16) S   2                  0.00000    16.71601   
    55. RY*(  17) S   2                  0.00000     0.49605   
    56. RY*(  18) S   2                  0.00000   179.64537   
    57. RY*(  19) S   2                  0.00000    16.62447   
    58. RY*(  20) S   2                  0.00000    16.63368   
    59. RY*(  21) S   2                  0.00000     0.68257   
    60. RY*(   1) O   3                  0.00213     0.75902   
    61. RY*(   2) O   3                  0.00145     0.77148   
    62. RY*(   3) O   3                  0.00040     1.40523   
    63. RY*(   4) O   3                  0.00016     1.19878   
    64. RY*(   5) O   3                  0.00006     1.75634   
    65. RY*(   6) O   3                  0.00002     0.76977   
    66. RY*(   7) O   3                  0.00001     0.53180   
    67. RY*(   8) O   3                  0.00000    49.61937   
    68. RY*(   9) O   3                  0.00000     4.64709   
    69. RY*(  10) O   3                  0.00000     5.01769   
    70. RY*(  11) O   3                  0.00001     0.91930   
    71. RY*(  12) O   3                  0.00000     4.80038   
    72. RY*(  13) O   3                  0.00000     2.87491   
    73. RY*(  14) O   3                  0.00000     2.86385   
    74. RY*(  15) O   3                  0.00000     2.93812   
    75. RY*(  16) O   3                  0.00000     3.06177   
    76. RY*(  17) O   3                  0.00000     2.80895   
    77. RY*(   1) C   4                  0.00273     0.81680   
    78. RY*(   2) C   4                  0.00222     0.67816   
    79. RY*(   3) C   4                  0.00108     0.85837   
    80. RY*(   4) C   4                  0.00046     0.93695   
    81. RY*(   5) C   4                  0.00016     1.04410   
    82. RY*(   6) C   4                  0.00013     1.15420   
    83. RY*(   7) C   4                  0.00009     0.93183   
    84. RY*(   8) C   4                  0.00002     1.29613   
    85. RY*(   9) C   4                  0.00000     2.57210   
    86. RY*(  10) C   4                  0.00000     2.68167   
    87. RY*(  11) C   4                  0.00000     0.45145   
    88. RY*(  12) C   4                  0.00000     2.72833   
    89. RY*(  13) C   4                  0.00000     1.63864   
    90. RY*(  14) C   4                  0.00000     0.97392   
    91. RY*(  15) C   4                  0.00000     1.91168   
    92. RY*(  16) C   4                  0.00000    23.12679   
    93. RY*(  17) C   4                  0.00000     2.07183   
    94. RY*(   1) H   5                  0.00133     0.68444   
    95. RY*(   2) H   5                  0.00019     1.79467   
    96. RY*(   3) H   5                  0.00012     2.00609   
    97. RY*(   4) H   5                  0.00009     1.72208   
    98. RY*(   5) H   5                  0.00007     0.55815   
    99. RY*(   6) H   5                  0.00003     2.19826   
   100. RY*(   1) H   6                  0.00077     0.52725   
   101. RY*(   2) H   6                  0.00020     0.73781   
   102. RY*(   3) H   6                  0.00016     1.77001   
   103. RY*(   4) H   6                  0.00012     1.82408   
   104. RY*(   5) H   6                  0.00007     1.69919   
   105. RY*(   6) H   6                  0.00004     2.32811   
   106. RY*(   1) H   7                  0.00494     0.21400   
   107. RY*(   2) H   7                  0.00058     0.40736   
   108. RY*(   3) H   7                  0.00016     1.67840   
   109. RY*(   4) H   7                  0.00015     2.15267   
   110. RY*(   5) H   7                  0.00007     1.76798   
   111. RY*(   6) H   7                  0.00003     2.58016   
   112. RY*(   1) H   8                  0.00077     0.52725   
   113. RY*(   2) H   8                  0.00020     0.73781   
   114. RY*(   3) H   8                  0.00016     1.77001   
   115. RY*(   4) H   8                  0.00012     1.82409   
   116. RY*(   5) H   8                  0.00007     1.69918   
   117. RY*(   6) H   8                  0.00004     2.32811   
   118. RY*(   1) H   9                  0.00494     0.21400   
   119. RY*(   2) H   9                  0.00058     0.40736   
   120. RY*(   3) H   9                  0.00016     1.67839   
   121. RY*(   4) H   9                  0.00015     2.15268   
   122. RY*(   5) H   9                  0.00007     1.76798   
   123. RY*(   6) H   9                  0.00003     2.58016   
   124. RY*(   1) H  10                  0.00133     0.68444   
   125. RY*(   2) H  10                  0.00019     1.79468   
   126. RY*(   3) H  10                  0.00012     2.00608   
   127. RY*(   4) H  10                  0.00009     1.72208   
   128. RY*(   5) H  10                  0.00007     0.55815   
   129. RY*(   6) H  10                  0.00003     2.19825   
   130. BD*(   1) C   1 - S   2          0.10761     0.13145  135(g),40(g),44(g),39(g)
                                                    106(v),22(g)
   131. BD*(   1) C   1 - H   5          0.01386     0.37024   
   132. BD*(   1) C   1 - H   6          0.00686     0.37840   
   133. BD*(   1) C   1 - H   7          0.00880     0.36405   
   134. BD*(   1) S   2 - O   3          0.02295     0.26928   
   135. BD*(   1) S   2 - C   4          0.10761     0.13145  130(g),40(g),44(g),39(g)
                                                    118(v),77(g)
   136. BD*(   1) C   4 - H   8          0.00686     0.37840   
   137. BD*(   1) C   4 - H   9          0.00880     0.36405   
   138. BD*(   1) C   4 - H  10          0.01386     0.37024   
       -------------------------------
              Total Lewis   41.58236  ( 99.0056%)
        Valence non-Lewis    0.29721  (  0.7077%)
        Rydberg non-Lewis    0.12043  (  0.2867%)
       -------------------------------
            Total unit  1   42.00000  (100.0000%)
           Charge unit  1    0.00000
 Calling FoFJK, ICntrl=      2127 FMM=F ISym2X=0 I1Cent= 0 IOpClX= 0 NMat=1 NMatS=1 NMatT=0.
 ***** Axes restored to original set *****
 -------------------------------------------------------------------
 Center     Atomic                   Forces (Hartrees/Bohr)
 Number     Number              X              Y              Z
 -------------------------------------------------------------------
      1        6          -0.009363821   -0.006262004    0.004752320
      2       16           0.000816612   -0.003666238   -0.011692770
      3        8          -0.000588543    0.011616715    0.004780549
      4        6           0.009007665   -0.005799813    0.005891198
      5        1           0.000540758    0.001186320   -0.000413536
      6        1           0.002544443    0.000751973   -0.000434975
      7        1          -0.000007188    0.000193155   -0.000830050
      8        1          -0.002505508    0.000625025   -0.000747838
      9        1           0.000099875    0.000195788   -0.000823482
     10        1          -0.000544291    0.001159078   -0.000481418
 -------------------------------------------------------------------
 Cartesian Forces:  Max     0.011692770 RMS     0.004573799

 GradGradGradGradGradGradGradGradGradGradGradGradGradGradGradGradGradGrad
 Berny optimization.
 FormGI is forming the generalized inverse of G from B-inverse, IUseBI=4.
 Internal  Forces:  Max     0.012571579 RMS     0.003097757
 Search for a local minimum.
 Step number   1 out of a maximum of   46
 All quantities printed in internal units (Hartrees-Bohrs-Radians)
 Mixed Optimization -- RFO/linear search
 Second derivative matrix not updated -- first step.
 ITU=  0
     Eigenvalues ---    0.00250   0.00250   0.06525   0.07179   0.07179
     Eigenvalues ---    0.07366   0.07366   0.12164   0.16000   0.16000
     Eigenvalues ---    0.16000   0.16000   0.16000   0.16000   0.25000
     Eigenvalues ---    0.25411   0.25411   0.34512   0.34512   0.34520
     Eigenvalues ---    0.34520   0.34529   0.34529   0.76669
 RFO step:  Lambda=-1.05600681D-03 EMin= 2.49632775D-03
 Linear search not attempted -- first point.
 Iteration  1 RMS(Cart)=  0.02483735 RMS(Int)=  0.00026283
 Iteration  2 RMS(Cart)=  0.00023656 RMS(Int)=  0.00005031
 Iteration  3 RMS(Cart)=  0.00000002 RMS(Int)=  0.00005031
 Variable       Old X    -DE/DX   Delta X   Delta X   Delta X     New X
                                 (Linear)    (Quad)   (Total)
    R1        3.41875   0.00812   0.00000   0.03182   0.03182   3.45057
    R2        2.06474  -0.00028   0.00000  -0.00081  -0.00081   2.06393
    R3        2.06461  -0.00176   0.00000  -0.00509  -0.00509   2.05953
    R4        2.06447   0.00002   0.00000   0.00005   0.00005   2.06452
    R5        2.83463   0.01257   0.00000   0.01637   0.01637   2.85101
    R6        3.41874   0.00812   0.00000   0.03182   0.03182   3.45057
    R7        2.06461  -0.00176   0.00000  -0.00509  -0.00509   2.05953
    R8        2.06447   0.00002   0.00000   0.00005   0.00005   2.06452
    R9        2.06475  -0.00028   0.00000  -0.00082  -0.00082   2.06393
    A1        1.91939  -0.00104   0.00000  -0.00546  -0.00553   1.91385
    A2        1.89502  -0.00301   0.00000  -0.02169  -0.02178   1.87324
    A3        1.91103   0.00025   0.00000   0.00362   0.00360   1.91463
    A4        1.90883   0.00134   0.00000   0.00426   0.00411   1.91294
    A5        1.92145   0.00138   0.00000   0.01434   0.01433   1.93578
    A6        1.90787   0.00104   0.00000   0.00450   0.00447   1.91234
    A7        1.87623  -0.00103   0.00000  -0.00360  -0.00359   1.87264
    A8        1.67130   0.00374   0.00000   0.01519   0.01519   1.68650
    A9        1.87623  -0.00103   0.00000  -0.00360  -0.00359   1.87264
   A10        1.89502  -0.00301   0.00000  -0.02169  -0.02178   1.87324
   A11        1.91103   0.00025   0.00000   0.00362   0.00360   1.91463
   A12        1.91939  -0.00104   0.00000  -0.00546  -0.00554   1.91385
   A13        1.90787   0.00104   0.00000   0.00450   0.00447   1.91234
   A14        1.90883   0.00134   0.00000   0.00426   0.00411   1.91294
   A15        1.92145   0.00138   0.00000   0.01434   0.01433   1.93578
    D1       -0.90730   0.00061   0.00000  -0.00144  -0.00150  -0.90880
    D2        1.01968   0.00067   0.00000  -0.00043  -0.00049   1.01919
    D3        1.18063  -0.00022   0.00000  -0.01272  -0.01266   1.16796
    D4        3.10761  -0.00015   0.00000  -0.01170  -0.01166   3.09595
    D5       -3.02071  -0.00060   0.00000  -0.01805  -0.01804  -3.03875
    D6       -1.09373  -0.00053   0.00000  -0.01704  -0.01703  -1.11076
    D7       -3.10761   0.00015   0.00000   0.01171   0.01166  -3.09595
    D8        1.09372   0.00053   0.00000   0.01704   0.01704   1.11076
    D9       -1.01968  -0.00067   0.00000   0.00044   0.00049  -1.01919
   D10       -1.18063   0.00022   0.00000   0.01272   0.01267  -1.16796
   D11        3.02070   0.00060   0.00000   0.01805   0.01804   3.03874
   D12        0.90729  -0.00061   0.00000   0.00145   0.00150   0.90880
         Item               Value     Threshold  Converged?
 Maximum Force            0.012572     0.000450     NO 
 RMS     Force            0.003098     0.000300     NO 
 Maximum Displacement     0.075654     0.001800     NO 
 RMS     Displacement     0.024776     0.001200     NO 
 Predicted change in Energy=-5.307277D-04
 GradGradGradGradGradGradGradGradGradGradGradGradGradGradGradGradGradGrad

                          Input orientation:                          
 ---------------------------------------------------------------------
 Center     Atomic      Atomic             Coordinates (Angstroms)
 Number     Number       Type             X           Y           Z
 ---------------------------------------------------------------------
      1          6           0       -1.356276   -0.255162   -0.064398
      2         16           0        0.032820    0.671900   -0.802714
      3          8           0       -0.035651    2.081874   -0.270339
      4          6           0        1.364931   -0.186671    0.104191
      5          1           0       -1.342246   -0.135279    1.021096
      6          1           0       -2.277622    0.165475   -0.466850
      7          1           0       -1.283859   -1.309516   -0.341240
      8          1           0        2.306639    0.280857   -0.182837
      9          1           0        1.380146   -1.242466   -0.176194
     10          1           0        1.211116   -0.071013    1.179287
 ---------------------------------------------------------------------
                    Distance matrix (angstroms):
                    1          2          3          4          5
     1  C    0.000000
     2  S    1.825963   0.000000
     3  O    2.692248   1.508688   0.000000
     4  C    2.727284   1.825963   2.692248   0.000000
     5  H    1.092184   2.422525   2.879368   2.858699   0.000000
     6  H    1.089854   2.389019   2.955949   3.703821   1.783077
     7  H    1.092497   2.423347   3.614496   2.911233   1.799501
     8  H    3.703821   2.389020   2.955950   1.089854   3.864840
     9  H    2.911232   2.423347   3.614496   1.092497   3.173450
    10  H    2.858699   2.422525   2.879369   1.092184   2.559064
                    6          7          8          9         10
     6  H    0.000000
     7  H    1.782959   0.000000
     8  H    4.594500   3.930147   0.000000
     9  H    3.930146   2.669955   1.782959   0.000000
    10  H    3.864839   3.173451   1.783078   1.799500   0.000000
 Stoichiometry    C2H6OS
 Framework group  C1[X(C2H6OS)]
 Deg. of freedom    24
 Full point group                 C1      NOp   1
 Largest Abelian subgroup         C1      NOp   1
 Largest concise Abelian subgroup C1      NOp   1
                         Standard orientation:                         
 ---------------------------------------------------------------------
 Center     Atomic      Atomic             Coordinates (Angstroms)
 Number     Number       Type             X           Y           Z
 ---------------------------------------------------------------------
      1          6           0       -1.363641   -0.811128    0.181211
      2         16           0       -0.000000    0.233930   -0.437237
      3          8           0       -0.000001    1.501637    0.380723
      4          6           0        1.363643   -0.811126    0.181211
      5          1           0       -1.279531   -0.921679    1.264526
      6          1           0       -2.297249   -0.304783   -0.063275
      7          1           0       -1.334977   -1.784768   -0.313513
      8          1           0        2.297250   -0.304780   -0.063275
      9          1           0        1.334978   -1.784767   -0.313512
     10          1           0        1.279533   -0.921677    1.264526
 ---------------------------------------------------------------------
 Rotational constants (GHZ):           6.8220300           6.7625177           4.0867074
 Standard basis: 6-311++G(d,p) (5D, 7F)
 There are   142 symmetry adapted cartesian basis functions of A   symmetry.
 There are   138 symmetry adapted basis functions of A   symmetry.
   138 basis functions,   212 primitive gaussians,   142 cartesian basis functions
    21 alpha electrons       21 beta electrons
       nuclear repulsion energy       182.3495151119 Hartrees.
 NAtoms=   10 NActive=   10 NUniq=   10 SFac= 1.00D+00 NAtFMM=   60 NAOKFM=F Big=F
 Integral buffers will be    131072 words long.
 Raffenetti 2 integral format.
 Two-electron integral symmetry is turned on.
 One-electron integrals computed using PRISM.
 NBasis=   138 RedAO= T EigKep=  1.14D-04  NBF=   138
 NBsUse=   138 1.00D-06 EigRej= -1.00D+00 NBFU=   138
 Initial guess from the checkpoint file:  "CS(=O)C.chk"
 B after Tr=     0.000000   -0.000000    0.000000
         Rot=    0.999999    0.001220    0.000000    0.000000 Ang=   0.14 deg.
 ExpMin= 3.60D-02 ExpMax= 9.34D+04 ExpMxC= 3.17D+03 IAcc=3 IRadAn=         5 AccDes= 0.00D+00
 Harris functional with IExCor=  402 and IRadAn=       5 diagonalized for initial guess.
 HarFok:  IExCor=  402 AccDes= 0.00D+00 IRadAn=         5 IDoV= 1 UseB2=F ITyADJ=14
 ICtDFT=  3500011 ScaDFX=  1.000000  1.000000  1.000000  1.000000
 FoFCou: FMM=F IPFlag=           0 FMFlag=      100000 FMFlg1=           0
         NFxFlg=           0 DoJE=T BraDBF=F KetDBF=T FulRan=T
         wScrn=  0.000000 ICntrl=       500 IOpCl=  0 I1Cent=   200000004 NGrid=           0
         NMat0=    1 NMatS0=      1 NMatT0=    0 NMatD0=    1 NMtDS0=    0 NMtDT0=    0
 Petite list used in FoFCou.
 Keep R1 ints in memory in canonical form, NReq=53745969.
 Requested convergence on RMS density matrix=1.00D-08 within 128 cycles.
 Requested convergence on MAX density matrix=1.00D-06.
 Requested convergence on             energy=1.00D-06.
 No special actions if energy rises.
 SCF Done:  E(RB3LYP) =  -553.267819651     A.U. after   10 cycles
            NFock= 10  Conv=0.25D-08     -V/T= 2.0021
 Calling FoFJK, ICntrl=      2127 FMM=F ISym2X=0 I1Cent= 0 IOpClX= 0 NMat=1 NMatS=1 NMatT=0.
 ***** Axes restored to original set *****
 -------------------------------------------------------------------
 Center     Atomic                   Forces (Hartrees/Bohr)
 Number     Number              X              Y              Z
 -------------------------------------------------------------------
      1        6          -0.003017662   -0.002701214    0.002712543
      2       16           0.000384652   -0.001695099   -0.005520687
      3        8          -0.000243453    0.003938591    0.002329788
      4        6           0.002791538   -0.002555092    0.003072515
      5        1           0.000452420    0.000408333   -0.000450725
      6        1           0.000641170    0.000726699   -0.000513858
      7        1           0.000390110    0.000407611   -0.000243186
      8        1          -0.000608486    0.000695264   -0.000591283
      9        1          -0.000377048    0.000388329   -0.000290736
     10        1          -0.000413241    0.000386578   -0.000504371
 -------------------------------------------------------------------
 Cartesian Forces:  Max     0.005520687 RMS     0.001882657

 GradGradGradGradGradGradGradGradGradGradGradGradGradGradGradGradGradGrad
 Berny optimization.
 Using GEDIIS/GDIIS optimizer.
 FormGI is forming the generalized inverse of G from B-inverse, IUseBI=4.
 Internal  Forces:  Max     0.004514219 RMS     0.001092418
 Search for a local minimum.
 Step number   2 out of a maximum of   46
 All quantities printed in internal units (Hartrees-Bohrs-Radians)
 Mixed Optimization -- RFO/linear search
 Update second derivatives using D2CorX and points    1    2
 DE= -6.90D-04 DEPred=-5.31D-04 R= 1.30D+00
 TightC=F SS=  1.41D+00  RLast= 7.72D-02 DXNew= 5.0454D-01 2.3146D-01
 Trust test= 1.30D+00 RLast= 7.72D-02 DXMaxT set to 3.00D-01
 ITU=  1  0
 Use linear search instead of GDIIS.
     Eigenvalues ---    0.00250   0.00250   0.06087   0.07184   0.07292
     Eigenvalues ---    0.07525   0.07534   0.12358   0.12876   0.16000
     Eigenvalues ---    0.16000   0.16000   0.16000   0.16073   0.23044
     Eigenvalues ---    0.25411   0.25794   0.34434   0.34512   0.34520
     Eigenvalues ---    0.34523   0.34529   0.34925   0.71350
 RFO step:  Lambda=-1.23711544D-04 EMin= 2.49634318D-03
 Quartic linear search produced a step of  0.49531.
 Iteration  1 RMS(Cart)=  0.01618560 RMS(Int)=  0.00021198
 Iteration  2 RMS(Cart)=  0.00023558 RMS(Int)=  0.00006390
 Iteration  3 RMS(Cart)=  0.00000003 RMS(Int)=  0.00006390
 Variable       Old X    -DE/DX   Delta X   Delta X   Delta X     New X
                                 (Linear)    (Quad)   (Total)
    R1        3.45057   0.00236   0.01576   0.00202   0.01778   3.46835
    R2        2.06393  -0.00040  -0.00040  -0.00141  -0.00182   2.06211
    R3        2.05953  -0.00007  -0.00252   0.00161  -0.00091   2.05861
    R4        2.06452  -0.00031   0.00002  -0.00134  -0.00132   2.06320
    R5        2.85101   0.00451   0.00811   0.00255   0.01066   2.86167
    R6        3.45057   0.00236   0.01576   0.00202   0.01778   3.46835
    R7        2.05953  -0.00007  -0.00252   0.00160  -0.00091   2.05861
    R8        2.06452  -0.00031   0.00002  -0.00134  -0.00132   2.06320
    R9        2.06393  -0.00040  -0.00040  -0.00141  -0.00182   2.06211
    A1        1.91385  -0.00058  -0.00274  -0.00310  -0.00592   1.90793
    A2        1.87324  -0.00146  -0.01079  -0.00683  -0.01773   1.85552
    A3        1.91463  -0.00035   0.00178  -0.00368  -0.00194   1.91269
    A4        1.91294   0.00080   0.00204   0.00423   0.00610   1.91903
    A5        1.93578   0.00070   0.00710   0.00356   0.01065   1.94642
    A6        1.91234   0.00082   0.00221   0.00551   0.00766   1.92001
    A7        1.87264  -0.00046  -0.00178  -0.00923  -0.01108   1.86156
    A8        1.68650  -0.00024   0.00752  -0.01159  -0.00411   1.68239
    A9        1.87264  -0.00046  -0.00178  -0.00923  -0.01108   1.86156
   A10        1.87324  -0.00146  -0.01079  -0.00683  -0.01773   1.85552
   A11        1.91463  -0.00035   0.00178  -0.00368  -0.00194   1.91269
   A12        1.91385  -0.00058  -0.00274  -0.00310  -0.00592   1.90793
   A13        1.91234   0.00082   0.00221   0.00551   0.00766   1.92001
   A14        1.91294   0.00080   0.00204   0.00423   0.00610   1.91903
   A15        1.93578   0.00070   0.00710   0.00356   0.01065   1.94642
    D1       -0.90880   0.00050  -0.00074  -0.00345  -0.00428  -0.91308
    D2        1.01919  -0.00019  -0.00024  -0.01994  -0.02023   0.99896
    D3        1.16796   0.00029  -0.00627  -0.00408  -0.01033   1.15764
    D4        3.09595  -0.00040  -0.00577  -0.02057  -0.02628   3.06967
    D5       -3.03875   0.00023  -0.00894  -0.00350  -0.01243  -3.05117
    D6       -1.11076  -0.00046  -0.00844  -0.01999  -0.02838  -1.13914
    D7       -3.09595   0.00040   0.00578   0.02057   0.02629  -3.06966
    D8        1.11076   0.00046   0.00844   0.01999   0.02839   1.13915
    D9       -1.01919   0.00019   0.00024   0.01995   0.02024  -0.99895
   D10       -1.16796  -0.00029   0.00628   0.00408   0.01033  -1.15763
   D11        3.03874  -0.00023   0.00894   0.00350   0.01244   3.05118
   D12        0.90880  -0.00050   0.00074   0.00346   0.00428   0.91308
         Item               Value     Threshold  Converged?
 Maximum Force            0.004514     0.000450     NO 
 RMS     Force            0.001092     0.000300     NO 
 Maximum Displacement     0.036831     0.001800     NO 
 RMS     Displacement     0.016219     0.001200     NO 
 Predicted change in Energy=-1.317499D-04
 GradGradGradGradGradGradGradGradGradGradGradGradGradGradGradGradGradGrad

                          Input orientation:                          
 ---------------------------------------------------------------------
 Center     Atomic      Atomic             Coordinates (Angstroms)
 Number     Number       Type             X           Y           Z
 ---------------------------------------------------------------------
      1          6           0       -1.360921   -0.260151   -0.060450
      2         16           0        0.033969    0.661913   -0.817203
      3          8           0       -0.035106    2.074603   -0.276160
      4          6           0        1.369298   -0.191434    0.108697
      5          1           0       -1.328502   -0.138115    1.023442
      6          1           0       -2.272782    0.184378   -0.457479
      7          1           0       -1.302675   -1.312065   -0.346999
      8          1           0        2.299738    0.299467   -0.174191
      9          1           0        1.399637   -1.244050   -0.179585
     10          1           0        1.197345   -0.074546    1.179927
 ---------------------------------------------------------------------
                    Distance matrix (angstroms):
                    1          2          3          4          5
     1  C    0.000000
     2  S    1.835373   0.000000
     3  O    2.693583   1.514328   0.000000
     4  C    2.736316   1.835373   2.693583   0.000000
     5  H    1.091222   2.425767   2.873666   2.849162   0.000000
     6  H    1.089370   2.382969   2.934794   3.704934   1.785719
     7  H    1.091799   2.429877   3.616803   2.933072   1.804698
     8  H    3.704934   2.382969   2.934792   1.089371   3.845768
     9  H    2.933075   2.429876   3.616804   1.091799   3.180111
    10  H    2.849160   2.425767   2.873668   1.091222   2.531488
                    6          7          8          9         10
     6  H    0.000000
     7  H    1.786800   0.000000
     8  H    4.582733   3.950225   0.000000
     9  H    3.950227   2.708347   1.786800   0.000000
    10  H    3.845767   3.180104   1.785719   1.804698   0.000000
 Stoichiometry    C2H6OS
 Framework group  C1[X(C2H6OS)]
 Deg. of freedom    24
 Full point group                 C1      NOp   1
 Largest Abelian subgroup         C1      NOp   1
 Largest concise Abelian subgroup C1      NOp   1
                         Standard orientation:                         
 ---------------------------------------------------------------------
 Center     Atomic      Atomic             Coordinates (Angstroms)
 Number     Number       Type             X           Y           Z
 ---------------------------------------------------------------------
      1          6           0       -1.368158   -0.813182    0.185692
      2         16           0        0.000000    0.234629   -0.445837
      3          8           0        0.000000    1.498150    0.388851
      4          6           0        1.368158   -0.813183    0.185692
      5          1           0       -1.265746   -0.928048    1.266008
      6          1           0       -2.291366   -0.283313   -0.045941
      7          1           0       -1.354172   -1.779175   -0.322921
      8          1           0        2.291366   -0.283312   -0.045937
      9          1           0        1.354175   -1.779174   -0.322925
     10          1           0        1.265743   -0.928053    1.266007
 ---------------------------------------------------------------------
 Rotational constants (GHZ):           6.7958826           6.7022646           4.0813219
 Standard basis: 6-311++G(d,p) (5D, 7F)
 There are   142 symmetry adapted cartesian basis functions of A   symmetry.
 There are   138 symmetry adapted basis functions of A   symmetry.
   138 basis functions,   212 primitive gaussians,   142 cartesian basis functions
    21 alpha electrons       21 beta electrons
       nuclear repulsion energy       181.8767341388 Hartrees.
 NAtoms=   10 NActive=   10 NUniq=   10 SFac= 1.00D+00 NAtFMM=   60 NAOKFM=F Big=F
 Integral buffers will be    131072 words long.
 Raffenetti 2 integral format.
 Two-electron integral symmetry is turned on.
 One-electron integrals computed using PRISM.
 NBasis=   138 RedAO= T EigKep=  1.14D-04  NBF=   138
 NBsUse=   138 1.00D-06 EigRej= -1.00D+00 NBFU=   138
 Initial guess from the checkpoint file:  "CS(=O)C.chk"
 B after Tr=    -0.000000    0.000000   -0.000000
         Rot=    1.000000   -0.000979    0.000000    0.000000 Ang=  -0.11 deg.
 ExpMin= 3.60D-02 ExpMax= 9.34D+04 ExpMxC= 3.17D+03 IAcc=3 IRadAn=         5 AccDes= 0.00D+00
 Harris functional with IExCor=  402 and IRadAn=       5 diagonalized for initial guess.
 HarFok:  IExCor=  402 AccDes= 0.00D+00 IRadAn=         5 IDoV= 1 UseB2=F ITyADJ=14
 ICtDFT=  3500011 ScaDFX=  1.000000  1.000000  1.000000  1.000000
 FoFCou: FMM=F IPFlag=           0 FMFlag=      100000 FMFlg1=           0
         NFxFlg=           0 DoJE=T BraDBF=F KetDBF=T FulRan=T
         wScrn=  0.000000 ICntrl=       500 IOpCl=  0 I1Cent=   200000004 NGrid=           0
         NMat0=    1 NMatS0=      1 NMatT0=    0 NMatD0=    1 NMtDS0=    0 NMtDT0=    0
 Petite list used in FoFCou.
 Keep R1 ints in memory in canonical form, NReq=53745969.
 Requested convergence on RMS density matrix=1.00D-08 within 128 cycles.
 Requested convergence on MAX density matrix=1.00D-06.
 Requested convergence on             energy=1.00D-06.
 No special actions if energy rises.
 SCF Done:  E(RB3LYP) =  -553.267930910     A.U. after    9 cycles
            NFock=  9  Conv=0.74D-08     -V/T= 2.0021
 Calling FoFJK, ICntrl=      2127 FMM=F ISym2X=0 I1Cent= 0 IOpClX= 0 NMat=1 NMatS=1 NMatT=0.
 ***** Axes restored to original set *****
 -------------------------------------------------------------------
 Center     Atomic                   Forces (Hartrees/Bohr)
 Number     Number              X              Y              Z
 -------------------------------------------------------------------
      1        6          -0.000336153   -0.000163540   -0.000682862
      2       16          -0.000120713    0.000046930    0.001929674
      3        8           0.000024160    0.000256036   -0.000494146
      4        6           0.000425626   -0.000144356   -0.000635706
      5        1           0.000246840    0.000126451   -0.000271720
      6        1          -0.000317190   -0.000127088    0.000043891
      7        1          -0.000046194    0.000000088    0.000161870
      8        1           0.000315272   -0.000111181    0.000083052
      9        1           0.000025800    0.000001905    0.000166349
     10        1          -0.000217449    0.000114755   -0.000300402
 -------------------------------------------------------------------
 Cartesian Forces:  Max     0.001929674 RMS     0.000441904

 GradGradGradGradGradGradGradGradGradGradGradGradGradGradGradGradGradGrad
 Berny optimization.
 Using GEDIIS/GDIIS optimizer.
 FormGI is forming the generalized inverse of G from B-inverse, IUseBI=4.
 Internal  Forces:  Max     0.001111564 RMS     0.000343200
 Search for a local minimum.
 Step number   3 out of a maximum of   46
 All quantities printed in internal units (Hartrees-Bohrs-Radians)
 Mixed Optimization -- En-DIIS/RFO-DIIS
 Update second derivatives using D2CorX and points    1    2    3
 DE= -1.11D-04 DEPred=-1.32D-04 R= 8.44D-01
 TightC=F SS=  1.41D+00  RLast= 8.07D-02 DXNew= 5.0454D-01 2.4217D-01
 Trust test= 8.44D-01 RLast= 8.07D-02 DXMaxT set to 3.00D-01
 ITU=  1  1  0
 Use linear search instead of GDIIS.
     Eigenvalues ---    0.00250   0.00251   0.07091   0.07227   0.07522
     Eigenvalues ---    0.07676   0.07892   0.11289   0.12235   0.16000
     Eigenvalues ---    0.16000   0.16000   0.16069   0.16745   0.22000
     Eigenvalues ---    0.25411   0.25930   0.34399   0.34512   0.34520
     Eigenvalues ---    0.34529   0.34540   0.35017   0.70444
 RFO step:  Lambda=-2.95017136D-05 EMin= 2.49634320D-03
 Quartic linear search produced a step of -0.17297.
 Iteration  1 RMS(Cart)=  0.01205948 RMS(Int)=  0.00007093
 Iteration  2 RMS(Cart)=  0.00009541 RMS(Int)=  0.00000758
 Iteration  3 RMS(Cart)=  0.00000001 RMS(Int)=  0.00000758
 Variable       Old X    -DE/DX   Delta X   Delta X   Delta X     New X
                                 (Linear)    (Quad)   (Total)
    R1        3.46835   0.00012  -0.00308   0.00387   0.00079   3.46915
    R2        2.06211  -0.00025   0.00031  -0.00103  -0.00072   2.06140
    R3        2.05861   0.00020   0.00016   0.00039   0.00055   2.05916
    R4        2.06320  -0.00005   0.00023  -0.00042  -0.00020   2.06301
    R5        2.86167   0.00006  -0.00184   0.00224   0.00039   2.86206
    R6        3.46835   0.00012  -0.00308   0.00387   0.00079   3.46915
    R7        2.05861   0.00020   0.00016   0.00039   0.00055   2.05916
    R8        2.06320  -0.00005   0.00023  -0.00042  -0.00020   2.06301
    R9        2.06211  -0.00025   0.00031  -0.00103  -0.00072   2.06140
    A1        1.90793  -0.00059   0.00102  -0.00487  -0.00384   1.90409
    A2        1.85552   0.00051   0.00307  -0.00047   0.00261   1.85812
    A3        1.91269   0.00020   0.00034   0.00049   0.00083   1.91352
    A4        1.91903   0.00002  -0.00105   0.00149   0.00045   1.91949
    A5        1.94642   0.00003  -0.00184   0.00145  -0.00040   1.94603
    A6        1.92001  -0.00016  -0.00133   0.00177   0.00045   1.92046
    A7        1.86156   0.00019   0.00192   0.00223   0.00413   1.86570
    A8        1.68239   0.00111   0.00071   0.00481   0.00551   1.68790
    A9        1.86156   0.00019   0.00192   0.00223   0.00413   1.86570
   A10        1.85552   0.00051   0.00307  -0.00047   0.00261   1.85812
   A11        1.91269   0.00020   0.00033   0.00049   0.00083   1.91352
   A12        1.90793  -0.00059   0.00102  -0.00487  -0.00384   1.90409
   A13        1.92001  -0.00016  -0.00133   0.00177   0.00045   1.92046
   A14        1.91903   0.00002  -0.00105   0.00149   0.00045   1.91949
   A15        1.94642   0.00003  -0.00184   0.00145  -0.00040   1.94603
    D1       -0.91308  -0.00034   0.00074   0.01076   0.01150  -0.90157
    D2        0.99896   0.00029   0.00350   0.01536   0.01887   1.01783
    D3        1.15764  -0.00035   0.00179   0.00970   0.01148   1.16911
    D4        3.06967   0.00029   0.00455   0.01430   0.01885   3.08851
    D5       -3.05117  -0.00014   0.00215   0.01179   0.01394  -3.03724
    D6       -1.13914   0.00050   0.00491   0.01640   0.02131  -1.11784
    D7       -3.06966  -0.00029  -0.00455  -0.01431  -0.01885  -3.08851
    D8        1.13915  -0.00050  -0.00491  -0.01640  -0.02131   1.11784
    D9       -0.99895  -0.00029  -0.00350  -0.01536  -0.01888  -1.01783
   D10       -1.15763   0.00035  -0.00179  -0.00970  -0.01148  -1.16911
   D11        3.05118   0.00014  -0.00215  -0.01180  -0.01394   3.03724
   D12        0.91308   0.00034  -0.00074  -0.01076  -0.01151   0.90157
         Item               Value     Threshold  Converged?
 Maximum Force            0.001112     0.000450     NO 
 RMS     Force            0.000343     0.000300     NO 
 Maximum Displacement     0.024596     0.001800     NO 
 RMS     Displacement     0.012056     0.001200     NO 
 Predicted change in Energy=-1.956267D-05
 GradGradGradGradGradGradGradGradGradGradGradGradGradGradGradGradGradGrad

                          Input orientation:                          
 ---------------------------------------------------------------------
 Center     Atomic      Atomic             Coordinates (Angstroms)
 Number     Number       Type             X           Y           Z
 ---------------------------------------------------------------------
      1          6           0       -1.364471   -0.260644   -0.062483
      2         16           0        0.033228    0.667528   -0.807515
      3          8           0       -0.036017    2.079232   -0.263349
      4          6           0        1.373092   -0.191742    0.107120
      5          1           0       -1.341517   -0.131786    1.020480
      6          1           0       -2.276442    0.174807   -0.469978
      7          1           0       -1.295748   -1.313807   -0.341631
      8          1           0        2.305387    0.290127   -0.186116
      9          1           0        1.392194   -1.246154   -0.175103
     10          1           0        1.210295   -0.067560    1.178575
 ---------------------------------------------------------------------
                    Distance matrix (angstroms):
                    1          2          3          4          5
     1  C    0.000000
     2  S    1.835794   0.000000
     3  O    2.698177   1.514536   0.000000
     4  C    2.743677   1.835794   2.698177   0.000000
     5  H    1.090844   2.422889   2.870740   2.864773   0.000000
     6  H    1.089660   2.385640   2.947717   3.713017   1.785930
     7  H    1.091696   2.430826   3.620189   2.929696   1.804055
     8  H    3.713017   2.385640   2.947716   1.089660   3.864427
     9  H    2.929696   2.430826   3.620189   1.091696   3.185030
    10  H    2.864773   2.422890   2.870741   1.090844   2.557512
                    6          7          8          9         10
     6  H    0.000000
     7  H    1.787233   0.000000
     8  H    4.592062   3.945246   0.000000
     9  H    3.945246   2.693946   1.787233   0.000000
    10  H    3.864427   3.185029   1.785930   1.804055   0.000000
 Stoichiometry    C2H6OS
 Framework group  C1[X(C2H6OS)]
 Deg. of freedom    24
 Full point group                 C1      NOp   1
 Largest Abelian subgroup         C1      NOp   1
 Largest concise Abelian subgroup C1      NOp   1
                         Standard orientation:                         
 ---------------------------------------------------------------------
 Center     Atomic      Atomic             Coordinates (Angstroms)
 Number     Number       Type             X           Y           Z
 ---------------------------------------------------------------------
      1          6           0       -1.371839   -0.813239    0.184734
      2         16           0        0.000000    0.232979   -0.442661
      3          8           0        0.000000    1.501544    0.384722
      4          6           0        1.371838   -0.813240    0.184734
      5          1           0       -1.278756   -0.912459    1.267060
      6          1           0       -2.296031   -0.291949   -0.063227
      7          1           0       -1.346973   -1.786163   -0.309836
      8          1           0        2.296031   -0.291949   -0.063227
      9          1           0        1.346973   -1.786164   -0.309837
     10          1           0        1.278756   -0.912460    1.267060
 ---------------------------------------------------------------------
 Rotational constants (GHZ):           6.7971893           6.6884114           4.0663838
 Standard basis: 6-311++G(d,p) (5D, 7F)
 There are   142 symmetry adapted cartesian basis functions of A   symmetry.
 There are   138 symmetry adapted basis functions of A   symmetry.
   138 basis functions,   212 primitive gaussians,   142 cartesian basis functions
    21 alpha electrons       21 beta electrons
       nuclear repulsion energy       181.7777287714 Hartrees.
 NAtoms=   10 NActive=   10 NUniq=   10 SFac= 1.00D+00 NAtFMM=   60 NAOKFM=F Big=F
 Integral buffers will be    131072 words long.
 Raffenetti 2 integral format.
 Two-electron integral symmetry is turned on.
 One-electron integrals computed using PRISM.
 NBasis=   138 RedAO= T EigKep=  1.15D-04  NBF=   138
 NBsUse=   138 1.00D-06 EigRej= -1.00D+00 NBFU=   138
 Initial guess from the checkpoint file:  "CS(=O)C.chk"
 B after Tr=     0.000000   -0.000000    0.000000
         Rot=    0.999999    0.001550   -0.000000   -0.000000 Ang=   0.18 deg.
 ExpMin= 3.60D-02 ExpMax= 9.34D+04 ExpMxC= 3.17D+03 IAcc=3 IRadAn=         5 AccDes= 0.00D+00
 Harris functional with IExCor=  402 and IRadAn=       5 diagonalized for initial guess.
 HarFok:  IExCor=  402 AccDes= 0.00D+00 IRadAn=         5 IDoV= 1 UseB2=F ITyADJ=14
 ICtDFT=  3500011 ScaDFX=  1.000000  1.000000  1.000000  1.000000
 FoFCou: FMM=F IPFlag=           0 FMFlag=      100000 FMFlg1=           0
         NFxFlg=           0 DoJE=T BraDBF=F KetDBF=T FulRan=T
         wScrn=  0.000000 ICntrl=       500 IOpCl=  0 I1Cent=   200000004 NGrid=           0
         NMat0=    1 NMatS0=      1 NMatT0=    0 NMatD0=    1 NMtDS0=    0 NMtDT0=    0
 Petite list used in FoFCou.
 Keep R1 ints in memory in canonical form, NReq=53745969.
 Requested convergence on RMS density matrix=1.00D-08 within 128 cycles.
 Requested convergence on MAX density matrix=1.00D-06.
 Requested convergence on             energy=1.00D-06.
 No special actions if energy rises.
 SCF Done:  E(RB3LYP) =  -553.267945830     A.U. after    8 cycles
            NFock=  8  Conv=0.56D-08     -V/T= 2.0021
 Calling FoFJK, ICntrl=      2127 FMM=F ISym2X=0 I1Cent= 0 IOpClX= 0 NMat=1 NMatS=1 NMatT=0.
 ***** Axes restored to original set *****
 -------------------------------------------------------------------
 Center     Atomic                   Forces (Hartrees/Bohr)
 Number     Number              X              Y              Z
 -------------------------------------------------------------------
      1        6           0.000157768    0.000172491   -0.000080694
      2       16           0.000015573    0.000131212   -0.000304568
      3        8           0.000004385   -0.000393357    0.000088925
      4        6          -0.000155041    0.000164624   -0.000100101
      5        1          -0.000002975   -0.000023031    0.000111875
      6        1           0.000021443   -0.000052600    0.000063840
      7        1           0.000028948    0.000039629    0.000026140
      8        1          -0.000026484   -0.000053813    0.000060872
      9        1          -0.000033899    0.000038042    0.000022251
     10        1          -0.000009718   -0.000023197    0.000111459
 -------------------------------------------------------------------
 Cartesian Forces:  Max     0.000393357 RMS     0.000121393

 GradGradGradGradGradGradGradGradGradGradGradGradGradGradGradGradGradGrad
 Berny optimization.
 Using GEDIIS/GDIIS optimizer.
 FormGI is forming the generalized inverse of G from B-inverse, IUseBI=4.
 Internal  Forces:  Max     0.000492616 RMS     0.000136511
 Search for a local minimum.
 Step number   4 out of a maximum of   46
 All quantities printed in internal units (Hartrees-Bohrs-Radians)
 Mixed Optimization -- En-DIIS/RFO-DIIS
 Swapping is turned off.
 Update second derivatives using D2CorX and points    1    2    3    4
 DE= -1.49D-05 DEPred=-1.96D-05 R= 7.63D-01
 TightC=F SS=  1.41D+00  RLast= 5.80D-02 DXNew= 5.0454D-01 1.7393D-01
 Trust test= 7.63D-01 RLast= 5.80D-02 DXMaxT set to 3.00D-01
 ITU=  1  1  1  0
     Eigenvalues ---    0.00246   0.00250   0.07110   0.07244   0.07411
     Eigenvalues ---    0.07665   0.09018   0.12336   0.12439   0.15877
     Eigenvalues ---    0.16000   0.16000   0.16000   0.16349   0.22587
     Eigenvalues ---    0.25411   0.28132   0.34392   0.34512   0.34520
     Eigenvalues ---    0.34529   0.34693   0.35123   0.71268
 En-DIIS/RFO-DIIS/Sim-DIIS IScMMF=       -3 using points:     4    3
 RFO step:  Lambda=-3.45509262D-06.
 DidBck=F Rises=F RFO-DIIS coefs:    0.95376    0.04624
 Iteration  1 RMS(Cart)=  0.00194095 RMS(Int)=  0.00000152
 Iteration  2 RMS(Cart)=  0.00000217 RMS(Int)=  0.00000032
 Iteration  3 RMS(Cart)=  0.00000000 RMS(Int)=  0.00000032
 Variable       Old X    -DE/DX   Delta X   Delta X   Delta X     New X
                                 (Linear)    (Quad)   (Total)
    R1        3.46915  -0.00018  -0.00004  -0.00082  -0.00086   3.46829
    R2        2.06140   0.00011   0.00003   0.00025   0.00028   2.06168
    R3        2.05916  -0.00006  -0.00003  -0.00012  -0.00014   2.05902
    R4        2.06301  -0.00004   0.00001  -0.00006  -0.00005   2.06296
    R5        2.86206  -0.00033  -0.00002  -0.00054  -0.00056   2.86149
    R6        3.46915  -0.00018  -0.00004  -0.00082  -0.00086   3.46829
    R7        2.05916  -0.00006  -0.00003  -0.00012  -0.00014   2.05902
    R8        2.06301  -0.00004   0.00001  -0.00006  -0.00005   2.06296
    R9        2.06140   0.00011   0.00003   0.00025   0.00028   2.06168
    A1        1.90409   0.00002   0.00018  -0.00004   0.00014   1.90423
    A2        1.85812   0.00010  -0.00012   0.00119   0.00107   1.85919
    A3        1.91352  -0.00005  -0.00004  -0.00013  -0.00017   1.91335
    A4        1.91949  -0.00003  -0.00002  -0.00021  -0.00023   1.91926
    A5        1.94603  -0.00003   0.00002  -0.00058  -0.00056   1.94547
    A6        1.92046  -0.00000  -0.00002  -0.00015  -0.00017   1.92029
    A7        1.86570  -0.00005  -0.00019  -0.00087  -0.00106   1.86464
    A8        1.68790  -0.00049  -0.00025  -0.00157  -0.00183   1.68607
    A9        1.86570  -0.00005  -0.00019  -0.00087  -0.00106   1.86464
   A10        1.85812   0.00010  -0.00012   0.00119   0.00107   1.85919
   A11        1.91352  -0.00005  -0.00004  -0.00013  -0.00017   1.91335
   A12        1.90409   0.00002   0.00018  -0.00004   0.00014   1.90423
   A13        1.92046  -0.00000  -0.00002  -0.00015  -0.00017   1.92029
   A14        1.91949  -0.00003  -0.00002  -0.00021  -0.00023   1.91926
   A15        1.94603  -0.00003   0.00002  -0.00058  -0.00056   1.94547
    D1       -0.90157   0.00009  -0.00053   0.00069   0.00015  -0.90142
    D2        1.01783  -0.00015  -0.00087  -0.00102  -0.00190   1.01593
    D3        1.16911   0.00012  -0.00053   0.00108   0.00055   1.16966
    D4        3.08851  -0.00012  -0.00087  -0.00063  -0.00150   3.08701
    D5       -3.03724   0.00014  -0.00064   0.00151   0.00087  -3.03637
    D6       -1.11784  -0.00010  -0.00099  -0.00020  -0.00118  -1.11902
    D7       -3.08851   0.00012   0.00087   0.00063   0.00150  -3.08701
    D8        1.11784   0.00010   0.00099   0.00020   0.00118   1.11902
    D9       -1.01783   0.00015   0.00087   0.00102   0.00190  -1.01593
   D10       -1.16911  -0.00012   0.00053  -0.00108  -0.00055  -1.16966
   D11        3.03724  -0.00014   0.00064  -0.00151  -0.00087   3.03637
   D12        0.90157  -0.00009   0.00053  -0.00069  -0.00015   0.90142
         Item               Value     Threshold  Converged?
 Maximum Force            0.000493     0.000450     NO 
 RMS     Force            0.000137     0.000300     YES
 Maximum Displacement     0.005749     0.001800     NO 
 RMS     Displacement     0.001942     0.001200     NO 
 Predicted change in Energy=-1.726642D-06
 GradGradGradGradGradGradGradGradGradGradGradGradGradGradGradGradGradGrad

                          Input orientation:                          
 ---------------------------------------------------------------------
 Center     Atomic      Atomic             Coordinates (Angstroms)
 Number     Number       Type             X           Y           Z
 ---------------------------------------------------------------------
      1          6           0       -1.363013   -0.260243   -0.062648
      2         16           0        0.033335    0.667738   -0.809333
      3          8           0       -0.035982    2.078524   -0.263629
      4          6           0        1.371647   -0.191414    0.106774
      5          1           0       -1.338475   -0.131852    1.020485
      6          1           0       -2.276105    0.174458   -0.468229
      7          1           0       -1.294342   -1.313387   -0.341779
      8          1           0        2.304855    0.289757   -0.184420
      9          1           0        1.390798   -1.245804   -0.175425
     10          1           0        1.207282   -0.067778    1.178204
 ---------------------------------------------------------------------
                    Distance matrix (angstroms):
                    1          2          3          4          5
     1  C    0.000000
     2  S    1.835341   0.000000
     3  O    2.696523   1.514238   0.000000
     4  C    2.740768   1.835341   2.696523   0.000000
     5  H    1.090992   2.422693   2.869007   2.860626   0.000000
     6  H    1.089586   2.386041   2.947114   3.710874   1.785845
     7  H    1.091669   2.430265   3.618652   2.927033   1.803811
     8  H    3.710874   2.386041   2.947114   1.089586   3.860493
     9  H    2.927033   2.430265   3.618652   1.091669   3.181198
    10  H    2.860626   2.422693   2.869007   1.090992   2.551443
                    6          7          8          9         10
     6  H    0.000000
     7  H    1.787045   0.000000
     8  H    4.591192   3.943229   0.000000
     9  H    3.943229   2.691137   1.787045   0.000000
    10  H    3.860493   3.181197   1.785845   1.803811   0.000000
 Stoichiometry    C2H6OS
 Framework group  C1[X(C2H6OS)]
 Deg. of freedom    24
 Full point group                 C1      NOp   1
 Largest Abelian subgroup         C1      NOp   1
 Largest concise Abelian subgroup C1      NOp   1
                         Standard orientation:                         
 ---------------------------------------------------------------------
 Center     Atomic      Atomic             Coordinates (Angstroms)
 Number     Number       Type             X           Y           Z
 ---------------------------------------------------------------------
      1          6           0       -1.370384   -0.813136    0.184824
      2         16           0        0.000000    0.233617   -0.443533
      3          8           0       -0.000000    1.500488    0.385897
      4          6           0        1.370384   -0.813136    0.184824
      5          1           0       -1.275722   -0.913490    1.267059
      6          1           0       -2.295596   -0.292822   -0.061050
      7          1           0       -1.345568   -1.785759   -0.310282
      8          1           0        2.295596   -0.292822   -0.061050
      9          1           0        1.345569   -1.785759   -0.310282
     10          1           0        1.275722   -0.913490    1.267059
 ---------------------------------------------------------------------
 Rotational constants (GHZ):           6.7975502           6.6957996           4.0718411
 Standard basis: 6-311++G(d,p) (5D, 7F)
 There are   142 symmetry adapted cartesian basis functions of A   symmetry.
 There are   138 symmetry adapted basis functions of A   symmetry.
   138 basis functions,   212 primitive gaussians,   142 cartesian basis functions
    21 alpha electrons       21 beta electrons
       nuclear repulsion energy       181.8310751052 Hartrees.
 NAtoms=   10 NActive=   10 NUniq=   10 SFac= 1.00D+00 NAtFMM=   60 NAOKFM=F Big=F
 Integral buffers will be    131072 words long.
 Raffenetti 2 integral format.
 Two-electron integral symmetry is turned on.
 One-electron integrals computed using PRISM.
 NBasis=   138 RedAO= T EigKep=  1.15D-04  NBF=   138
 NBsUse=   138 1.00D-06 EigRej= -1.00D+00 NBFU=   138
 Initial guess from the checkpoint file:  "CS(=O)C.chk"
 B after Tr=     0.000000    0.000000    0.000000
         Rot=    1.000000   -0.000238    0.000000   -0.000000 Ang=  -0.03 deg.
 Keep R1 ints in memory in canonical form, NReq=53745969.
 Requested convergence on RMS density matrix=1.00D-08 within 128 cycles.
 Requested convergence on MAX density matrix=1.00D-06.
 Requested convergence on             energy=1.00D-06.
 No special actions if energy rises.
 SCF Done:  E(RB3LYP) =  -553.267947717     A.U. after    7 cycles
            NFock=  7  Conv=0.96D-08     -V/T= 2.0021
 Calling FoFJK, ICntrl=      2127 FMM=F ISym2X=0 I1Cent= 0 IOpClX= 0 NMat=1 NMatS=1 NMatT=0.
 ***** Axes restored to original set *****
 -------------------------------------------------------------------
 Center     Atomic                   Forces (Hartrees/Bohr)
 Number     Number              X              Y              Z
 -------------------------------------------------------------------
      1        6          -0.000014477   -0.000027692   -0.000043143
      2       16          -0.000003231    0.000055652    0.000029416
      3        8           0.000000804   -0.000019855   -0.000004887
      4        6           0.000021069   -0.000026793   -0.000040948
      5        1           0.000034161    0.000019192    0.000005391
      6        1           0.000000461   -0.000007914    0.000014287
      7        1          -0.000003796   -0.000001105    0.000012140
      8        1          -0.000001821   -0.000007977    0.000014148
      9        1           0.000002320   -0.000000951    0.000012519
     10        1          -0.000035490    0.000017441    0.000001077
 -------------------------------------------------------------------
 Cartesian Forces:  Max     0.000055652 RMS     0.000021647

 GradGradGradGradGradGradGradGradGradGradGradGradGradGradGradGradGradGrad
 Berny optimization.
 Using GEDIIS/GDIIS optimizer.
 FormGI is forming the generalized inverse of G from B-inverse, IUseBI=4.
 Internal  Forces:  Max     0.000102206 RMS     0.000027159
 Search for a local minimum.
 Step number   5 out of a maximum of   46
 All quantities printed in internal units (Hartrees-Bohrs-Radians)
 Mixed Optimization -- En-DIIS/RFO-DIIS
 Swapping is turned off.
 Update second derivatives using D2CorX and points    1    2    3    4    5
 DE= -1.89D-06 DEPred=-1.73D-06 R= 1.09D+00
 TightC=F SS=  1.41D+00  RLast= 5.24D-03 DXNew= 5.0454D-01 1.5707D-02
 Trust test= 1.09D+00 RLast= 5.24D-03 DXMaxT set to 3.00D-01
 ITU=  1  1  1  1  0
     Eigenvalues ---    0.00249   0.00250   0.06628   0.07215   0.07244
     Eigenvalues ---    0.07657   0.08882   0.12304   0.12700   0.15275
     Eigenvalues ---    0.16000   0.16000   0.16000   0.16751   0.22588
     Eigenvalues ---    0.25411   0.26387   0.34385   0.34512   0.34520
     Eigenvalues ---    0.34529   0.34672   0.35000   0.71158
 En-DIIS/RFO-DIIS/Sim-DIIS IScMMF=       -3 using points:     5    4    3
 RFO step:  Lambda=-2.03201705D-07.
 DidBck=F Rises=F RFO-DIIS coefs:    1.12345   -0.13547    0.01202
 Iteration  1 RMS(Cart)=  0.00070922 RMS(Int)=  0.00000026
 Iteration  2 RMS(Cart)=  0.00000027 RMS(Int)=  0.00000006
 Variable       Old X    -DE/DX   Delta X   Delta X   Delta X     New X
                                 (Linear)    (Quad)   (Total)
    R1        3.46829  -0.00001  -0.00012   0.00009  -0.00003   3.46827
    R2        2.06168   0.00001   0.00004  -0.00001   0.00003   2.06171
    R3        2.05902  -0.00001  -0.00002  -0.00001  -0.00003   2.05898
    R4        2.06296  -0.00000  -0.00000  -0.00001  -0.00001   2.06294
    R5        2.86149  -0.00002  -0.00007   0.00004  -0.00003   2.86146
    R6        3.46829  -0.00001  -0.00012   0.00009  -0.00003   3.46827
    R7        2.05902  -0.00001  -0.00002  -0.00001  -0.00003   2.05898
    R8        2.06296  -0.00000  -0.00000  -0.00001  -0.00001   2.06294
    R9        2.06168   0.00001   0.00004  -0.00001   0.00003   2.06171
    A1        1.90423  -0.00007   0.00006  -0.00067  -0.00061   1.90363
    A2        1.85919   0.00003   0.00010   0.00022   0.00032   1.85951
    A3        1.91335   0.00002  -0.00003   0.00021   0.00018   1.91353
    A4        1.91926   0.00001  -0.00003   0.00007   0.00004   1.91929
    A5        1.94547   0.00001  -0.00006   0.00002  -0.00004   1.94543
    A6        1.92029  -0.00000  -0.00003   0.00014   0.00011   1.92040
    A7        1.86464   0.00002  -0.00018   0.00014  -0.00004   1.86460
    A8        1.68607  -0.00010  -0.00029  -0.00022  -0.00051   1.68556
    A9        1.86464   0.00002  -0.00018   0.00014  -0.00004   1.86460
   A10        1.85919   0.00003   0.00010   0.00022   0.00032   1.85951
   A11        1.91335   0.00002  -0.00003   0.00021   0.00018   1.91353
   A12        1.90423  -0.00007   0.00006  -0.00067  -0.00061   1.90363
   A13        1.92029  -0.00000  -0.00003   0.00014   0.00011   1.92040
   A14        1.91926   0.00001  -0.00003   0.00007   0.00004   1.91929
   A15        1.94547   0.00001  -0.00006   0.00002  -0.00004   1.94543
    D1       -0.90142   0.00000  -0.00012  -0.00013  -0.00025  -0.90167
    D2        1.01593  -0.00001  -0.00046  -0.00003  -0.00049   1.01544
    D3        1.16966  -0.00000  -0.00007  -0.00028  -0.00035   1.16931
    D4        3.08701  -0.00002  -0.00041  -0.00018  -0.00059   3.08642
    D5       -3.03637   0.00002  -0.00006   0.00013   0.00007  -3.03630
    D6       -1.11902   0.00001  -0.00040   0.00023  -0.00017  -1.11919
    D7       -3.08701   0.00002   0.00041   0.00018   0.00059  -3.08642
    D8        1.11902  -0.00001   0.00040  -0.00023   0.00017   1.11919
    D9       -1.01593   0.00001   0.00046   0.00003   0.00049  -1.01544
   D10       -1.16966   0.00000   0.00007   0.00028   0.00035  -1.16931
   D11        3.03637  -0.00002   0.00006  -0.00013  -0.00007   3.03630
   D12        0.90142  -0.00000   0.00012   0.00013   0.00025   0.90167
         Item               Value     Threshold  Converged?
 Maximum Force            0.000102     0.000450     YES
 RMS     Force            0.000027     0.000300     YES
 Maximum Displacement     0.002505     0.001800     NO 
 RMS     Displacement     0.000709     0.001200     YES
 Predicted change in Energy=-1.015615D-07
 GradGradGradGradGradGradGradGradGradGradGradGradGradGradGradGradGradGrad

                          Input orientation:                          
 ---------------------------------------------------------------------
 Center     Atomic      Atomic             Coordinates (Angstroms)
 Number     Number       Type             X           Y           Z
 ---------------------------------------------------------------------
      1          6           0       -1.362684   -0.260266   -0.062745
      2         16           0        0.033356    0.667906   -0.809735
      3          8           0       -0.035971    2.078598   -0.263835
      4          6           0        1.371334   -0.191453    0.106638
      5          1           0       -1.337149   -0.131816    1.020374
      6          1           0       -2.276118    0.174403   -0.467539
      7          1           0       -1.294132   -1.313419   -0.341842
      8          1           0        2.304786    0.289700   -0.183735
      9          1           0        1.390599   -1.245846   -0.175513
     10          1           0        1.205980   -0.067808    1.177931
 ---------------------------------------------------------------------
                    Distance matrix (angstroms):
                    1          2          3          4          5
     1  C    0.000000
     2  S    1.835327   0.000000
     3  O    2.696459   1.514221   0.000000
     4  C    2.740124   1.835327   2.696459   0.000000
     5  H    1.091008   2.422218   2.868482   2.859083   0.000000
     6  H    1.089568   2.386276   2.947154   3.710450   1.785866
     7  H    1.091662   2.430390   3.618678   2.926542   1.803793
     8  H    3.710450   2.386276   2.947154   1.089568   3.858918
     9  H    2.926543   2.430390   3.618678   1.091662   3.179909
    10  H    2.859082   2.422218   2.868482   1.091008   2.548810
                    6          7          8          9         10
     6  H    0.000000
     7  H    1.787095   0.000000
     8  H    4.591135   3.942994   0.000000
     9  H    3.942994   2.690727   1.787095   0.000000
    10  H    3.858918   3.179909   1.785866   1.803793   0.000000
 Stoichiometry    C2H6OS
 Framework group  C1[X(C2H6OS)]
 Deg. of freedom    24
 Full point group                 C1      NOp   1
 Largest Abelian subgroup         C1      NOp   1
 Largest concise Abelian subgroup C1      NOp   1
                         Standard orientation:                         
 ---------------------------------------------------------------------
 Center     Atomic      Atomic             Coordinates (Angstroms)
 Number     Number       Type             X           Y           Z
 ---------------------------------------------------------------------
      1          6           0       -1.370062   -0.813272    0.184788
      2         16           0        0.000000    0.233815   -0.443673
      3          8           0       -0.000000    1.500448    0.386090
      4          6           0        1.370062   -0.813272    0.184788
      5          1           0       -1.274405   -0.913715    1.266942
      6          1           0       -2.295568   -0.293118   -0.060237
      7          1           0       -1.345363   -1.785846   -0.310404
      8          1           0        2.295568   -0.293118   -0.060237
      9          1           0        1.345363   -1.785846   -0.310404
     10          1           0        1.274405   -0.913715    1.266942
 ---------------------------------------------------------------------
 Rotational constants (GHZ):           6.7963322           6.6979275           4.0725411
 Standard basis: 6-311++G(d,p) (5D, 7F)
 There are   142 symmetry adapted cartesian basis functions of A   symmetry.
 There are   138 symmetry adapted basis functions of A   symmetry.
   138 basis functions,   212 primitive gaussians,   142 cartesian basis functions
    21 alpha electrons       21 beta electrons
       nuclear repulsion energy       181.8371779554 Hartrees.
 NAtoms=   10 NActive=   10 NUniq=   10 SFac= 1.00D+00 NAtFMM=   60 NAOKFM=F Big=F
 Integral buffers will be    131072 words long.
 Raffenetti 2 integral format.
 Two-electron integral symmetry is turned on.
 One-electron integrals computed using PRISM.
 NBasis=   138 RedAO= T EigKep=  1.15D-04  NBF=   138
 NBsUse=   138 1.00D-06 EigRej= -1.00D+00 NBFU=   138
 Initial guess from the checkpoint file:  "CS(=O)C.chk"
 B after Tr=    -0.000000    0.000000    0.000000
         Rot=    1.000000   -0.000054   -0.000000    0.000000 Ang=  -0.01 deg.
 Keep R1 ints in memory in canonical form, NReq=53745969.
 Requested convergence on RMS density matrix=1.00D-08 within 128 cycles.
 Requested convergence on MAX density matrix=1.00D-06.
 Requested convergence on             energy=1.00D-06.
 No special actions if energy rises.
 SCF Done:  E(RB3LYP) =  -553.267947821     A.U. after    6 cycles
            NFock=  6  Conv=0.82D-08     -V/T= 2.0021
 Calling FoFJK, ICntrl=      2127 FMM=F ISym2X=0 I1Cent= 0 IOpClX= 0 NMat=1 NMatS=1 NMatT=0.
 ***** Axes restored to original set *****
 -------------------------------------------------------------------
 Center     Atomic                   Forces (Hartrees/Bohr)
 Number     Number              X              Y              Z
 -------------------------------------------------------------------
      1        6          -0.000011236   -0.000010667   -0.000003389
      2       16          -0.000000160    0.000025808   -0.000007940
      3        8           0.000000220   -0.000012501    0.000001529
      4        6           0.000012092   -0.000010079   -0.000001944
      5        1           0.000000875    0.000004901    0.000000308
      6        1          -0.000000240   -0.000001305    0.000002188
      7        1          -0.000000389    0.000000142    0.000003420
      8        1           0.000000033   -0.000001299    0.000002206
      9        1          -0.000000044    0.000000151    0.000003441
     10        1          -0.000001152    0.000004850    0.000000181
 -------------------------------------------------------------------
 Cartesian Forces:  Max     0.000025808 RMS     0.000007018

 GradGradGradGradGradGradGradGradGradGradGradGradGradGradGradGradGradGrad
 Berny optimization.
 Using GEDIIS/GDIIS optimizer.
 FormGI is forming the generalized inverse of G from B-inverse, IUseBI=4.
 Internal  Forces:  Max     0.000012827 RMS     0.000004489
 Search for a local minimum.
 Step number   6 out of a maximum of   46
 All quantities printed in internal units (Hartrees-Bohrs-Radians)
 Mixed Optimization -- En-DIIS/RFO-DIIS
 Swapping is turned off.
 Update second derivatives using D2CorX and points    1    2    3    4    5
                                                      6
 DE= -1.04D-07 DEPred=-1.02D-07 R= 1.02D+00
 Trust test= 1.02D+00 RLast= 1.71D-03 DXMaxT set to 3.00D-01
 ITU=  0  1  1  1  1  0
     Eigenvalues ---    0.00250   0.00264   0.06001   0.07198   0.07247
     Eigenvalues ---    0.07656   0.08717   0.12297   0.12664   0.14957
     Eigenvalues ---    0.16000   0.16000   0.16000   0.16574   0.22817
     Eigenvalues ---    0.25411   0.27142   0.34386   0.34512   0.34520
     Eigenvalues ---    0.34529   0.34653   0.34940   0.70776
 En-DIIS/RFO-DIIS/Sim-DIIS IScMMF=       -3 using points:     6    5    4    3
 RFO step:  Lambda=-1.79773852D-08.
 DidBck=F Rises=F RFO-DIIS coefs:    0.90244    0.22995   -0.09732   -0.03507
 Iteration  1 RMS(Cart)=  0.00033524 RMS(Int)=  0.00000023
 Iteration  2 RMS(Cart)=  0.00000007 RMS(Int)=  0.00000022
 Variable       Old X    -DE/DX   Delta X   Delta X   Delta X     New X
                                 (Linear)    (Quad)   (Total)
    R1        3.46827   0.00001  -0.00008   0.00015   0.00007   3.46833
    R2        2.06171   0.00000   0.00001  -0.00000   0.00000   2.06171
    R3        2.05898  -0.00000   0.00000  -0.00001  -0.00001   2.05897
    R4        2.06294  -0.00000  -0.00001   0.00001  -0.00001   2.06294
    R5        2.86146  -0.00001  -0.00006   0.00005  -0.00000   2.86146
    R6        3.46827   0.00001  -0.00008   0.00015   0.00007   3.46833
    R7        2.05898  -0.00000   0.00000  -0.00001  -0.00001   2.05897
    R8        2.06294  -0.00000  -0.00001   0.00001  -0.00001   2.06294
    R9        2.06171   0.00000   0.00001  -0.00000   0.00000   2.06171
    A1        1.90363  -0.00001  -0.00006  -0.00007  -0.00013   1.90350
    A2        1.85951   0.00000   0.00020  -0.00015   0.00005   1.85956
    A3        1.91353   0.00000  -0.00001   0.00006   0.00005   1.91358
    A4        1.91929  -0.00000  -0.00002   0.00001  -0.00001   1.91928
    A5        1.94543   0.00000  -0.00008   0.00009   0.00001   1.94543
    A6        1.92040  -0.00000  -0.00002   0.00005   0.00003   1.92043
    A7        1.86460  -0.00000   0.00001  -0.00005  -0.00004   1.86456
    A8        1.68556   0.00000   0.00000  -0.00005  -0.00005   1.68551
    A9        1.86460  -0.00000   0.00001  -0.00005  -0.00004   1.86456
   A10        1.85951   0.00000   0.00020  -0.00015   0.00005   1.85956
   A11        1.91353   0.00000  -0.00001   0.00006   0.00005   1.91358
   A12        1.90363  -0.00001  -0.00006  -0.00007  -0.00013   1.90350
   A13        1.92040  -0.00000  -0.00002   0.00005   0.00003   1.92043
   A14        1.91929  -0.00000  -0.00002   0.00001  -0.00001   1.91928
   A15        1.94543   0.00000  -0.00008   0.00009   0.00001   1.94543
    D1       -0.90167   0.00000   0.00045   0.00013   0.00058  -0.90109
    D2        1.01544   0.00000   0.00046   0.00005   0.00051   1.01595
    D3        1.16931   0.00000   0.00051   0.00002   0.00053   1.16984
    D4        3.08642  -0.00000   0.00052  -0.00006   0.00046   3.08688
    D5       -3.03630   0.00000   0.00060   0.00002   0.00062  -3.03568
    D6       -1.11919   0.00000   0.00061  -0.00006   0.00055  -1.11864
    D7       -3.08642   0.00000  -0.00052   0.00006  -0.00046  -3.08688
    D8        1.11919  -0.00000  -0.00061   0.00006  -0.00055   1.11864
    D9       -1.01544  -0.00000  -0.00046  -0.00005  -0.00051  -1.01595
   D10       -1.16931  -0.00000  -0.00051  -0.00002  -0.00053  -1.16984
   D11        3.03630  -0.00000  -0.00060  -0.00002  -0.00062   3.03568
   D12        0.90167  -0.00000  -0.00045  -0.00013  -0.00058   0.90109
         Item               Value     Threshold  Converged?
 Maximum Force            0.000013     0.000450     YES
 RMS     Force            0.000004     0.000300     YES
 Maximum Displacement     0.000953     0.001800     YES
 RMS     Displacement     0.000335     0.001200     YES
 Predicted change in Energy=-8.767746D-09
 Optimization completed.
    -- Stationary point found.
                           ----------------------------
                           !   Optimized Parameters   !
                           ! (Angstroms and Degrees)  !
 --------------------------                            --------------------------
 ! Name  Definition              Value          Derivative Info.                !
 --------------------------------------------------------------------------------
 ! R1    R(1,2)                  1.8353         -DE/DX =    0.0                 !
 ! R2    R(1,5)                  1.091          -DE/DX =    0.0                 !
 ! R3    R(1,6)                  1.0896         -DE/DX =    0.0                 !
 ! R4    R(1,7)                  1.0917         -DE/DX =    0.0                 !
 ! R5    R(2,3)                  1.5142         -DE/DX =    0.0                 !
 ! R6    R(2,4)                  1.8353         -DE/DX =    0.0                 !
 ! R7    R(4,8)                  1.0896         -DE/DX =    0.0                 !
 ! R8    R(4,9)                  1.0917         -DE/DX =    0.0                 !
 ! R9    R(4,10)                 1.091          -DE/DX =    0.0                 !
 ! A1    A(2,1,5)              109.0698         -DE/DX =    0.0                 !
 ! A2    A(2,1,6)              106.5423         -DE/DX =    0.0                 !
 ! A3    A(2,1,7)              109.6372         -DE/DX =    0.0                 !
 ! A4    A(5,1,6)              109.9673         -DE/DX =    0.0                 !
 ! A5    A(5,1,7)              111.4646         -DE/DX =    0.0                 !
 ! A6    A(6,1,7)              110.0308         -DE/DX =    0.0                 !
 ! A7    A(1,2,3)              106.8335         -DE/DX =    0.0                 !
 ! A8    A(1,2,4)               96.5753         -DE/DX =    0.0                 !
 ! A9    A(3,2,4)              106.8335         -DE/DX =    0.0                 !
 ! A10   A(2,4,8)              106.5423         -DE/DX =    0.0                 !
 ! A11   A(2,4,9)              109.6372         -DE/DX =    0.0                 !
 ! A12   A(2,4,10)             109.0698         -DE/DX =    0.0                 !
 ! A13   A(8,4,9)              110.0308         -DE/DX =    0.0                 !
 ! A14   A(8,4,10)             109.9673         -DE/DX =    0.0                 !
 ! A15   A(9,4,10)             111.4646         -DE/DX =    0.0                 !
 ! D1    D(5,1,2,3)            -51.662          -DE/DX =    0.0                 !
 ! D2    D(5,1,2,4)             58.1804         -DE/DX =    0.0                 !
 ! D3    D(6,1,2,3)             66.9966         -DE/DX =    0.0                 !
 ! D4    D(6,1,2,4)            176.839          -DE/DX =    0.0                 !
 ! D5    D(7,1,2,3)           -173.9673         -DE/DX =    0.0                 !
 ! D6    D(7,1,2,4)            -64.1249         -DE/DX =    0.0                 !
 ! D7    D(1,2,4,8)           -176.839          -DE/DX =    0.0                 !
 ! D8    D(1,2,4,9)             64.1249         -DE/DX =    0.0                 !
 ! D9    D(1,2,4,10)           -58.1804         -DE/DX =    0.0                 !
 ! D10   D(3,2,4,8)            -66.9966         -DE/DX =    0.0                 !
 ! D11   D(3,2,4,9)            173.9673         -DE/DX =    0.0                 !
 ! D12   D(3,2,4,10)            51.662          -DE/DX =    0.0                 !
 --------------------------------------------------------------------------------
 GradGradGradGradGradGradGradGradGradGradGradGradGradGradGradGradGradGrad

                          Input orientation:                          
 ---------------------------------------------------------------------
 Center     Atomic      Atomic             Coordinates (Angstroms)
 Number     Number       Type             X           Y           Z
 ---------------------------------------------------------------------
      1          6           0       -1.362684   -0.260266   -0.062745
      2         16           0        0.033356    0.667906   -0.809735
      3          8           0       -0.035971    2.078598   -0.263835
      4          6           0        1.371334   -0.191453    0.106638
      5          1           0       -1.337149   -0.131816    1.020374
      6          1           0       -2.276118    0.174403   -0.467539
      7          1           0       -1.294132   -1.313419   -0.341842
      8          1           0        2.304786    0.289700   -0.183735
      9          1           0        1.390599   -1.245846   -0.175513
     10          1           0        1.205980   -0.067808    1.177931
 ---------------------------------------------------------------------
                    Distance matrix (angstroms):
                    1          2          3          4          5
     1  C    0.000000
     2  S    1.835327   0.000000
     3  O    2.696459   1.514221   0.000000
     4  C    2.740124   1.835327   2.696459   0.000000
     5  H    1.091008   2.422218   2.868482   2.859083   0.000000
     6  H    1.089568   2.386276   2.947154   3.710450   1.785866
     7  H    1.091662   2.430390   3.618678   2.926542   1.803793
     8  H    3.710450   2.386276   2.947154   1.089568   3.858918
     9  H    2.926543   2.430390   3.618678   1.091662   3.179909
    10  H    2.859082   2.422218   2.868482   1.091008   2.548810
                    6          7          8          9         10
     6  H    0.000000
     7  H    1.787095   0.000000
     8  H    4.591135   3.942994   0.000000
     9  H    3.942994   2.690727   1.787095   0.000000
    10  H    3.858918   3.179909   1.785866   1.803793   0.000000
 Stoichiometry    C2H6OS
 Framework group  C1[X(C2H6OS)]
 Deg. of freedom    24
 Full point group                 C1      NOp   1
 Largest Abelian subgroup         C1      NOp   1
 Largest concise Abelian subgroup C1      NOp   1
                         Standard orientation:                         
 ---------------------------------------------------------------------
 Center     Atomic      Atomic             Coordinates (Angstroms)
 Number     Number       Type             X           Y           Z
 ---------------------------------------------------------------------
      1          6           0       -1.370062   -0.813272    0.184788
      2         16           0        0.000000    0.233815   -0.443673
      3          8           0       -0.000000    1.500448    0.386090
      4          6           0        1.370062   -0.813272    0.184788
      5          1           0       -1.274405   -0.913715    1.266942
      6          1           0       -2.295568   -0.293118   -0.060237
      7          1           0       -1.345363   -1.785846   -0.310404
      8          1           0        2.295568   -0.293118   -0.060237
      9          1           0        1.345363   -1.785846   -0.310404
     10          1           0        1.274405   -0.913715    1.266942
 ---------------------------------------------------------------------
 Rotational constants (GHZ):           6.7963322           6.6979275           4.0725411

 **********************************************************************

            Population analysis using the SCF Density.

 **********************************************************************

 Orbital symmetries:
       Occupied  (A) (A) (A) (A) (A) (A) (A) (A) (A) (A) (A) (A)
                 (A) (A) (A) (A) (A) (A) (A) (A) (A)
       Virtual   (A) (A) (A) (A) (A) (A) (A) (A) (A) (A) (A) (A)
                 (A) (A) (A) (A) (A) (A) (A) (A) (A) (A) (A) (A)
                 (A) (A) (A) (A) (A) (A) (A) (A) (A) (A) (A) (A)
                 (A) (A) (A) (A) (A) (A) (A) (A) (A) (A) (A) (A)
                 (A) (A) (A) (A) (A) (A) (A) (A) (A) (A) (A) (A)
                 (A) (A) (A) (A) (A) (A) (A) (A) (A) (A) (A) (A)
                 (A) (A) (A) (A) (A) (A) (A) (A) (A) (A) (A) (A)
                 (A) (A) (A) (A) (A) (A) (A) (A) (A) (A) (A) (A)
                 (A) (A) (A) (A) (A) (A) (A) (A) (A) (A) (A) (A)
                 (A) (A) (A) (A) (A) (A) (A) (A) (A)
 The electronic state is 1-A.
 Alpha  occ. eigenvalues --  -88.95640 -19.08339 -10.20736 -10.20735  -8.03314
 Alpha  occ. eigenvalues --   -5.99575  -5.99479  -5.98891  -1.01488  -0.80028
 Alpha  occ. eigenvalues --   -0.73175  -0.61530  -0.47757  -0.46770  -0.46734
 Alpha  occ. eigenvalues --   -0.43689  -0.41027  -0.40319  -0.36387  -0.27577
 Alpha  occ. eigenvalues --   -0.23845
 Alpha virt. eigenvalues --   -0.01714  -0.00465   0.01318   0.01894   0.02672
 Alpha virt. eigenvalues --    0.02781   0.03874   0.04660   0.05309   0.07320
 Alpha virt. eigenvalues --    0.07736   0.09057   0.10168   0.10930   0.11613
 Alpha virt. eigenvalues --    0.12246   0.12903   0.13679   0.14351   0.14428
 Alpha virt. eigenvalues --    0.15447   0.15671   0.16416   0.17980   0.20771
 Alpha virt. eigenvalues --    0.25528   0.26274   0.26303   0.28353   0.30199
 Alpha virt. eigenvalues --    0.31770   0.31917   0.34088   0.37940   0.38169
 Alpha virt. eigenvalues --    0.39460   0.46319   0.50839   0.51664   0.55034
 Alpha virt. eigenvalues --    0.61295   0.62644   0.62963   0.63547   0.67331
 Alpha virt. eigenvalues --    0.71451   0.71633   0.72587   0.75766   0.82012
 Alpha virt. eigenvalues --    0.84475   0.93298   0.94996   1.02867   1.06384
 Alpha virt. eigenvalues --    1.08597   1.08627   1.11709   1.15540   1.18882
 Alpha virt. eigenvalues --    1.19603   1.40709   1.41439   1.52814   1.53271
 Alpha virt. eigenvalues --    1.53564   1.56445   1.59178   1.59431   1.63770
 Alpha virt. eigenvalues --    1.66325   1.72079   1.72236   1.75681   1.85883
 Alpha virt. eigenvalues --    1.90582   1.91257   1.94623   2.00813   2.13454
 Alpha virt. eigenvalues --    2.15013   2.19177   2.21330   2.43310   2.43329
 Alpha virt. eigenvalues --    2.47329   2.48021   2.48576   2.49994   2.51453
 Alpha virt. eigenvalues --    2.55148   2.57609   2.67048   2.84594   2.86076
 Alpha virt. eigenvalues --    2.88198   2.95718   2.96137   2.97317   3.16816
 Alpha virt. eigenvalues --    3.22602   3.50811   3.71555   3.71719   3.72169
 Alpha virt. eigenvalues --    3.72384   5.04934   5.07237   5.15967   8.00214
 Alpha virt. eigenvalues --   17.34123  17.34378  17.38858  23.89375  23.89845
 Alpha virt. eigenvalues --   49.90188 189.14350
          Condensed to atoms (all electrons):
               1          2          3          4          5          6
     1  C    5.946062  -0.042117  -0.171080  -0.197670   0.368845   0.345164
     2  S   -0.042117  15.499897   0.181487  -0.042117  -0.035814  -0.045003
     3  O   -0.171080   0.181487   8.580144  -0.171080   0.008945   0.003890
     4  C   -0.197670  -0.042117  -0.171080   5.946062  -0.011399   0.035598
     5  H    0.368845  -0.035814   0.008945  -0.011399   0.541728  -0.021119
     6  H    0.345164  -0.045003   0.003890   0.035598  -0.021119   0.516099
     7  H    0.241664  -0.014823   0.017041   0.060322  -0.045574  -0.017639
     8  H    0.035598  -0.045003   0.003890   0.345164  -0.002813  -0.001889
     9  H    0.060322  -0.014823   0.017041   0.241664   0.004551  -0.005297
    10  H   -0.011399  -0.035814   0.008945   0.368845   0.005894  -0.002813
               7          8          9         10
     1  C    0.241664   0.035598   0.060322  -0.011399
     2  S   -0.014823  -0.045003  -0.014823  -0.035814
     3  O    0.017041   0.003890   0.017041   0.008945
     4  C    0.060322   0.345164   0.241664   0.368845
     5  H   -0.045574  -0.002813   0.004551   0.005894
     6  H   -0.017639  -0.001889  -0.005297  -0.002813
     7  H    0.642427  -0.005297  -0.020841   0.004551
     8  H   -0.005297   0.516099  -0.017639  -0.021119
     9  H   -0.020841  -0.017639   0.642427  -0.045574
    10  H    0.004551  -0.021119  -0.045574   0.541728
 Mulliken charges:
               1
     1  C   -0.575389
     2  S    0.594130
     3  O   -0.479223
     4  C   -0.575389
     5  H    0.186756
     6  H    0.193011
     7  H    0.138168
     8  H    0.193011
     9  H    0.138168
    10  H    0.186756
 Sum of Mulliken charges =  -0.00000
 Mulliken charges with hydrogens summed into heavy atoms:
               1
     1  C   -0.057454
     2  S    0.594130
     3  O   -0.479223
     4  C   -0.057454
 Electronic spatial extent (au):  <R**2>=            371.5683
 Charge=             -0.0000 electrons
 Dipole moment (field-independent basis, Debye):
    X=              0.0000    Y=             -4.3776    Z=             -0.7341  Tot=              4.4387
 Quadrupole moment (field-independent basis, Debye-Ang):
   XX=            -28.9662   YY=            -37.7828   ZZ=            -33.6999
   XY=              0.0000   XZ=              0.0000   YZ=             -1.9574
 Traceless Quadrupole moment (field-independent basis, Debye-Ang):
   XX=              4.5168   YY=             -4.2999   ZZ=             -0.2169
   XY=              0.0000   XZ=              0.0000   YZ=             -1.9574
 Octapole moment (field-independent basis, Debye-Ang**2):
  XXX=              0.0000  YYY=             -9.2206  ZZZ=              3.0213  XYY=              0.0000
  XXY=              1.3766  XXZ=             -1.4272  XZZ=             -0.0000  YZZ=             -0.6698
  YYZ=             -4.3542  XYZ=              0.0000
 Hexadecapole moment (field-independent basis, Debye-Ang**3):
 XXXX=           -216.2179 YYYY=           -213.2283 ZZZZ=            -78.0811 XXXY=              0.0000
 XXXZ=              0.0000 YYYX=              0.0000 YYYZ=              0.9498 ZZZX=             -0.0000
 ZZZY=             -2.1334 XXYY=            -73.0709 XXZZ=            -51.5898 YYZZ=            -46.6576
 XXYZ=             -0.0539 YYXZ=             -0.0000 ZZXY=             -0.0000
 N-N= 1.818371779554D+02 E-N=-1.672608749387D+03  KE= 5.520934084631D+02
 ******************************Gaussian NBO Version 3.1******************************
             N A T U R A L   A T O M I C   O R B I T A L   A N D
          N A T U R A L   B O N D   O R B I T A L   A N A L Y S I S
 ******************************Gaussian NBO Version 3.1******************************
       /RESON  / : Allow strongly delocalized NBO set

 Analyzing the SCF density

 Job title: CS(=O)C                                                         

 Storage needed:     57894 in NPA,     76720 in NBO (1258290600 available)
 GSVD:  LWork=        5930 too small for GESVD, short by       19587 words or       19587 for optimal perf.


 NATURAL POPULATIONS:  Natural atomic orbital occupancies 
                                                          
   NAO  Atom  No  lang   Type(AO)    Occupancy      Energy
 ----------------------------------------------------------
     1    C    1  S      Cor( 1S)     1.99926     -10.08274
     2    C    1  S      Val( 2S)     1.20524      -0.36907
     3    C    1  S      Ryd( 4S)     0.00159       0.87413
     4    C    1  S      Ryd( 3S)     0.00024       0.59426
     5    C    1  S      Ryd( 5S)     0.00000      23.21128
     6    C    1  px     Val( 2p)     1.15251      -0.16501
     7    C    1  px     Ryd( 4p)     0.00195       0.57884
     8    C    1  px     Ryd( 3p)     0.00050       0.32689
     9    C    1  px     Ryd( 5p)     0.00009       2.92396
    10    C    1  py     Val( 2p)     1.16958      -0.15230
    11    C    1  py     Ryd( 4p)     0.00163       0.54471
    12    C    1  py     Ryd( 3p)     0.00035       0.31414
    13    C    1  py     Ryd( 5p)     0.00007       2.98273
    14    C    1  pz     Val( 2p)     1.22075      -0.14590
    15    C    1  pz     Ryd( 4p)     0.00111       0.51823
    16    C    1  pz     Ryd( 3p)     0.00007       0.30440
    17    C    1  pz     Ryd( 5p)     0.00006       3.02001
    18    C    1  dxy    Ryd( 3d)     0.00089       1.95871
    19    C    1  dxz    Ryd( 3d)     0.00049       1.73653
    20    C    1  dyz    Ryd( 3d)     0.00065       1.90349
    21    C    1  dx2y2  Ryd( 3d)     0.00059       1.89932
    22    C    1  dz2    Ryd( 3d)     0.00100       2.13567
 
    23    S    2  S      Cor( 1S)     2.00000     -87.88534
    24    S    2  S      Cor( 2S)     1.99920      -8.88165
    25    S    2  S      Val( 3S)     1.50813      -0.67301
    26    S    2  S      Ryd( 5S)     0.02867       0.70334
    27    S    2  S      Ryd( 4S)     0.00029       0.49433
    28    S    2  S      Ryd( 6S)     0.00001      17.24141
    29    S    2  S      Ryd( 7S)     0.00000     179.30803
    30    S    2  px     Cor( 2p)     1.99994      -5.98683
    31    S    2  px     Val( 3p)     0.96757      -0.20246
    32    S    2  px     Ryd( 4p)     0.00349       0.66079
    33    S    2  px     Ryd( 6p)     0.00018       1.42041
    34    S    2  px     Ryd( 5p)     0.00014       0.74328
    35    S    2  px     Ryd( 7p)     0.00000      16.65289
    36    S    2  py     Cor( 2p)     1.99992      -5.98579
    37    S    2  py     Val( 3p)     0.80301      -0.17298
    38    S    2  py     Ryd( 4p)     0.00645       0.67286
    39    S    2  py     Ryd( 6p)     0.00203       1.38527
    40    S    2  py     Ryd( 5p)     0.00043       0.77497
    41    S    2  py     Ryd( 7p)     0.00000      16.66829
    42    S    2  pz     Cor( 2p)     1.99993      -5.98182
    43    S    2  pz     Val( 3p)     1.44160      -0.24203
    44    S    2  pz     Ryd( 5p)     0.00772       0.78281
    45    S    2  pz     Ryd( 6p)     0.00032       1.33668
    46    S    2  pz     Ryd( 4p)     0.00018       0.73607
    47    S    2  pz     Ryd( 7p)     0.00000      16.70459
    48    S    2  dxy    Ryd( 3d)     0.02812       0.89642
    49    S    2  dxz    Ryd( 3d)     0.00635       0.83979
    50    S    2  dyz    Ryd( 3d)     0.01499       0.95306
    51    S    2  dx2y2  Ryd( 3d)     0.00914       0.87205
    52    S    2  dz2    Ryd( 3d)     0.01573       0.80908
 
    53    O    3  S      Cor( 1S)     1.99986     -18.88027
    54    O    3  S      Val( 2S)     1.84945      -0.94868
    55    O    3  S      Ryd( 3S)     0.00205       1.08553
    56    O    3  S      Ryd( 4S)     0.00018       1.35210
    57    O    3  S      Ryd( 5S)     0.00000      49.58461
    58    O    3  px     Val( 2p)     1.81712      -0.26167
    59    O    3  px     Ryd( 3p)     0.00172       0.56763
    60    O    3  px     Ryd( 4p)     0.00010       1.16808
    61    O    3  px     Ryd( 5p)     0.00001       4.72793
    62    O    3  py     Val( 2p)     1.53350      -0.28435
    63    O    3  py     Ryd( 3p)     0.00333       0.69622
    64    O    3  py     Ryd( 4p)     0.00022       1.12664
    65    O    3  py     Ryd( 5p)     0.00006       4.84342
    66    O    3  pz     Val( 2p)     1.73736      -0.27213
    67    O    3  pz     Ryd( 3p)     0.00241       0.57779
    68    O    3  pz     Ryd( 4p)     0.00023       1.10649
    69    O    3  pz     Ryd( 5p)     0.00002       4.77744
    70    O    3  dxy    Ryd( 3d)     0.00090       2.93215
    71    O    3  dxz    Ryd( 3d)     0.00039       2.89558
    72    O    3  dyz    Ryd( 3d)     0.00109       3.23737
    73    O    3  dx2y2  Ryd( 3d)     0.00083       3.08915
    74    O    3  dz2    Ryd( 3d)     0.00075       2.92495
 
    75    C    4  S      Cor( 1S)     1.99926     -10.08274
    76    C    4  S      Val( 2S)     1.20524      -0.36907
    77    C    4  S      Ryd( 4S)     0.00159       0.87413
    78    C    4  S      Ryd( 3S)     0.00024       0.59426
    79    C    4  S      Ryd( 5S)     0.00000      23.21128
    80    C    4  px     Val( 2p)     1.15251      -0.16501
    81    C    4  px     Ryd( 4p)     0.00195       0.57884
    82    C    4  px     Ryd( 3p)     0.00050       0.32689
    83    C    4  px     Ryd( 5p)     0.00009       2.92396
    84    C    4  py     Val( 2p)     1.16958      -0.15230
    85    C    4  py     Ryd( 4p)     0.00163       0.54471
    86    C    4  py     Ryd( 3p)     0.00035       0.31414
    87    C    4  py     Ryd( 5p)     0.00007       2.98273
    88    C    4  pz     Val( 2p)     1.22075      -0.14590
    89    C    4  pz     Ryd( 4p)     0.00111       0.51823
    90    C    4  pz     Ryd( 3p)     0.00007       0.30440
    91    C    4  pz     Ryd( 5p)     0.00006       3.02001
    92    C    4  dxy    Ryd( 3d)     0.00089       1.95871
    93    C    4  dxz    Ryd( 3d)     0.00049       1.73653
    94    C    4  dyz    Ryd( 3d)     0.00065       1.90349
    95    C    4  dx2y2  Ryd( 3d)     0.00059       1.89932
    96    C    4  dz2    Ryd( 3d)     0.00100       2.13567
 
    97    H    5  S      Val( 1S)     0.77741       0.01122
    98    H    5  S      Ryd( 3S)     0.00123       0.65600
    99    H    5  S      Ryd( 4S)     0.00015       2.08426
   100    H    5  S      Ryd( 2S)     0.00008       0.21942
   101    H    5  px     Ryd( 2p)     0.00014       1.66826
   102    H    5  py     Ryd( 2p)     0.00011       1.70625
   103    H    5  pz     Ryd( 2p)     0.00037       2.61647
 
   104    H    6  S      Val( 1S)     0.77061       0.01786
   105    H    6  S      Ryd( 2S)     0.00081       0.51433
   106    H    6  S      Ryd( 3S)     0.00019       0.89821
   107    H    6  S      Ryd( 4S)     0.00012       1.50548
   108    H    6  px     Ryd( 2p)     0.00034       2.35632
   109    H    6  py     Ryd( 2p)     0.00019       1.87752
   110    H    6  pz     Ryd( 2p)     0.00009       1.73506
 
   111    H    7  S      Val( 1S)     0.78576      -0.00247
   112    H    7  S      Ryd( 2S)     0.00487       0.21142
   113    H    7  S      Ryd( 3S)     0.00055       0.37642
   114    H    7  S      Ryd( 4S)     0.00014       2.22984
   115    H    7  px     Ryd( 2p)     0.00016       1.66982
   116    H    7  py     Ryd( 2p)     0.00034       2.41654
   117    H    7  pz     Ryd( 2p)     0.00014       1.87693
 
   118    H    8  S      Val( 1S)     0.77061       0.01786
   119    H    8  S      Ryd( 2S)     0.00081       0.51433
   120    H    8  S      Ryd( 3S)     0.00019       0.89821
   121    H    8  S      Ryd( 4S)     0.00012       1.50548
   122    H    8  px     Ryd( 2p)     0.00034       2.35632
   123    H    8  py     Ryd( 2p)     0.00019       1.87752
   124    H    8  pz     Ryd( 2p)     0.00009       1.73506
 
   125    H    9  S      Val( 1S)     0.78576      -0.00247
   126    H    9  S      Ryd( 2S)     0.00487       0.21142
   127    H    9  S      Ryd( 3S)     0.00055       0.37642
   128    H    9  S      Ryd( 4S)     0.00014       2.22984
   129    H    9  px     Ryd( 2p)     0.00016       1.66982
   130    H    9  py     Ryd( 2p)     0.00034       2.41654
   131    H    9  pz     Ryd( 2p)     0.00014       1.87693
 
   132    H   10  S      Val( 1S)     0.77741       0.01122
   133    H   10  S      Ryd( 3S)     0.00123       0.65600
   134    H   10  S      Ryd( 4S)     0.00015       2.08426
   135    H   10  S      Ryd( 2S)     0.00008       0.21942
   136    H   10  px     Ryd( 2p)     0.00014       1.66826
   137    H   10  py     Ryd( 2p)     0.00011       1.70625
   138    H   10  pz     Ryd( 2p)     0.00037       2.61647

 WARNING:  Population inversion found on atom  C    1
           Population inversion found on atom  S    2
           Population inversion found on atom  C    4
           Population inversion found on atom  H    5
           Population inversion found on atom  H   10


 Summary of Natural Population Analysis:                  
                                                          
                                       Natural Population 
                Natural  -----------------------------------------------
    Atom  No    Charge         Core      Valence    Rydberg      Total
 -----------------------------------------------------------------------
      C    1   -0.75862      1.99926     4.74808    0.01129     6.75862
      S    2    1.15645      9.99899     4.72031    0.12425    14.84355
      O    3   -0.95160      1.99986     6.93743    0.01431     8.95160
      C    4   -0.75862      1.99926     4.74808    0.01129     6.75862
      H    5    0.22052      0.00000     0.77741    0.00207     0.77948
      H    6    0.22764      0.00000     0.77061    0.00175     0.77236
      H    7    0.20804      0.00000     0.78576    0.00620     0.79196
      H    8    0.22764      0.00000     0.77061    0.00175     0.77236
      H    9    0.20804      0.00000     0.78576    0.00620     0.79196
      H   10    0.22052      0.00000     0.77741    0.00207     0.77948
 =======================================================================
   * Total *   -0.00000     15.99736    25.82146    0.18118    42.00000

                                 Natural Population      
 --------------------------------------------------------
   Core                      15.99736 ( 99.9835% of  16)
   Valence                   25.82146 ( 99.3133% of  26)
   Natural Minimal Basis     41.81882 ( 99.5686% of  42)
   Natural Rydberg Basis      0.18118 (  0.4314% of  42)
 --------------------------------------------------------

    Atom  No          Natural Electron Configuration
 ----------------------------------------------------------------------------
      C    1      [core]2S( 1.21)2p( 3.54)
      S    2      [core]3S( 1.51)3p( 3.21)3d( 0.07)4p( 0.01)5S( 0.03)5p( 0.01)
      O    3      [core]2S( 1.85)2p( 5.09)3p( 0.01)
      C    4      [core]2S( 1.21)2p( 3.54)
      H    5            1S( 0.78)
      H    6            1S( 0.77)
      H    7            1S( 0.79)
      H    8            1S( 0.77)
      H    9            1S( 0.79)
      H   10            1S( 0.78)


 NATURAL BOND ORBITAL ANALYSIS:

                       Occupancies       Lewis Structure    Low   High
           Occ.    -------------------  -----------------   occ   occ
  Cycle   Thresh.   Lewis   Non-Lewis     CR  BD  3C  LP    (L)   (NL)   Dev
 =============================================================================
   1(1)    1.90    40.60786   1.39214      8  10   0   3     2      3    0.92
   2(2)    1.90    40.60786   1.39214      8  10   0   3     2      3    0.92
   3(1)    1.80    41.59167   0.40833      8   9   0   4     0      2    0.24
   4(2)    1.80    41.59167   0.40833      8   9   0   4     0      2    0.24
   5(1)    1.70    41.59167   0.40833      8   9   0   4     0      2    0.24
   6(2)    1.70    41.59167   0.40833      8   9   0   4     0      2    0.24
   7(1)    1.60    41.59167   0.40833      8   9   0   4     0      2    0.24
   8(2)    1.60    41.59167   0.40833      8   9   0   4     0      2    0.24
   9(1)    1.50    41.59167   0.40833      8   9   0   4     0      2    0.24
  10(2)    1.50    41.59167   0.40833      8   9   0   4     0      2    0.24
  11(1)    1.80    41.59167   0.40833      8   9   0   4     0      2    0.24
 -----------------------------------------------------------------------------

 Structure accepted: RESONANCE keyword permits strongly delocalized structure

 --------------------------------------------------------
   Core                     15.99735 ( 99.983% of  16)
   Valence Lewis            25.59431 ( 98.440% of  26)
  ==================       ============================
   Total Lewis              41.59167 ( 99.028% of  42)
  -----------------------------------------------------
   Valence non-Lewis         0.29377 (  0.699% of  42)
   Rydberg non-Lewis         0.11456 (  0.273% of  42)
  ==================       ============================
   Total non-Lewis           0.40833 (  0.972% of  42)
 --------------------------------------------------------


       (Occupancy)   Bond orbital/ Coefficients/ Hybrids
 ---------------------------------------------------------------------------------
     1. (1.98661) BD ( 1) C   1 - S   2  
                ( 51.96%)   0.7208* C   1 s( 20.68%)p 3.83( 79.24%)d 0.00(  0.09%)
                                            0.0001  0.4547 -0.0016 -0.0062 -0.0007
                                            0.6788  0.0141 -0.0123 -0.0055  0.4914
                                           -0.0114 -0.0043 -0.0043 -0.2993  0.0018
                                            0.0014  0.0021  0.0212 -0.0131 -0.0092
                                            0.0070 -0.0099
                ( 48.04%)   0.6931* S   2 s( 15.04%)p 5.58( 83.96%)d 0.07(  1.00%)
                                           -0.0000  0.0001  0.3846 -0.0489  0.0061
                                            0.0010 -0.0000  0.0000 -0.7013 -0.0320
                                            0.0058  0.0014 -0.0001 -0.0000 -0.4741
                                           -0.0184  0.0124  0.0021 -0.0005  0.0000
                                            0.3476 -0.0240 -0.0024 -0.0021  0.0003
                                            0.0719 -0.0433 -0.0462  0.0124 -0.0253
     2. (1.99421) BD ( 1) C   1 - H   5  
                ( 61.37%)   0.7834* C   1 s( 26.84%)p 2.72( 73.10%)d 0.00(  0.06%)
                                            0.0001  0.5180  0.0003  0.0024  0.0002
                                            0.0860  0.0103  0.0030 -0.0007 -0.0822
                                            0.0020  0.0001 -0.0018  0.8466 -0.0035
                                            0.0036  0.0029  0.0005  0.0064 -0.0028
                                            0.0001  0.0230
                ( 38.63%)   0.6215* H   5 s( 99.96%)p 0.00(  0.04%)
                                            0.9998  0.0032  0.0004  0.0001  0.0008
                                            0.0015 -0.0204
     3. (1.99186) BD ( 1) C   1 - H   6  
                ( 61.48%)   0.7841* C   1 s( 26.03%)p 2.84( 73.91%)d 0.00(  0.06%)
                                            0.0000  0.5102  0.0034  0.0030  0.0003
                                           -0.7276  0.0037 -0.0030 -0.0026  0.4128
                                            0.0047  0.0042  0.0002 -0.1981 -0.0055
                                           -0.0011 -0.0009 -0.0173  0.0095 -0.0068
                                            0.0076 -0.0107
                ( 38.52%)   0.6206* H   6 s( 99.96%)p 0.00(  0.04%)
                                            0.9998  0.0010  0.0001  0.0005  0.0184
                                           -0.0085  0.0027
     4. (1.99001) BD ( 1) C   1 - H   7  
                ( 60.76%)   0.7795* C   1 s( 26.42%)p 2.78( 73.52%)d 0.00(  0.06%)
                                           -0.0001  0.5140  0.0013  0.0014  0.0000
                                            0.0348  0.0107  0.0006  0.0002 -0.7617
                                            0.0102 -0.0022 -0.0011 -0.3919 -0.0005
                                           -0.0005 -0.0008 -0.0032 -0.0033  0.0185
                                           -0.0150 -0.0034
                ( 39.24%)   0.6264* H   7 s( 99.95%)p 0.00(  0.05%)
                                            0.9998 -0.0044  0.0009  0.0003  0.0034
                                            0.0196  0.0081
     5. (1.99167) BD ( 1) S   2 - O   3  
                ( 37.97%)   0.6162* S   2 s( 20.35%)p 3.85( 78.40%)d 0.06(  1.24%)
                                           -0.0000  0.0002  0.4366 -0.1133 -0.0096
                                           -0.0005 -0.0000  0.0000 -0.0000 -0.0000
                                           -0.0000 -0.0000  0.0000 -0.0001  0.7230
                                            0.0685  0.0219  0.0012 -0.0013 -0.0000
                                            0.5059  0.0129  0.0031 -0.0031 -0.0006
                                           -0.0000 -0.0000  0.0940 -0.0597  0.0055
                ( 62.03%)   0.7876* O   3 s( 19.31%)p 4.17( 80.58%)d 0.01(  0.11%)
                                            0.0000  0.4378 -0.0375 -0.0015 -0.0000
                                            0.0000 -0.0000 -0.0000 -0.0000 -0.7453
                                            0.0401  0.0099  0.0015 -0.4981  0.0229
                                           -0.0001 -0.0002 -0.0000 -0.0000  0.0260
                                           -0.0206 -0.0030
     6. (1.98661) BD ( 1) S   2 - C   4  
                ( 48.04%)   0.6931* S   2 s( 15.04%)p 5.58( 83.96%)d 0.07(  1.00%)
                                           -0.0000  0.0001  0.3846 -0.0489  0.0061
                                            0.0010 -0.0000 -0.0000  0.7013  0.0320
                                           -0.0058 -0.0014  0.0001 -0.0000 -0.4741
                                           -0.0184  0.0124  0.0021 -0.0005  0.0000
                                            0.3476 -0.0240 -0.0024 -0.0021  0.0003
                                           -0.0719  0.0433 -0.0462  0.0124 -0.0253
                ( 51.96%)   0.7208* C   4 s( 20.68%)p 3.83( 79.24%)d 0.00(  0.09%)
                                            0.0001  0.4547 -0.0016 -0.0062 -0.0007
                                           -0.6788 -0.0141  0.0123  0.0055  0.4914
                                           -0.0114 -0.0043 -0.0043 -0.2993  0.0018
                                            0.0014  0.0021 -0.0212  0.0131 -0.0092
                                            0.0070 -0.0099
     7. (1.99186) BD ( 1) C   4 - H   8  
                ( 61.48%)   0.7841* C   4 s( 26.03%)p 2.84( 73.91%)d 0.00(  0.06%)
                                            0.0000  0.5102  0.0034  0.0030  0.0003
                                            0.7276 -0.0037  0.0030  0.0026  0.4128
                                            0.0047  0.0042  0.0002 -0.1981 -0.0055
                                           -0.0011 -0.0009  0.0173 -0.0095 -0.0068
                                            0.0076 -0.0107
                ( 38.52%)   0.6206* H   8 s( 99.96%)p 0.00(  0.04%)
                                            0.9998  0.0010  0.0001  0.0005 -0.0184
                                           -0.0085  0.0027
     8. (1.99001) BD ( 1) C   4 - H   9  
                ( 60.76%)   0.7795* C   4 s( 26.42%)p 2.78( 73.52%)d 0.00(  0.06%)
                                           -0.0001  0.5140  0.0013  0.0014  0.0000
                                           -0.0348 -0.0107 -0.0006 -0.0002 -0.7617
                                            0.0102 -0.0022 -0.0011 -0.3919 -0.0005
                                           -0.0005 -0.0008  0.0032  0.0033  0.0185
                                           -0.0150 -0.0034
                ( 39.24%)   0.6264* H   9 s( 99.95%)p 0.00(  0.05%)
                                            0.9998 -0.0044  0.0009  0.0003 -0.0034
                                            0.0196  0.0081
     9. (1.99421) BD ( 1) C   4 - H  10  
                ( 61.37%)   0.7834* C   4 s( 26.84%)p 2.72( 73.10%)d 0.00(  0.06%)
                                            0.0001  0.5180  0.0003  0.0024  0.0002
                                           -0.0860 -0.0103 -0.0030  0.0007 -0.0822
                                            0.0020  0.0001 -0.0018  0.8466 -0.0035
                                            0.0036  0.0029 -0.0005 -0.0064 -0.0028
                                            0.0001  0.0230
                ( 38.63%)   0.6215* H  10 s( 99.96%)p 0.00(  0.04%)
                                            0.9998  0.0032  0.0004  0.0001 -0.0008
                                            0.0015 -0.0204
    10. (1.99925) CR ( 1) C   1           s(100.00%)p 0.00(  0.00%)
                                            1.0000 -0.0001  0.0000  0.0000  0.0000
                                           -0.0001 -0.0000  0.0000  0.0000 -0.0001
                                            0.0000  0.0000  0.0000 -0.0000  0.0000
                                           -0.0000 -0.0000 -0.0000  0.0000  0.0000
                                           -0.0000 -0.0000
    11. (2.00000) CR ( 1) S   2           s(100.00%)
                                            1.0000  0.0000  0.0000  0.0000 -0.0000
                                           -0.0000  0.0000  0.0000  0.0000  0.0000
                                           -0.0000 -0.0000  0.0000  0.0000  0.0000
                                            0.0000  0.0000  0.0000 -0.0000  0.0000
                                           -0.0000  0.0000 -0.0000 -0.0000  0.0000
                                           -0.0000  0.0000  0.0000  0.0000 -0.0000
    12. (1.99920) CR ( 2) S   2           s(100.00%)
                                            0.0000  1.0000 -0.0002  0.0000  0.0000
                                           -0.0000  0.0000 -0.0000  0.0000  0.0000
                                            0.0000  0.0000 -0.0000  0.0000 -0.0001
                                           -0.0000 -0.0000 -0.0000  0.0000 -0.0000
                                           -0.0000 -0.0000 -0.0000  0.0000  0.0000
                                           -0.0000  0.0000 -0.0000  0.0000  0.0000
    13. (1.99994) CR ( 3) S   2           s(  0.00%)p 1.00(100.00%)
                                            0.0000 -0.0000  0.0000  0.0000 -0.0000
                                           -0.0000  0.0000  1.0000  0.0001  0.0000
                                           -0.0000 -0.0000  0.0000  0.0000  0.0000
                                            0.0000 -0.0000  0.0000  0.0000  0.0000
                                           -0.0000  0.0000 -0.0000  0.0000  0.0000
                                           -0.0000  0.0000  0.0000  0.0000  0.0000
    14. (1.99992) CR ( 4) S   2           s(  0.00%)p 1.00(100.00%)
                                            0.0000  0.0000  0.0000 -0.0000 -0.0000
                                            0.0000 -0.0000  0.0000 -0.0000 -0.0000
                                           -0.0000  0.0000  0.0000  1.0000  0.0000
                                            0.0000  0.0000 -0.0000 -0.0000 -0.0000
                                            0.0001 -0.0000  0.0000 -0.0000 -0.0000
                                           -0.0000 -0.0000  0.0000 -0.0000 -0.0000
    15. (1.99993) CR ( 5) S   2           s(  0.00%)p 1.00(100.00%)
                                            0.0000 -0.0000 -0.0000 -0.0000 -0.0000
                                           -0.0000 -0.0000  0.0000  0.0000  0.0000
                                           -0.0000  0.0000  0.0000 -0.0000  0.0000
                                            0.0000 -0.0000 -0.0000  0.0000  1.0000
                                            0.0000 -0.0000  0.0000  0.0000 -0.0000
                                           -0.0000  0.0000  0.0000 -0.0000  0.0000
    16. (1.99986) CR ( 1) O   3           s(100.00%)p 0.00(  0.00%)
                                            1.0000  0.0001  0.0000  0.0000  0.0000
                                           -0.0000  0.0000  0.0000  0.0000  0.0002
                                            0.0000 -0.0000  0.0000 -0.0001 -0.0000
                                           -0.0000  0.0000  0.0000 -0.0000  0.0000
                                            0.0000  0.0000
    17. (1.99925) CR ( 1) C   4           s(100.00%)p 0.00(  0.00%)
                                            1.0000 -0.0001  0.0000  0.0000  0.0000
                                            0.0001  0.0000 -0.0000 -0.0000 -0.0001
                                            0.0000  0.0000  0.0000 -0.0000  0.0000
                                           -0.0000 -0.0000  0.0000 -0.0000  0.0000
                                           -0.0000 -0.0000
    18. (1.97341) LP ( 1) S   2           s( 51.26%)p 0.95( 48.71%)d 0.00(  0.03%)
                                           -0.0000  0.0001  0.7139  0.0551 -0.0012
                                           -0.0005  0.0000 -0.0000  0.0000 -0.0000
                                           -0.0000 -0.0000  0.0000  0.0000  0.0623
                                            0.0083 -0.0038  0.0113 -0.0002  0.0000
                                           -0.6934  0.0469 -0.0008 -0.0004  0.0003
                                            0.0000 -0.0000  0.0020  0.0161  0.0038
    19. (1.99436) LP ( 1) O   3           s( 79.91%)p 0.25( 20.09%)d 0.00(  0.00%)
                                           -0.0001  0.8938  0.0112  0.0002 -0.0000
                                           -0.0000  0.0000  0.0000 -0.0000  0.3028
                                           -0.0134 -0.0025  0.0046  0.3302 -0.0052
                                           -0.0000  0.0029  0.0000  0.0000 -0.0039
                                            0.0014 -0.0021
    20. (1.89076) LP ( 2) O   3           s(  0.92%)p99.99( 99.02%)d 0.07(  0.06%)
                                           -0.0002  0.0956  0.0005  0.0040  0.0001
                                            0.0000  0.0000 -0.0000  0.0000  0.5909
                                            0.0093 -0.0003 -0.0001 -0.8004 -0.0173
                                           -0.0053  0.0002  0.0000 -0.0000  0.0102
                                            0.0123  0.0190
    21. (1.81873) LP ( 3) O   3           s(  0.00%)p 1.00( 99.93%)d 0.00(  0.07%)
                                            0.0000 -0.0000  0.0000  0.0000  0.0000
                                            0.9996  0.0141  0.0011 -0.0017  0.0000
                                            0.0000  0.0000 -0.0000  0.0000  0.0000
                                            0.0000 -0.0000 -0.0218 -0.0145 -0.0000
                                            0.0000 -0.0000
    22. (0.00272) RY*( 1) C   1           s( 34.58%)p 1.77( 61.13%)d 0.12(  4.30%)
                                           -0.0000  0.0101  0.5855  0.0528 -0.0103
                                            0.0076 -0.5577 -0.1011 -0.0298  0.0008
                                            0.1987  0.1279  0.0211  0.0039  0.4671
                                            0.1209 -0.0060  0.0505  0.1134  0.0765
                                            0.0567 -0.1360
    23. (0.00213) RY*( 2) C   1           s( 29.70%)p 2.14( 63.46%)d 0.23(  6.84%)
                                            0.0000 -0.0044  0.5251 -0.1451  0.0115
                                           -0.0099  0.2167 -0.1907 -0.0087 -0.0129
                                           -0.6927 -0.1356  0.0379  0.0064 -0.2121
                                            0.0502 -0.0611  0.0938  0.0536  0.0596
                                            0.1323 -0.1889
    24. (0.00103) RY*( 3) C   1           s(  7.89%)p11.05( 87.23%)d 0.62(  4.87%)
                                            0.0000  0.0085  0.0822  0.2682 -0.0125
                                            0.0056 -0.4654  0.4021 -0.1657 -0.0022
                                           -0.2349  0.3331 -0.1612 -0.0072 -0.5050
                                           -0.0295  0.1355  0.0423 -0.1157 -0.1444
                                           -0.0526  0.0997
    25. (0.00044) RY*( 4) C   1           s(  5.09%)p10.98( 55.87%)d 7.68( 39.05%)
                                            0.0000  0.0006 -0.0857  0.2086  0.0053
                                           -0.0131  0.1709  0.0495  0.1214  0.0026
                                           -0.4056  0.2660 -0.0986 -0.0022  0.5054
                                            0.0280  0.1041  0.2253 -0.0123 -0.1637
                                           -0.5509  0.0963
    26. (0.00016) RY*( 5) C   1           s( 10.50%)p 7.34( 77.14%)d 1.18( 12.36%)
                                            0.0000 -0.0131  0.3231 -0.0047 -0.0218
                                            0.0011  0.4476 -0.2678 -0.2082 -0.0042
                                            0.2900  0.5192 -0.1788  0.0001 -0.0736
                                           -0.0282  0.2531 -0.1531 -0.2411 -0.1804
                                            0.0725  0.0651
    27. (0.00012) RY*( 6) C   1           s( 17.69%)p 2.09( 37.05%)d 2.56( 45.26%)
                                           -0.0000 -0.0077  0.3214  0.2708  0.0140
                                            0.0100  0.2996  0.2417  0.0784  0.0188
                                            0.3374 -0.0760 -0.0075 -0.0023 -0.2825
                                            0.0419 -0.1203  0.1235  0.4476  0.2356
                                           -0.4205 -0.0684
    28. (0.00009) RY*( 7) C   1           s( 15.56%)p 3.74( 58.18%)d 1.69( 26.26%)
    29. (0.00001) RY*( 8) C   1           s( 15.18%)p 1.53( 23.23%)d 4.06( 61.59%)
    30. (0.00000) RY*( 9) C   1           s(  0.46%)p99.99( 99.26%)d 0.63(  0.29%)
    31. (0.00000) RY*(10) C   1           s(  0.17%)p99.99( 97.79%)d11.80(  2.03%)
    32. (0.00000) RY*(11) C   1           s(  0.67%)p99.99( 97.75%)d 2.36(  1.58%)
    33. (0.00000) RY*(12) C   1           s(  0.26%)p99.99( 98.54%)d 4.62(  1.20%)
    34. (0.00000) RY*(13) C   1           s(  2.50%)p 6.14( 15.35%)d32.87( 82.15%)
    35. (0.00000) RY*(14) C   1           s( 99.60%)p 0.00(  0.26%)d 0.00(  0.14%)
    36. (0.00001) RY*(15) C   1           s(  1.54%)p 9.13( 14.03%)d54.96( 84.43%)
    37. (0.00000) RY*(16) C   1           s( 56.36%)p 0.21( 11.64%)d 0.57( 32.00%)
    38. (0.00000) RY*(17) C   1           s(  2.29%)p 1.01(  2.32%)d41.57( 95.38%)
    39. (0.03484) RY*( 1) S   2           s( 20.69%)p 0.70( 14.50%)d 3.13( 64.80%)
                                            0.0000 -0.0000  0.0234  0.4542 -0.0074
                                            0.0049 -0.0003  0.0000  0.0000 -0.0000
                                            0.0000  0.0000  0.0000  0.0000 -0.0558
                                            0.2336 -0.1544 -0.0147  0.0020  0.0000
                                            0.0849  0.2311  0.0129  0.0497  0.0053
                                            0.0000 -0.0000  0.3674  0.2548  0.6695
    40. (0.03131) RY*( 2) S   2           s(  0.00%)p 1.00(  9.63%)d 9.39( 90.37%)
                                            0.0000 -0.0000 -0.0000 -0.0000  0.0000
                                            0.0000 -0.0000  0.0000  0.0992 -0.2853
                                            0.0553  0.0438  0.0068 -0.0000  0.0000
                                           -0.0000  0.0000  0.0000 -0.0000 -0.0000
                                           -0.0000 -0.0000  0.0000 -0.0000 -0.0000
                                            0.9359  0.1668 -0.0000 -0.0000 -0.0000
    41. (0.00468) RY*( 3) S   2           s(  0.91%)p13.86( 12.56%)d95.49( 86.53%)
                                            0.0000 -0.0000  0.0100  0.0700 -0.0634
                                            0.0066  0.0000 -0.0000 -0.0000  0.0000
                                           -0.0000  0.0000  0.0000  0.0000  0.1138
                                           -0.1850  0.1731  0.0859  0.0090 -0.0000
                                            0.0501  0.1587  0.1092  0.0357  0.0111
                                            0.0000  0.0000 -0.5954  0.7125  0.0568
    42. (0.00379) RY*( 4) S   2           s( 26.55%)p 0.92( 24.51%)d 1.84( 48.94%)
                                            0.0000 -0.0000  0.0331  0.5138 -0.0140
                                            0.0130  0.0001  0.0000 -0.0000 -0.0000
                                            0.0000 -0.0000  0.0000  0.0000  0.0539
                                           -0.3761 -0.1565  0.0866 -0.0091 -0.0000
                                            0.0781  0.2020 -0.1059  0.1028 -0.0023
                                           -0.0000  0.0000 -0.4317 -0.5397  0.1086
    43. (0.00248) RY*( 5) S   2           s( 11.10%)p 5.11( 56.67%)d 2.90( 32.23%)
                                            0.0000 -0.0000  0.0326  0.3290 -0.0341
                                            0.0217  0.0004  0.0000 -0.0000  0.0000
                                            0.0000 -0.0000  0.0000  0.0000  0.0476
                                           -0.4266 -0.3391  0.1542 -0.0091 -0.0000
                                            0.0432 -0.4031 -0.2754  0.0567 -0.0165
                                            0.0000  0.0000  0.3280  0.3355 -0.3196
    44. (0.00109) RY*( 6) S   2           s(  0.00%)p 1.00(  4.24%)d22.59( 95.76%)
                                           -0.0000  0.0000 -0.0000  0.0000 -0.0000
                                            0.0000 -0.0000 -0.0000 -0.0777  0.0503
                                           -0.1715 -0.0665  0.0008  0.0000 -0.0000
                                           -0.0000  0.0000 -0.0000 -0.0000  0.0000
                                           -0.0000  0.0000  0.0000 -0.0000  0.0000
                                           -0.1359  0.9691  0.0000 -0.0000  0.0000
    45. (0.00025) RY*( 7) S   2           s(  0.00%)p 1.00( 94.50%)d 0.06(  5.50%)
                                           -0.0000  0.0000 -0.0000 -0.0000  0.0000
                                           -0.0000 -0.0000 -0.0000 -0.0172  0.8764
                                            0.3166  0.2763  0.0079  0.0000 -0.0000
                                           -0.0000 -0.0000 -0.0000  0.0000  0.0000
                                           -0.0000  0.0000  0.0000  0.0000 -0.0000
                                            0.2266  0.0599  0.0000 -0.0000  0.0000
    46. (0.00025) RY*( 8) S   2           s( 47.11%)p 1.04( 49.19%)d 0.08(  3.69%)
                                            0.0000 -0.0000  0.0137  0.2398  0.6397
                                           -0.0646 -0.0001 -0.0000 -0.0000  0.0000
                                           -0.0000 -0.0000  0.0000  0.0000  0.0321
                                            0.2091  0.0992  0.2809 -0.0080 -0.0000
                                            0.0099 -0.4547  0.1754 -0.3470  0.0179
                                           -0.0000  0.0000 -0.1688 -0.0321  0.0860
    47. (0.00007) RY*( 9) S   2           s(  0.00%)p 1.00( 99.61%)d 0.00(  0.39%)
    48. (0.00008) RY*(10) S   2           s( 19.65%)p 3.19( 62.61%)d 0.90( 17.74%)
    49. (0.00001) RY*(11) S   2           s( 18.65%)p 3.83( 71.38%)d 0.53(  9.97%)
    50. (0.00000) RY*(12) S   2           s(  0.05%)p99.99( 99.90%)d 1.05(  0.05%)
    51. (0.00001) RY*(13) S   2           s( 40.50%)p 1.16( 47.06%)d 0.31( 12.45%)
    52. (0.00000) RY*(14) S   2           s(  5.92%)p14.82( 87.70%)d 1.08(  6.38%)
    53. (0.00000) RY*(15) S   2           s(  7.40%)p12.46( 92.26%)d 0.04(  0.33%)
    54. (0.00000) RY*(16) S   2           s(  0.01%)p99.99( 99.97%)d 0.77(  0.01%)
    55. (0.00000) RY*(17) S   2           s(  0.00%)p 1.00( 93.44%)d 0.07(  6.56%)
    56. (0.00000) RY*(18) S   2           s(100.00%)p 0.00(  0.00%)d 0.00(  0.00%)
    57. (0.00000) RY*(19) S   2           s(  0.00%)p 1.00( 99.99%)d 0.00(  0.01%)
    58. (0.00000) RY*(20) S   2           s( 99.68%)p 0.00(  0.27%)d 0.00(  0.05%)
    59. (0.00000) RY*(21) S   2           s(  0.09%)p99.99( 84.95%)d99.99( 14.96%)
    60. (0.00210) RY*( 1) O   3           s(  0.67%)p99.99( 95.84%)d 5.25(  3.50%)
                                            0.0000  0.0025  0.0304  0.0756  0.0013
                                            0.0000 -0.0000  0.0000 -0.0000 -0.0046
                                           -0.6608  0.0231 -0.0520 -0.0178  0.6792
                                           -0.2380  0.0136  0.0000 -0.0000  0.0428
                                            0.0948  0.1554
    61. (0.00149) RY*( 2) O   3           s(  0.00%)p 1.00( 97.05%)d 0.03(  2.95%)
                                           -0.0000  0.0000  0.0000  0.0000 -0.0000
                                           -0.0087  0.9550 -0.2401  0.0290 -0.0000
                                            0.0000 -0.0000 -0.0000 -0.0000  0.0000
                                           -0.0000  0.0000  0.1594  0.0638  0.0000
                                           -0.0000  0.0000
    62. (0.00040) RY*( 3) O   3           s( 56.10%)p 0.71( 39.96%)d 0.07(  3.94%)
                                           -0.0000 -0.0095 -0.5289  0.5303 -0.0040
                                           -0.0000 -0.0000 -0.0000 -0.0000  0.0411
                                            0.3280  0.3462  0.0219  0.0290  0.3390
                                            0.2297  0.0389 -0.0000 -0.0000  0.1779
                                           -0.0660  0.0584
    63. (0.00014) RY*( 4) O   3           s( 10.01%)p 8.42( 84.29%)d 0.57(  5.70%)
                                            0.0000  0.0072  0.1443  0.2815 -0.0037
                                            0.0000  0.0000 -0.0000 -0.0000 -0.0338
                                           -0.5010  0.4583  0.0647 -0.0202 -0.4104
                                            0.4527  0.0522  0.0000  0.0000 -0.1540
                                            0.1640  0.0797
    64. (0.00005) RY*( 5) O   3           s( 33.79%)p 1.70( 57.32%)d 0.26(  8.90%)
    65. (0.00002) RY*( 6) O   3           s(  0.00%)p 1.00( 97.62%)d 0.02(  2.38%)
    66. (0.00000) RY*( 7) O   3           s( 88.79%)p 0.12( 10.73%)d 0.01(  0.48%)
    67. (0.00000) RY*( 8) O   3           s( 99.97%)p 0.00(  0.03%)d 0.00(  0.00%)
    68. (0.00000) RY*( 9) O   3           s(  8.35%)p10.87( 90.78%)d 0.10(  0.87%)
    69. (0.00000) RY*(10) O   3           s(  0.00%)p 1.00(100.00%)d 0.00(  0.00%)
    70. (0.00001) RY*(11) O   3           s(  0.41%)p99.99( 99.07%)d 1.30(  0.53%)
    71. (0.00000) RY*(12) O   3           s(  0.64%)p99.99( 99.27%)d 0.15(  0.09%)
    72. (0.00000) RY*(13) O   3           s(  0.00%)p 1.00(  2.91%)d33.34( 97.09%)
    73. (0.00000) RY*(14) O   3           s(  0.00%)p 1.00(  2.49%)d39.12( 97.51%)
    74. (0.00000) RY*(15) O   3           s(  0.03%)p99.99( 11.75%)d99.99( 88.22%)
    75. (0.00000) RY*(16) O   3           s(  0.50%)p 8.06(  4.03%)d99.99( 95.47%)
    76. (0.00000) RY*(17) O   3           s(  0.62%)p11.66(  7.24%)d99.99( 92.14%)
    77. (0.00272) RY*( 1) C   4           s( 34.58%)p 1.77( 61.13%)d 0.12(  4.30%)
                                           -0.0000  0.0101  0.5855  0.0528 -0.0103
                                           -0.0076  0.5577  0.1011  0.0298  0.0008
                                            0.1987  0.1279  0.0211  0.0039  0.4671
                                            0.1209 -0.0060 -0.0505 -0.1134  0.0765
                                            0.0567 -0.1360
    78. (0.00213) RY*( 2) C   4           s( 29.70%)p 2.14( 63.46%)d 0.23(  6.84%)
                                            0.0000 -0.0044  0.5251 -0.1451  0.0115
                                            0.0099 -0.2167  0.1907  0.0087 -0.0129
                                           -0.6927 -0.1356  0.0379  0.0064 -0.2121
                                            0.0502 -0.0611 -0.0938 -0.0536  0.0596
                                            0.1323 -0.1889
    79. (0.00103) RY*( 3) C   4           s(  7.89%)p11.05( 87.23%)d 0.62(  4.87%)
                                            0.0000  0.0085  0.0822  0.2682 -0.0125
                                           -0.0056  0.4654 -0.4021  0.1657 -0.0022
                                           -0.2349  0.3331 -0.1612 -0.0072 -0.5050
                                           -0.0295  0.1355 -0.0423  0.1157 -0.1444
                                           -0.0526  0.0997
    80. (0.00044) RY*( 4) C   4           s(  5.09%)p10.98( 55.87%)d 7.68( 39.05%)
                                            0.0000  0.0006 -0.0857  0.2086  0.0053
                                            0.0131 -0.1709 -0.0495 -0.1214  0.0026
                                           -0.4056  0.2660 -0.0986 -0.0022  0.5054
                                            0.0280  0.1041 -0.2253  0.0123 -0.1637
                                           -0.5509  0.0963
    81. (0.00016) RY*( 5) C   4           s( 10.50%)p 7.34( 77.14%)d 1.18( 12.36%)
                                            0.0000 -0.0131  0.3231 -0.0047 -0.0218
                                           -0.0011 -0.4476  0.2678  0.2082 -0.0042
                                            0.2900  0.5192 -0.1788  0.0001 -0.0736
                                           -0.0282  0.2531  0.1531  0.2411 -0.1804
                                            0.0725  0.0651
    82. (0.00012) RY*( 6) C   4           s( 17.69%)p 2.09( 37.05%)d 2.56( 45.26%)
                                           -0.0000 -0.0077  0.3214  0.2708  0.0140
                                           -0.0100 -0.2996 -0.2417 -0.0784  0.0188
                                            0.3374 -0.0760 -0.0075 -0.0023 -0.2825
                                            0.0419 -0.1203 -0.1235 -0.4476  0.2356
                                           -0.4205 -0.0684
    83. (0.00009) RY*( 7) C   4           s( 15.56%)p 3.74( 58.18%)d 1.69( 26.26%)
    84. (0.00001) RY*( 8) C   4           s( 15.18%)p 1.53( 23.23%)d 4.06( 61.59%)
    85. (0.00000) RY*( 9) C   4           s(  0.46%)p99.99( 99.26%)d 0.63(  0.29%)
    86. (0.00000) RY*(10) C   4           s(  0.17%)p99.99( 97.79%)d11.80(  2.03%)
    87. (0.00000) RY*(11) C   4           s(  0.67%)p99.99( 97.75%)d 2.36(  1.58%)
    88. (0.00000) RY*(12) C   4           s(  0.26%)p99.99( 98.54%)d 4.62(  1.20%)
    89. (0.00000) RY*(13) C   4           s(  2.50%)p 6.14( 15.35%)d32.87( 82.15%)
    90. (0.00000) RY*(14) C   4           s( 99.60%)p 0.00(  0.26%)d 0.00(  0.14%)
    91. (0.00001) RY*(15) C   4           s(  1.54%)p 9.13( 14.03%)d54.96( 84.43%)
    92. (0.00000) RY*(16) C   4           s( 56.36%)p 0.21( 11.64%)d 0.57( 32.00%)
    93. (0.00000) RY*(17) C   4           s(  2.29%)p 1.01(  2.32%)d41.57( 95.38%)
    94. (0.00124) RY*( 1) H   5           s( 99.23%)p 0.01(  0.77%)
                                           -0.0037  0.9961  0.0029  0.0007  0.0373
                                            0.0776 -0.0173
    95. (0.00020) RY*( 2) H   5           s( 44.72%)p 1.24( 55.28%)
                                            0.0013 -0.0538  0.6614  0.0824  0.6176
                                            0.3956  0.1219
    96. (0.00012) RY*( 3) H   5           s( 52.17%)p 0.92( 47.83%)
                                            0.0044  0.0545  0.7121 -0.1075 -0.4952
                                           -0.4453  0.1866
    97. (0.00008) RY*( 4) H   5           s( 90.31%)p 0.11(  9.69%)
    98. (0.00008) RY*( 5) H   5           s(  0.88%)p99.99( 99.12%)
    99. (0.00003) RY*( 6) H   5           s( 12.73%)p 6.85( 87.27%)
   100. (0.00082) RY*( 1) H   6           s( 99.25%)p 0.01(  0.75%)
                                           -0.0016  0.9963  0.0010 -0.0002  0.0453
                                            0.0440  0.0590
   101. (0.00020) RY*( 2) H   6           s( 88.96%)p 0.12( 11.04%)
                                            0.0017 -0.0156  0.9340  0.1303  0.0533
                                            0.3260 -0.0360
   102. (0.00017) RY*( 3) H   6           s( 32.79%)p 2.05( 67.21%)
                                           -0.0010 -0.0298 -0.3293  0.4675  0.3956
                                            0.6590 -0.2851
   103. (0.00012) RY*( 4) H   6           s( 60.69%)p 0.65( 39.31%)
                                            0.0054  0.0510  0.0367  0.7765 -0.4469
                                           -0.3668 -0.2424
   104. (0.00007) RY*( 5) H   6           s( 10.37%)p 8.64( 89.63%)
   105. (0.00004) RY*( 6) H   6           s(  7.97%)p11.54( 92.03%)
   106. (0.00489) RY*( 1) H   7           s( 99.86%)p 0.00(  0.14%)
                                            0.0044  0.9993 -0.0009 -0.0003 -0.0268
                                           -0.0058  0.0263
   107. (0.00055) RY*( 2) H   7           s( 99.13%)p 0.01(  0.87%)
                                           -0.0022  0.0030  0.9957  0.0000  0.0778
                                            0.0500  0.0109
   108. (0.00015) RY*( 3) H   7           s( 87.86%)p 0.14( 12.14%)
                                            0.0001  0.0095 -0.0023  0.9373 -0.0019
                                            0.1188 -0.3275
   109. (0.00015) RY*( 4) H   7           s(  1.51%)p65.04( 98.49%)
                                            0.0007 -0.0327  0.0714  0.0947 -0.9533
                                            0.0018  0.2759
   110. (0.00007) RY*( 5) H   7           s( 11.29%)p 7.86( 88.71%)
   111. (0.00003) RY*( 6) H   7           s(  0.39%)p99.99( 99.61%)
   112. (0.00082) RY*( 1) H   8           s( 99.25%)p 0.01(  0.75%)
                                           -0.0016  0.9963  0.0010 -0.0002 -0.0453
                                            0.0440  0.0590
   113. (0.00020) RY*( 2) H   8           s( 88.96%)p 0.12( 11.04%)
                                            0.0017 -0.0156  0.9340  0.1303 -0.0533
                                            0.3260 -0.0360
   114. (0.00017) RY*( 3) H   8           s( 32.79%)p 2.05( 67.21%)
                                           -0.0010 -0.0298 -0.3293  0.4675 -0.3956
                                            0.6590 -0.2851
   115. (0.00012) RY*( 4) H   8           s( 60.69%)p 0.65( 39.31%)
                                            0.0054  0.0510  0.0367  0.7765  0.4469
                                           -0.3668 -0.2424
   116. (0.00007) RY*( 5) H   8           s( 10.37%)p 8.64( 89.63%)
   117. (0.00004) RY*( 6) H   8           s(  7.97%)p11.54( 92.03%)
   118. (0.00489) RY*( 1) H   9           s( 99.86%)p 0.00(  0.14%)
                                            0.0044  0.9993 -0.0009 -0.0003  0.0268
                                           -0.0058  0.0263
   119. (0.00055) RY*( 2) H   9           s( 99.13%)p 0.01(  0.87%)
                                           -0.0022  0.0030  0.9957  0.0000 -0.0778
                                            0.0500  0.0109
   120. (0.00015) RY*( 3) H   9           s( 87.86%)p 0.14( 12.14%)
                                            0.0001  0.0095 -0.0023  0.9373  0.0019
                                            0.1188 -0.3275
   121. (0.00015) RY*( 4) H   9           s(  1.51%)p65.04( 98.49%)
                                            0.0007 -0.0327  0.0714  0.0947  0.9533
                                            0.0018  0.2759
   122. (0.00007) RY*( 5) H   9           s( 11.29%)p 7.86( 88.71%)
   123. (0.00003) RY*( 6) H   9           s(  0.39%)p99.99( 99.61%)
   124. (0.00124) RY*( 1) H  10           s( 99.23%)p 0.01(  0.77%)
                                           -0.0037  0.9961  0.0029  0.0007 -0.0373
                                            0.0776 -0.0173
   125. (0.00020) RY*( 2) H  10           s( 44.72%)p 1.24( 55.28%)
                                            0.0013 -0.0538  0.6614  0.0824 -0.6176
                                            0.3956  0.1219
   126. (0.00012) RY*( 3) H  10           s( 52.17%)p 0.92( 47.83%)
                                            0.0044  0.0545  0.7121 -0.1075  0.4952
                                           -0.4453  0.1866
   127. (0.00008) RY*( 4) H  10           s( 90.31%)p 0.11(  9.69%)
   128. (0.00008) RY*( 5) H  10           s(  0.88%)p99.99( 99.12%)
   129. (0.00003) RY*( 6) H  10           s( 12.73%)p 6.85( 87.27%)
   130. (0.10926) BD*( 1) C   1 - S   2  
                ( 48.04%)   0.6931* C   1 s( 20.68%)p 3.83( 79.24%)d 0.00(  0.09%)
                                           -0.0001 -0.4547  0.0016  0.0062  0.0007
                                           -0.6788 -0.0141  0.0123  0.0055 -0.4914
                                            0.0114  0.0043  0.0043  0.2993 -0.0018
                                           -0.0014 -0.0021 -0.0212  0.0131  0.0092
                                           -0.0070  0.0099
                ( 51.96%)  -0.7208* S   2 s( 15.04%)p 5.58( 83.96%)d 0.07(  1.00%)
                                            0.0000 -0.0001 -0.3846  0.0489 -0.0061
                                           -0.0010  0.0000 -0.0000  0.7013  0.0320
                                           -0.0058 -0.0014  0.0001  0.0000  0.4741
                                            0.0184 -0.0124 -0.0021  0.0005 -0.0000
                                           -0.3476  0.0240  0.0024  0.0021 -0.0003
                                           -0.0719  0.0433  0.0462 -0.0124  0.0253
   131. (0.01209) BD*( 1) C   1 - H   5  
                ( 38.63%)   0.6215* C   1 s( 26.84%)p 2.72( 73.10%)d 0.00(  0.06%)
                                           -0.0001 -0.5180 -0.0003 -0.0024 -0.0002
                                           -0.0860 -0.0103 -0.0030  0.0007  0.0822
                                           -0.0020 -0.0001  0.0018 -0.8466  0.0035
                                           -0.0036 -0.0029 -0.0005 -0.0064  0.0028
                                           -0.0001 -0.0230
                ( 61.37%)  -0.7834* H   5 s( 99.96%)p 0.00(  0.04%)
                                           -0.9998 -0.0032 -0.0004 -0.0001 -0.0008
                                           -0.0015  0.0204
   132. (0.00611) BD*( 1) C   1 - H   6  
                ( 38.52%)   0.6206* C   1 s( 26.03%)p 2.84( 73.91%)d 0.00(  0.06%)
                                           -0.0000 -0.5102 -0.0034 -0.0030 -0.0003
                                            0.7276 -0.0037  0.0030  0.0026 -0.4128
                                           -0.0047 -0.0042 -0.0002  0.1981  0.0055
                                            0.0011  0.0009  0.0173 -0.0095  0.0068
                                           -0.0076  0.0107
                ( 61.48%)  -0.7841* H   6 s( 99.96%)p 0.00(  0.04%)
                                           -0.9998 -0.0010 -0.0001 -0.0005 -0.0184
                                            0.0085 -0.0027
   133. (0.00849) BD*( 1) C   1 - H   7  
                ( 39.24%)   0.6264* C   1 s( 26.42%)p 2.78( 73.52%)d 0.00(  0.06%)
                                            0.0001 -0.5140 -0.0013 -0.0014 -0.0000
                                           -0.0348 -0.0107 -0.0006 -0.0002  0.7617
                                           -0.0102  0.0022  0.0011  0.3919  0.0005
                                            0.0005  0.0008  0.0032  0.0033 -0.0185
                                            0.0150  0.0034
                ( 60.76%)  -0.7795* H   7 s( 99.95%)p 0.00(  0.05%)
                                           -0.9998  0.0044 -0.0009 -0.0003 -0.0034
                                           -0.0196 -0.0081
   134. (0.02187) BD*( 1) S   2 - O   3  
                ( 62.03%)   0.7876* S   2 s( 20.35%)p 3.85( 78.40%)d 0.06(  1.24%)
                                           -0.0000  0.0002  0.4366 -0.1133 -0.0096
                                           -0.0005 -0.0000  0.0000 -0.0000 -0.0000
                                           -0.0000 -0.0000  0.0000 -0.0001  0.7230
                                            0.0685  0.0219  0.0012 -0.0013 -0.0000
                                            0.5059  0.0129  0.0031 -0.0031 -0.0006
                                           -0.0000 -0.0000  0.0940 -0.0597  0.0055
                ( 37.97%)  -0.6162* O   3 s( 19.31%)p 4.17( 80.58%)d 0.01(  0.11%)
                                            0.0000  0.4378 -0.0375 -0.0015 -0.0000
                                            0.0000 -0.0000 -0.0000 -0.0000 -0.7453
                                            0.0401  0.0099  0.0015 -0.4981  0.0229
                                           -0.0001 -0.0002 -0.0000 -0.0000  0.0260
                                           -0.0206 -0.0030
   135. (0.10926) BD*( 1) S   2 - C   4  
                ( 51.96%)   0.7208* S   2 s( 15.04%)p 5.58( 83.96%)d 0.07(  1.00%)
                                           -0.0000  0.0001  0.3846 -0.0489  0.0061
                                            0.0010 -0.0000 -0.0000  0.7013  0.0320
                                           -0.0058 -0.0014  0.0001 -0.0000 -0.4741
                                           -0.0184  0.0124  0.0021 -0.0005  0.0000
                                            0.3476 -0.0240 -0.0024 -0.0021  0.0003
                                           -0.0719  0.0433 -0.0462  0.0124 -0.0253
                ( 48.04%)  -0.6931* C   4 s( 20.68%)p 3.83( 79.24%)d 0.00(  0.09%)
                                            0.0001  0.4547 -0.0016 -0.0062 -0.0007
                                           -0.6788 -0.0141  0.0123  0.0055  0.4914
                                           -0.0114 -0.0043 -0.0043 -0.2993  0.0018
                                            0.0014  0.0021 -0.0212  0.0131 -0.0092
                                            0.0070 -0.0099
   136. (0.00611) BD*( 1) C   4 - H   8  
                ( 38.52%)   0.6206* C   4 s( 26.03%)p 2.84( 73.91%)d 0.00(  0.06%)
                                           -0.0000 -0.5102 -0.0034 -0.0030 -0.0003
                                           -0.7276  0.0037 -0.0030 -0.0026 -0.4128
                                           -0.0047 -0.0042 -0.0002  0.1981  0.0055
                                            0.0011  0.0009 -0.0173  0.0095  0.0068
                                           -0.0076  0.0107
                ( 61.48%)  -0.7841* H   8 s( 99.96%)p 0.00(  0.04%)
                                           -0.9998 -0.0010 -0.0001 -0.0005  0.0184
                                            0.0085 -0.0027
   137. (0.00849) BD*( 1) C   4 - H   9  
                ( 39.24%)   0.6264* C   4 s( 26.42%)p 2.78( 73.52%)d 0.00(  0.06%)
                                            0.0001 -0.5140 -0.0013 -0.0014 -0.0000
                                            0.0348  0.0107  0.0006  0.0002  0.7617
                                           -0.0102  0.0022  0.0011  0.3919  0.0005
                                            0.0005  0.0008 -0.0032 -0.0033 -0.0185
                                            0.0150  0.0034
                ( 60.76%)  -0.7795* H   9 s( 99.95%)p 0.00(  0.05%)
                                           -0.9998  0.0044 -0.0009 -0.0003  0.0034
                                           -0.0196 -0.0081
   138. (0.01209) BD*( 1) C   4 - H  10  
                ( 38.63%)   0.6215* C   4 s( 26.84%)p 2.72( 73.10%)d 0.00(  0.06%)
                                           -0.0001 -0.5180 -0.0003 -0.0024 -0.0002
                                            0.0860  0.0103  0.0030 -0.0007  0.0822
                                           -0.0020 -0.0001  0.0018 -0.8466  0.0035
                                           -0.0036 -0.0029  0.0005  0.0064  0.0028
                                           -0.0001 -0.0230
                ( 61.37%)  -0.7834* H  10 s( 99.96%)p 0.00(  0.04%)
                                           -0.9998 -0.0032 -0.0004 -0.0001  0.0008
                                           -0.0015  0.0204


 NHO Directionality and "Bond Bending" (deviations from line of nuclear centers)

         [Thresholds for printing:  angular deviation  >  1.0 degree]
                                    hybrid p-character > 25.0%
                                    orbital occupancy  >  0.10e

                                Line of Centers        Hybrid 1              Hybrid 2
                                ---------------  -------------------   ------------------
                NBO               Theta   Phi    Theta   Phi    Dev    Theta   Phi    Dev
 ========================================================================================
     1. BD (   1) C   1 - S   2   110.0   37.4   109.6   34.9   2.3     69.8  213.4   3.8
     2. BD (   1) C   1 - H   5     7.3  313.6     8.6  320.3   1.6      --     --    --
     4. BD (   1) C   1 - H   7   117.0  271.5   117.5  273.5   1.9      --     --    --
     5. BD (   1) S   2 - O   3    56.8   90.0     --     --    --     124.4  270.0   1.2
     6. BD (   1) S   2 - C   4    70.0  322.6    69.8  326.6   3.8    109.6  145.1   2.3
     8. BD (   1) C   4 - H   9   117.0  268.5   117.5  266.5   1.9      --     --    --
     9. BD (   1) C   4 - H  10     7.3  226.4     8.6  219.7   1.6      --     --    --
    18. LP (   1) S   2             --     --    173.1   90.0   --       --     --    --
    20. LP (   2) O   3             --     --    143.9   90.0   --       --     --    --
    21. LP (   3) O   3             --     --     90.0    0.0   --       --     --    --
   130. BD*(   1) C   1 - S   2   110.0   37.4   109.6   34.9   2.3     69.8  213.4   3.8
   135. BD*(   1) S   2 - C   4    70.0  322.6    69.8  326.6   3.8    109.6  145.1   2.3


 Second Order Perturbation Theory Analysis of Fock Matrix in NBO Basis

     Threshold for printing:   0.50 kcal/mol
                                                                              E(2)  E(j)-E(i) F(i,j)
         Donor NBO (i)                     Acceptor NBO (j)                 kcal/mol   a.u.    a.u. 
 ===================================================================================================

 within unit  1
   1. BD (   1) C   1 - S   2        /134. BD*(   1) S   2 - O   3            1.53    0.87    0.033
   1. BD (   1) C   1 - S   2        /136. BD*(   1) C   4 - H   8            1.24    1.00    0.031
   2. BD (   1) C   1 - H   5        /130. BD*(   1) C   1 - S   2            0.58    0.67    0.018
   3. BD (   1) C   1 - H   6        / 42. RY*(   4) S   2                    0.53    1.25    0.023
   3. BD (   1) C   1 - H   6        /135. BD*(   1) S   2 - C   4            0.87    0.66    0.022
   4. BD (   1) C   1 - H   7        /130. BD*(   1) C   1 - S   2            0.73    0.67    0.020
   4. BD (   1) C   1 - H   7        /134. BD*(   1) S   2 - O   3            1.46    0.81    0.031
   6. BD (   1) S   2 - C   4        /132. BD*(   1) C   1 - H   6            1.24    1.00    0.031
   6. BD (   1) S   2 - C   4        /134. BD*(   1) S   2 - O   3            1.53    0.87    0.033
   7. BD (   1) C   4 - H   8        / 42. RY*(   4) S   2                    0.53    1.25    0.023
   7. BD (   1) C   4 - H   8        /130. BD*(   1) C   1 - S   2            0.87    0.66    0.022
   8. BD (   1) C   4 - H   9        /134. BD*(   1) S   2 - O   3            1.46    0.81    0.031
   8. BD (   1) C   4 - H   9        /135. BD*(   1) S   2 - C   4            0.73    0.67    0.020
   9. BD (   1) C   4 - H  10        /135. BD*(   1) S   2 - C   4            0.58    0.67    0.018
  10. CR (   1) C   1                / 94. RY*(   1) H   5                    0.63   10.75    0.073
  10. CR (   1) C   1                /108. RY*(   3) H   7                    0.55   12.26    0.073
  10. CR (   1) C   1                /130. BD*(   1) C   1 - S   2            1.57   10.20    0.116
  12. CR (   2) S   2                / 63. RY*(   4) O   3                    0.51   10.10    0.064
  12. CR (   2) S   2                /134. BD*(   1) S   2 - O   3            0.78    9.13    0.076
  16. CR (   1) O   3                / 42. RY*(   4) S   2                    0.52   19.58    0.090
  16. CR (   1) O   3                / 43. RY*(   5) S   2                    0.97   20.27    0.125
  17. CR (   1) C   4                /120. RY*(   3) H   9                    0.55   12.26    0.073
  17. CR (   1) C   4                /124. RY*(   1) H  10                    0.63   10.75    0.073
  17. CR (   1) C   4                /135. BD*(   1) S   2 - C   4            1.57   10.20    0.116
  18. LP (   1) S   2                /131. BD*(   1) C   1 - H   5            1.83    0.92    0.037
  18. LP (   1) S   2                /138. BD*(   1) C   4 - H  10            1.83    0.92    0.037
  19. LP (   1) O   3                / 42. RY*(   4) S   2                    1.77    1.51    0.046
  19. LP (   1) O   3                / 43. RY*(   5) S   2                    3.31    2.19    0.076
  20. LP (   2) O   3                / 39. RY*(   1) S   2                   12.40    0.83    0.092
  20. LP (   2) O   3                / 42. RY*(   4) S   2                    0.56    0.97    0.021
  20. LP (   2) O   3                / 59. RY*(  21) S   2                    0.76    0.92    0.024
  20. LP (   2) O   3                /130. BD*(   1) C   1 - S   2            7.43    0.38    0.048
  20. LP (   2) O   3                /135. BD*(   1) S   2 - C   4            7.43    0.38    0.048
  21. LP (   3) O   3                / 40. RY*(   2) S   2                    8.82    1.04    0.089
  21. LP (   3) O   3                / 44. RY*(   6) S   2                    0.91    1.14    0.030
  21. LP (   3) O   3                / 45. RY*(   7) S   2                    0.51    1.15    0.023
  21. LP (   3) O   3                /130. BD*(   1) C   1 - S   2           11.97    0.38    0.061
  21. LP (   3) O   3                /133. BD*(   1) C   1 - H   7            0.66    0.63    0.019
  21. LP (   3) O   3                /135. BD*(   1) S   2 - C   4           11.97    0.38    0.061
  21. LP (   3) O   3                /137. BD*(   1) C   4 - H   9            0.66    0.63    0.019
 130. BD*(   1) C   1 - S   2        / 39. RY*(   1) S   2                    0.75    0.45    0.061
 130. BD*(   1) C   1 - S   2        / 40. RY*(   2) S   2                    1.74    0.66    0.114
 130. BD*(   1) C   1 - S   2        / 44. RY*(   6) S   2                    0.62    0.76    0.083
 135. BD*(   1) S   2 - C   4        / 39. RY*(   1) S   2                    0.75    0.45    0.061
 135. BD*(   1) S   2 - C   4        / 40. RY*(   2) S   2                    1.74    0.66    0.114
 135. BD*(   1) S   2 - C   4        / 44. RY*(   6) S   2                    0.62    0.76    0.083


 Natural Bond Orbitals (Summary):

                                                            Principal Delocalizations
           NBO                        Occupancy    Energy   (geminal,vicinal,remote)
 ====================================================================================
 Molecular unit  1  (C2H6OS)
     1. BD (   1) C   1 - S   2          1.98661    -0.61502  134(g),136(v)
     2. BD (   1) C   1 - H   5          1.99421    -0.55046  130(g)
     3. BD (   1) C   1 - H   6          1.99186    -0.54814  135(v),42(v)
     4. BD (   1) C   1 - H   7          1.99001    -0.55555  134(v),130(g)
     5. BD (   1) S   2 - O   3          1.99167    -0.85727   
     6. BD (   1) S   2 - C   4          1.98661    -0.61502  134(g),132(v)
     7. BD (   1) C   4 - H   8          1.99186    -0.54814  130(v),42(v)
     8. BD (   1) C   4 - H   9          1.99001    -0.55555  134(v),135(g)
     9. BD (   1) C   4 - H  10          1.99421    -0.55046  135(g)
    10. CR (   1) C   1                  1.99925   -10.08259  130(g),94(v),108(v)
    11. CR (   1) S   2                  2.00000   -87.88534   
    12. CR (   2) S   2                  1.99920    -8.88111  134(g),63(v)
    13. CR (   3) S   2                  1.99994    -5.98685   
    14. CR (   4) S   2                  1.99992    -5.98580   
    15. CR (   5) S   2                  1.99993    -5.98183   
    16. CR (   1) O   3                  1.99986   -18.88051  43(v),42(v)
    17. CR (   1) C   4                  1.99925   -10.08259  135(g),124(v),120(v)
    18. LP (   1) S   2                  1.97341    -0.54844  131(v),138(v)
    19. LP (   1) O   3                  1.99436    -0.80456  43(v),42(v)
    20. LP (   2) O   3                  1.89076    -0.26996  39(v),130(v),135(v),59(v)
                                                    42(v)
    21. LP (   3) O   3                  1.81873    -0.26278  130(v),135(v),40(v),44(v)
                                                    133(r),137(r),45(v)
    22. RY*(   1) C   1                  0.00272     0.78290   
    23. RY*(   2) C   1                  0.00213     0.70231   
    24. RY*(   3) C   1                  0.00103     0.85495   
    25. RY*(   4) C   1                  0.00044     0.94581   
    26. RY*(   5) C   1                  0.00016     1.03927   
    27. RY*(   6) C   1                  0.00012     1.10571   
    28. RY*(   7) C   1                  0.00009     0.90111   
    29. RY*(   8) C   1                  0.00001     1.38649   
    30. RY*(   9) C   1                  0.00000     2.48489   
    31. RY*(  10) C   1                  0.00000     2.70956   
    32. RY*(  11) C   1                  0.00000     0.33606   
    33. RY*(  12) C   1                  0.00000     2.77384   
    34. RY*(  13) C   1                  0.00000     1.67583   
    35. RY*(  14) C   1                  0.00000    23.23805   
    36. RY*(  15) C   1                  0.00001     1.73571   
    37. RY*(  16) C   1                  0.00000     1.05988   
    38. RY*(  17) C   1                  0.00000     2.08335   
    39. RY*(   1) S   2                  0.03484     0.56312   
    40. RY*(   2) S   2                  0.03131     0.77704   
    41. RY*(   3) S   2                  0.00468     0.91498   
    42. RY*(   4) S   2                  0.00379     0.70201   
    43. RY*(   5) S   2                  0.00248     1.38868   
    44. RY*(   6) S   2                  0.00109     0.87265   
    45. RY*(   7) S   2                  0.00025     0.88965   
    46. RY*(   8) S   2                  0.00025     0.87706   
    47. RY*(   9) S   2                  0.00007     1.56986   
    48. RY*(  10) S   2                  0.00008     0.57520   
    49. RY*(  11) S   2                  0.00001     1.32231   
    50. RY*(  12) S   2                  0.00000    16.66777   
    51. RY*(  13) S   2                  0.00001     0.67503   
    52. RY*(  14) S   2                  0.00000     1.31029   
    53. RY*(  15) S   2                  0.00000     0.77115   
    54. RY*(  16) S   2                  0.00000    16.67169   
    55. RY*(  17) S   2                  0.00000     0.50197   
    56. RY*(  18) S   2                  0.00000   179.30564   
    57. RY*(  19) S   2                  0.00000    16.57775   
    58. RY*(  20) S   2                  0.00000    16.99544   
    59. RY*(  21) S   2                  0.00000     0.65271   
    60. RY*(   1) O   3                  0.00210     0.73979   
    61. RY*(   2) O   3                  0.00149     0.74802   
    62. RY*(   3) O   3                  0.00040     1.37339   
    63. RY*(   4) O   3                  0.00014     1.21755   
    64. RY*(   5) O   3                  0.00005     1.85866   
    65. RY*(   6) O   3                  0.00002     0.77715   
    66. RY*(   7) O   3                  0.00000     0.50445   
    67. RY*(   8) O   3                  0.00000    49.62360   
    68. RY*(   9) O   3                  0.00000     4.60360   
    69. RY*(  10) O   3                  0.00000     5.02487   
    70. RY*(  11) O   3                  0.00001     0.93337   
    71. RY*(  12) O   3                  0.00000     4.78385   
    72. RY*(  13) O   3                  0.00000     2.87996   
    73. RY*(  14) O   3                  0.00000     2.86249   
    74. RY*(  15) O   3                  0.00000     2.91544   
    75. RY*(  16) O   3                  0.00000     3.04812   
    76. RY*(  17) O   3                  0.00000     2.79485   
    77. RY*(   1) C   4                  0.00272     0.78290   
    78. RY*(   2) C   4                  0.00213     0.70231   
    79. RY*(   3) C   4                  0.00103     0.85495   
    80. RY*(   4) C   4                  0.00044     0.94581   
    81. RY*(   5) C   4                  0.00016     1.03927   
    82. RY*(   6) C   4                  0.00012     1.10571   
    83. RY*(   7) C   4                  0.00009     0.90111   
    84. RY*(   8) C   4                  0.00001     1.38649   
    85. RY*(   9) C   4                  0.00000     2.48489   
    86. RY*(  10) C   4                  0.00000     2.70956   
    87. RY*(  11) C   4                  0.00000     0.33606   
    88. RY*(  12) C   4                  0.00000     2.77384   
    89. RY*(  13) C   4                  0.00000     1.67583   
    90. RY*(  14) C   4                  0.00000    23.23805   
    91. RY*(  15) C   4                  0.00001     1.73571   
    92. RY*(  16) C   4                  0.00000     1.05988   
    93. RY*(  17) C   4                  0.00000     2.08335   
    94. RY*(   1) H   5                  0.00124     0.66956   
    95. RY*(   2) H   5                  0.00020     1.81354   
    96. RY*(   3) H   5                  0.00012     1.99549   
    97. RY*(   4) H   5                  0.00008     0.46791   
    98. RY*(   5) H   5                  0.00008     1.73127   
    99. RY*(   6) H   5                  0.00003     2.27013   
   100. RY*(   1) H   6                  0.00082     0.52997   
   101. RY*(   2) H   6                  0.00020     0.76037   
   102. RY*(   3) H   6                  0.00017     1.79472   
   103. RY*(   4) H   6                  0.00012     1.70475   
   104. RY*(   5) H   6                  0.00007     1.69879   
   105. RY*(   6) H   6                  0.00004     2.39665   
   106. RY*(   1) H   7                  0.00489     0.21082   
   107. RY*(   2) H   7                  0.00055     0.40277   
   108. RY*(   3) H   7                  0.00015     2.17398   
   109. RY*(   4) H   7                  0.00015     1.67085   
   110. RY*(   5) H   7                  0.00007     1.75417   
   111. RY*(   6) H   7                  0.00003     2.56589   
   112. RY*(   1) H   8                  0.00082     0.52997   
   113. RY*(   2) H   8                  0.00020     0.76037   
   114. RY*(   3) H   8                  0.00017     1.79472   
   115. RY*(   4) H   8                  0.00012     1.70475   
   116. RY*(   5) H   8                  0.00007     1.69879   
   117. RY*(   6) H   8                  0.00004     2.39665   
   118. RY*(   1) H   9                  0.00489     0.21082   
   119. RY*(   2) H   9                  0.00055     0.40277   
   120. RY*(   3) H   9                  0.00015     2.17398   
   121. RY*(   4) H   9                  0.00015     1.67085   
   122. RY*(   5) H   9                  0.00007     1.75417   
   123. RY*(   6) H   9                  0.00003     2.56589   
   124. RY*(   1) H  10                  0.00124     0.66956   
   125. RY*(   2) H  10                  0.00020     1.81354   
   126. RY*(   3) H  10                  0.00012     1.99549   
   127. RY*(   4) H  10                  0.00008     0.46791   
   128. RY*(   5) H  10                  0.00008     1.73127   
   129. RY*(   6) H  10                  0.00003     2.27013   
   130. BD*(   1) C   1 - S   2          0.10926     0.11468  135(g),40(g),44(g),39(g)
   131. BD*(   1) C   1 - H   5          0.01209     0.37369   
   132. BD*(   1) C   1 - H   6          0.00611     0.38245   
   133. BD*(   1) C   1 - H   7          0.00849     0.36650   
   134. BD*(   1) S   2 - O   3          0.02187     0.25281   
   135. BD*(   1) S   2 - C   4          0.10926     0.11468  130(g),40(g),44(g),39(g)
   136. BD*(   1) C   4 - H   8          0.00611     0.38245   
   137. BD*(   1) C   4 - H   9          0.00849     0.36650   
   138. BD*(   1) C   4 - H  10          0.01209     0.37369   
       -------------------------------
              Total Lewis   41.59167  ( 99.0278%)
        Valence non-Lewis    0.29377  (  0.6995%)
        Rydberg non-Lewis    0.11456  (  0.2728%)
       -------------------------------
            Total unit  1   42.00000  (100.0000%)
           Charge unit  1    0.00000
 Unable to Open any file for archive entry.
 1\1\GINC-CCC131\FOpt\RB3LYP\6-311++G(d,p)\C2H6O1S1\ROOT\12-Jun-2024\0\
 \# opt freq b3lyp/6-311++g(d,p) pop=nbo geom=connectivity\\CS(=O)C\\0,
 1\C,-1.3626840668,-0.2602660011,-0.0627445277\S,0.0333555828,0.6679063
 518,-0.8097348746\O,-0.0359709425,2.0785982345,-0.263834933\C,1.371334
 0462,-0.1914531169,0.1066384723\H,-1.3371494908,-0.131815785,1.0203742
 962\H,-2.2761181255,0.1744026922,-0.4675394383\H,-1.2941319442,-1.3134
 187194,-0.3418423698\H,2.3047859918,0.2897001838,-0.1837346381\H,1.390
 5986718,-1.2458463332,-0.175513023\H,1.2059802859,-0.0678075066,1.1779
 310365\\Version=ES64L-G16RevC.02\State=1-A\HF=-553.2679478\RMSD=8.159e
 -09\RMSF=7.018e-06\Dipole=0.0391241,-1.7441707,0.0770779\Quadrupole=3.
 3397986,-3.6522304,0.3124318,0.2199376,0.2063614,-0.7020235\PG=C01 [X(
 C2H6O1S1)]\\@
 The archive entry for this job was punched.


 THE PROGRESS OF RIVERS TO THE SEA IS NOT AS RAPID
 AS THAT OF MAN TO ERROR.
                                              -- VOLTAIRE
 Job cpu time:       0 days  0 hours  3 minutes  4.4 seconds.
 Elapsed time:       0 days  0 hours  0 minutes 34.4 seconds.
 File lengths (MBytes):  RWF=     15 Int=      0 D2E=      0 Chk=      3 Scr=      1
 Normal termination of Gaussian 16 at Wed Jun 12 21:58:01 2024.
 Link1:  Proceeding to internal job step number  2.
 ----------------------------------------------------------------------
 #N Geom=AllCheck Guess=TCheck SCRF=Check GenChk RB3LYP/6-311++G(d,p) F
 req
 ----------------------------------------------------------------------
 1/10=4,29=7,30=1,38=1,40=1/1,3;
 2/12=2,40=1/2;
 3/5=4,6=6,7=1111,11=2,14=-4,25=1,30=1,70=2,71=2,74=-5,116=1,140=1/1,2,3;
 4/5=101/1;
 5/5=2,38=6,98=1/2;
 8/6=4,10=90,11=11/1;
 11/6=1,8=1,9=11,15=111,16=1/1,2,10;
 10/6=1/2;
 6/7=2,8=2,9=2,10=2,28=1,40=1/1,7;
 7/8=1,10=1,25=1/1,2,3,16;
 1/10=4,30=1/3;
 99//99;
 Structure from the checkpoint file:  "CS(=O)C.chk"
 -------
 CS(=O)C
 -------
 Charge =  0 Multiplicity = 1
 Redundant internal coordinates found in file.  (old form).
 C,0,-1.3626840668,-0.2602660011,-0.0627445277
 S,0,0.0333555828,0.6679063518,-0.8097348746
 O,0,-0.0359709425,2.0785982345,-0.263834933
 C,0,1.3713340462,-0.1914531169,0.1066384723
 H,0,-1.3371494908,-0.131815785,1.0203742962
 H,0,-2.2761181255,0.1744026922,-0.4675394383
 H,0,-1.2941319442,-1.3134187194,-0.3418423698
 H,0,2.3047859918,0.2897001838,-0.1837346381
 H,0,1.3905986718,-1.2458463332,-0.175513023
 H,0,1.2059802859,-0.0678075066,1.1779310365
 Recover connectivity data from disk.

 GradGradGradGradGradGradGradGradGradGradGradGradGradGradGradGradGradGrad
 Berny optimization.
 Initialization pass.
                           ----------------------------
                           !    Initial Parameters    !
                           ! (Angstroms and Degrees)  !
 --------------------------                            --------------------------
 ! Name  Definition              Value          Derivative Info.                !
 --------------------------------------------------------------------------------
 ! R1    R(1,2)                  1.8353         calculate D2E/DX2 analytically  !
 ! R2    R(1,5)                  1.091          calculate D2E/DX2 analytically  !
 ! R3    R(1,6)                  1.0896         calculate D2E/DX2 analytically  !
 ! R4    R(1,7)                  1.0917         calculate D2E/DX2 analytically  !
 ! R5    R(2,3)                  1.5142         calculate D2E/DX2 analytically  !
 ! R6    R(2,4)                  1.8353         calculate D2E/DX2 analytically  !
 ! R7    R(4,8)                  1.0896         calculate D2E/DX2 analytically  !
 ! R8    R(4,9)                  1.0917         calculate D2E/DX2 analytically  !
 ! R9    R(4,10)                 1.091          calculate D2E/DX2 analytically  !
 ! A1    A(2,1,5)              109.0698         calculate D2E/DX2 analytically  !
 ! A2    A(2,1,6)              106.5423         calculate D2E/DX2 analytically  !
 ! A3    A(2,1,7)              109.6372         calculate D2E/DX2 analytically  !
 ! A4    A(5,1,6)              109.9673         calculate D2E/DX2 analytically  !
 ! A5    A(5,1,7)              111.4646         calculate D2E/DX2 analytically  !
 ! A6    A(6,1,7)              110.0308         calculate D2E/DX2 analytically  !
 ! A7    A(1,2,3)              106.8335         calculate D2E/DX2 analytically  !
 ! A8    A(1,2,4)               96.5753         calculate D2E/DX2 analytically  !
 ! A9    A(3,2,4)              106.8335         calculate D2E/DX2 analytically  !
 ! A10   A(2,4,8)              106.5423         calculate D2E/DX2 analytically  !
 ! A11   A(2,4,9)              109.6372         calculate D2E/DX2 analytically  !
 ! A12   A(2,4,10)             109.0698         calculate D2E/DX2 analytically  !
 ! A13   A(8,4,9)              110.0308         calculate D2E/DX2 analytically  !
 ! A14   A(8,4,10)             109.9673         calculate D2E/DX2 analytically  !
 ! A15   A(9,4,10)             111.4646         calculate D2E/DX2 analytically  !
 ! D1    D(5,1,2,3)            -51.662          calculate D2E/DX2 analytically  !
 ! D2    D(5,1,2,4)             58.1804         calculate D2E/DX2 analytically  !
 ! D3    D(6,1,2,3)             66.9966         calculate D2E/DX2 analytically  !
 ! D4    D(6,1,2,4)            176.839          calculate D2E/DX2 analytically  !
 ! D5    D(7,1,2,3)           -173.9673         calculate D2E/DX2 analytically  !
 ! D6    D(7,1,2,4)            -64.1249         calculate D2E/DX2 analytically  !
 ! D7    D(1,2,4,8)           -176.839          calculate D2E/DX2 analytically  !
 ! D8    D(1,2,4,9)             64.1249         calculate D2E/DX2 analytically  !
 ! D9    D(1,2,4,10)           -58.1804         calculate D2E/DX2 analytically  !
 ! D10   D(3,2,4,8)            -66.9966         calculate D2E/DX2 analytically  !
 ! D11   D(3,2,4,9)            173.9673         calculate D2E/DX2 analytically  !
 ! D12   D(3,2,4,10)            51.662          calculate D2E/DX2 analytically  !
 --------------------------------------------------------------------------------
 Trust Radius=3.00D-01 FncErr=1.00D-07 GrdErr=1.00D-07 EigMax=2.50D+02 EigMin=1.00D-04
 Number of steps in this run=      2 maximum allowed number of steps=      2.
 GradGradGradGradGradGradGradGradGradGradGradGradGradGradGradGradGradGrad

                          Input orientation:                          
 ---------------------------------------------------------------------
 Center     Atomic      Atomic             Coordinates (Angstroms)
 Number     Number       Type             X           Y           Z
 ---------------------------------------------------------------------
      1          6           0       -1.362684   -0.260266   -0.062745
      2         16           0        0.033356    0.667906   -0.809735
      3          8           0       -0.035971    2.078598   -0.263835
      4          6           0        1.371334   -0.191453    0.106638
      5          1           0       -1.337149   -0.131816    1.020374
      6          1           0       -2.276118    0.174403   -0.467539
      7          1           0       -1.294132   -1.313419   -0.341842
      8          1           0        2.304786    0.289700   -0.183735
      9          1           0        1.390599   -1.245846   -0.175513
     10          1           0        1.205980   -0.067808    1.177931
 ---------------------------------------------------------------------
                    Distance matrix (angstroms):
                    1          2          3          4          5
     1  C    0.000000
     2  S    1.835327   0.000000
     3  O    2.696459   1.514221   0.000000
     4  C    2.740124   1.835327   2.696459   0.000000
     5  H    1.091008   2.422218   2.868482   2.859083   0.000000
     6  H    1.089568   2.386276   2.947154   3.710450   1.785866
     7  H    1.091662   2.430390   3.618678   2.926542   1.803793
     8  H    3.710450   2.386276   2.947154   1.089568   3.858918
     9  H    2.926543   2.430390   3.618678   1.091662   3.179909
    10  H    2.859082   2.422218   2.868482   1.091008   2.548810
                    6          7          8          9         10
     6  H    0.000000
     7  H    1.787095   0.000000
     8  H    4.591135   3.942994   0.000000
     9  H    3.942994   2.690727   1.787095   0.000000
    10  H    3.858918   3.179909   1.785866   1.803793   0.000000
 Stoichiometry    C2H6OS
 Framework group  C1[X(C2H6OS)]
 Deg. of freedom    24
 Full point group                 C1      NOp   1
 Largest Abelian subgroup         C1      NOp   1
 Largest concise Abelian subgroup C1      NOp   1
                         Standard orientation:                         
 ---------------------------------------------------------------------
 Center     Atomic      Atomic             Coordinates (Angstroms)
 Number     Number       Type             X           Y           Z
 ---------------------------------------------------------------------
      1          6           0       -1.370062   -0.813272    0.184788
      2         16           0        0.000000    0.233815   -0.443673
      3          8           0       -0.000000    1.500448    0.386090
      4          6           0        1.370062   -0.813272    0.184788
      5          1           0       -1.274405   -0.913715    1.266942
      6          1           0       -2.295568   -0.293118   -0.060237
      7          1           0       -1.345363   -1.785846   -0.310404
      8          1           0        2.295568   -0.293118   -0.060237
      9          1           0        1.345363   -1.785846   -0.310404
     10          1           0        1.274405   -0.913715    1.266942
 ---------------------------------------------------------------------
 Rotational constants (GHZ):           6.7963322           6.6979275           4.0725411
 Standard basis: 6-311++G(d,p) (5D, 7F)
 There are   142 symmetry adapted cartesian basis functions of A   symmetry.
 There are   138 symmetry adapted basis functions of A   symmetry.
   138 basis functions,   212 primitive gaussians,   142 cartesian basis functions
    21 alpha electrons       21 beta electrons
       nuclear repulsion energy       181.8371779554 Hartrees.
 NAtoms=   10 NActive=   10 NUniq=   10 SFac= 1.00D+00 NAtFMM=   60 NAOKFM=F Big=F
 Integral buffers will be    131072 words long.
 Raffenetti 2 integral format.
 Two-electron integral symmetry is turned on.
 One-electron integrals computed using PRISM.
 NBasis=   138 RedAO= T EigKep=  1.15D-04  NBF=   138
 NBsUse=   138 1.00D-06 EigRej= -1.00D+00 NBFU=   138
 Initial guess from the checkpoint file:  "CS(=O)C.chk"
 B after Tr=     0.000000   -0.000000   -0.000000
         Rot=    1.000000   -0.000000   -0.000000   -0.000000 Ang=   0.00 deg.
 Keep R1 ints in memory in canonical form, NReq=53745969.
 Requested convergence on RMS density matrix=1.00D-08 within 128 cycles.
 Requested convergence on MAX density matrix=1.00D-06.
 Requested convergence on             energy=1.00D-06.
 No special actions if energy rises.
 SCF Done:  E(RB3LYP) =  -553.267947821     A.U. after    1 cycles
            NFock=  1  Conv=0.48D-08     -V/T= 2.0021
 DoSCS=F DFT=T ScalE2(SS,OS)=  1.000000  1.000000
 Range of M.O.s used for correlation:     1   138
 NBasis=   138 NAE=    21 NBE=    21 NFC=     0 NFV=     0
 NROrb=    138 NOA=    21 NOB=    21 NVA=   117 NVB=   117

 **** Warning!!: The largest alpha MO coefficient is  0.33550315D+02

 Symmetrizing basis deriv contribution to polar:
 IMax=3 JMax=2 DiffMx= 0.00D+00
 G2DrvN: will do    11 centers at a time, making    1 passes.
 Calling FoFCou, ICntrl=  3107 FMM=F I1Cent=   0 AccDes= 0.00D+00.
 End of G2Drv F.D. properties file   721 does not exist.
 End of G2Drv F.D. properties file   722 does not exist.
 End of G2Drv F.D. properties file   788 does not exist.
          IDoAtm=1111111111
          Differentiating once with respect to electric field.
                with respect to dipole field.
          Differentiating once with respect to nuclear coordinates.
 Keep R1 ints in memory in canonical form, NReq=53727902.
          There are    33 degrees of freedom in the 1st order CPHF.  IDoFFX=6 NUNeed=     3.
     30 vectors produced by pass  0 Test12= 7.45D-15 3.03D-09 XBig12= 5.30D+01 2.59D+00.
 AX will form    30 AO Fock derivatives at one time.
     30 vectors produced by pass  1 Test12= 7.45D-15 3.03D-09 XBig12= 1.75D+01 1.07D+00.
     30 vectors produced by pass  2 Test12= 7.45D-15 3.03D-09 XBig12= 2.57D-01 8.78D-02.
     30 vectors produced by pass  3 Test12= 7.45D-15 3.03D-09 XBig12= 2.18D-03 9.88D-03.
     30 vectors produced by pass  4 Test12= 7.45D-15 3.03D-09 XBig12= 3.19D-06 4.23D-04.
     21 vectors produced by pass  5 Test12= 7.45D-15 3.03D-09 XBig12= 2.69D-09 8.61D-06.
      4 vectors produced by pass  6 Test12= 7.45D-15 3.03D-09 XBig12= 2.07D-12 2.77D-07.
      2 vectors produced by pass  7 Test12= 7.45D-15 3.03D-09 XBig12= 2.02D-15 1.56D-08.
 InvSVY:  IOpt=1 It=  1 EMax= 6.22D-15
 Solved reduced A of dimension   177 with    33 vectors.
 Isotropic polarizability for W=    0.000000       51.47 Bohr**3.
 End of Minotr F.D. properties file   721 does not exist.
 End of Minotr F.D. properties file   722 does not exist.
 End of Minotr F.D. properties file   788 does not exist.

 **********************************************************************

            Population analysis using the SCF Density.

 **********************************************************************

 Orbital symmetries:
       Occupied  (A) (A) (A) (A) (A) (A) (A) (A) (A) (A) (A) (A)
                 (A) (A) (A) (A) (A) (A) (A) (A) (A)
       Virtual   (A) (A) (A) (A) (A) (A) (A) (A) (A) (A) (A) (A)
                 (A) (A) (A) (A) (A) (A) (A) (A) (A) (A) (A) (A)
                 (A) (A) (A) (A) (A) (A) (A) (A) (A) (A) (A) (A)
                 (A) (A) (A) (A) (A) (A) (A) (A) (A) (A) (A) (A)
                 (A) (A) (A) (A) (A) (A) (A) (A) (A) (A) (A) (A)
                 (A) (A) (A) (A) (A) (A) (A) (A) (A) (A) (A) (A)
                 (A) (A) (A) (A) (A) (A) (A) (A) (A) (A) (A) (A)
                 (A) (A) (A) (A) (A) (A) (A) (A) (A) (A) (A) (A)
                 (A) (A) (A) (A) (A) (A) (A) (A) (A) (A) (A) (A)
                 (A) (A) (A) (A) (A) (A) (A) (A) (A)
 The electronic state is 1-A.
 Alpha  occ. eigenvalues --  -88.95640 -19.08339 -10.20736 -10.20735  -8.03314
 Alpha  occ. eigenvalues --   -5.99575  -5.99479  -5.98891  -1.01488  -0.80028
 Alpha  occ. eigenvalues --   -0.73175  -0.61530  -0.47757  -0.46770  -0.46734
 Alpha  occ. eigenvalues --   -0.43689  -0.41027  -0.40319  -0.36387  -0.27577
 Alpha  occ. eigenvalues --   -0.23845
 Alpha virt. eigenvalues --   -0.01714  -0.00465   0.01318   0.01894   0.02672
 Alpha virt. eigenvalues --    0.02781   0.03874   0.04660   0.05309   0.07320
 Alpha virt. eigenvalues --    0.07736   0.09057   0.10168   0.10930   0.11613
 Alpha virt. eigenvalues --    0.12246   0.12903   0.13679   0.14351   0.14428
 Alpha virt. eigenvalues --    0.15447   0.15671   0.16416   0.17980   0.20771
 Alpha virt. eigenvalues --    0.25528   0.26274   0.26303   0.28353   0.30199
 Alpha virt. eigenvalues --    0.31770   0.31917   0.34088   0.37940   0.38169
 Alpha virt. eigenvalues --    0.39460   0.46319   0.50839   0.51664   0.55034
 Alpha virt. eigenvalues --    0.61295   0.62644   0.62963   0.63547   0.67331
 Alpha virt. eigenvalues --    0.71451   0.71633   0.72587   0.75766   0.82012
 Alpha virt. eigenvalues --    0.84475   0.93298   0.94996   1.02867   1.06384
 Alpha virt. eigenvalues --    1.08597   1.08627   1.11709   1.15540   1.18882
 Alpha virt. eigenvalues --    1.19603   1.40709   1.41439   1.52814   1.53271
 Alpha virt. eigenvalues --    1.53564   1.56445   1.59178   1.59431   1.63770
 Alpha virt. eigenvalues --    1.66325   1.72079   1.72236   1.75681   1.85883
 Alpha virt. eigenvalues --    1.90582   1.91257   1.94623   2.00813   2.13454
 Alpha virt. eigenvalues --    2.15013   2.19177   2.21330   2.43310   2.43329
 Alpha virt. eigenvalues --    2.47329   2.48021   2.48576   2.49994   2.51453
 Alpha virt. eigenvalues --    2.55148   2.57609   2.67048   2.84594   2.86076
 Alpha virt. eigenvalues --    2.88198   2.95718   2.96137   2.97317   3.16816
 Alpha virt. eigenvalues --    3.22602   3.50811   3.71555   3.71719   3.72169
 Alpha virt. eigenvalues --    3.72384   5.04934   5.07237   5.15967   8.00214
 Alpha virt. eigenvalues --   17.34123  17.34378  17.38858  23.89375  23.89844
 Alpha virt. eigenvalues --   49.90188 189.14350
          Condensed to atoms (all electrons):
               1          2          3          4          5          6
     1  C    5.946062  -0.042117  -0.171080  -0.197670   0.368845   0.345164
     2  S   -0.042117  15.499896   0.181487  -0.042117  -0.035814  -0.045003
     3  O   -0.171080   0.181487   8.580144  -0.171080   0.008945   0.003890
     4  C   -0.197670  -0.042117  -0.171080   5.946062  -0.011399   0.035598
     5  H    0.368845  -0.035814   0.008945  -0.011399   0.541728  -0.021119
     6  H    0.345164  -0.045003   0.003890   0.035598  -0.021119   0.516099
     7  H    0.241664  -0.014823   0.017041   0.060322  -0.045574  -0.017639
     8  H    0.035598  -0.045003   0.003890   0.345164  -0.002813  -0.001889
     9  H    0.060322  -0.014823   0.017041   0.241664   0.004551  -0.005297
    10  H   -0.011399  -0.035814   0.008945   0.368845   0.005894  -0.002813
               7          8          9         10
     1  C    0.241664   0.035598   0.060322  -0.011399
     2  S   -0.014823  -0.045003  -0.014823  -0.035814
     3  O    0.017041   0.003890   0.017041   0.008945
     4  C    0.060322   0.345164   0.241664   0.368845
     5  H   -0.045574  -0.002813   0.004551   0.005894
     6  H   -0.017639  -0.001889  -0.005297  -0.002813
     7  H    0.642427  -0.005297  -0.020841   0.004551
     8  H   -0.005297   0.516099  -0.017639  -0.021119
     9  H   -0.020841  -0.017639   0.642427  -0.045574
    10  H    0.004551  -0.021119  -0.045574   0.541728
 Mulliken charges:
               1
     1  C   -0.575390
     2  S    0.594131
     3  O   -0.479223
     4  C   -0.575390
     5  H    0.186756
     6  H    0.193012
     7  H    0.138168
     8  H    0.193012
     9  H    0.138168
    10  H    0.186756
 Sum of Mulliken charges =  -0.00000
 Mulliken charges with hydrogens summed into heavy atoms:
               1
     1  C   -0.057454
     2  S    0.594131
     3  O   -0.479223
     4  C   -0.057454
 APT charges:
               1
     1  C   -0.107086
     2  S    0.883455
     3  O   -0.753071
     4  C   -0.107086
     5  H    0.003152
     6  H    0.032962
     7  H    0.005780
     8  H    0.032962
     9  H    0.005780
    10  H    0.003152
 Sum of APT charges =   0.00000
 APT charges with hydrogens summed into heavy atoms:
               1
     1  C   -0.065192
     2  S    0.883455
     3  O   -0.753071
     4  C   -0.065192
 Electronic spatial extent (au):  <R**2>=            371.5683
 Charge=              0.0000 electrons
 Dipole moment (field-independent basis, Debye):
    X=              0.0000    Y=             -4.3776    Z=             -0.7341  Tot=              4.4387
 Quadrupole moment (field-independent basis, Debye-Ang):
   XX=            -28.9662   YY=            -37.7828   ZZ=            -33.6999
   XY=              0.0000   XZ=              0.0000   YZ=             -1.9574
 Traceless Quadrupole moment (field-independent basis, Debye-Ang):
   XX=              4.5168   YY=             -4.2999   ZZ=             -0.2169
   XY=              0.0000   XZ=              0.0000   YZ=             -1.9574
 Octapole moment (field-independent basis, Debye-Ang**2):
  XXX=             -0.0000  YYY=             -9.2206  ZZZ=              3.0213  XYY=              0.0000
  XXY=              1.3766  XXZ=             -1.4272  XZZ=             -0.0000  YZZ=             -0.6698
  YYZ=             -4.3542  XYZ=              0.0000
 Hexadecapole moment (field-independent basis, Debye-Ang**3):
 XXXX=           -216.2178 YYYY=           -213.2283 ZZZZ=            -78.0811 XXXY=              0.0000
 XXXZ=              0.0000 YYYX=              0.0000 YYYZ=              0.9498 ZZZX=             -0.0000
 ZZZY=             -2.1334 XXYY=            -73.0709 XXZZ=            -51.5897 YYZZ=            -46.6576
 XXYZ=             -0.0539 YYXZ=             -0.0000 ZZXY=             -0.0000
 N-N= 1.818371779554D+02 E-N=-1.672608747493D+03  KE= 5.520934076744D+02
  Exact polarizability:      55.489       0.000      55.767      -0.000       1.138      43.147
 Approx polarizability:      72.731      -0.000      86.672      -0.000       4.921      61.300
 ******************************Gaussian NBO Version 3.1******************************
             N A T U R A L   A T O M I C   O R B I T A L   A N D
          N A T U R A L   B O N D   O R B I T A L   A N A L Y S I S
 ******************************Gaussian NBO Version 3.1******************************
       /RESON  / : Allow strongly delocalized NBO set

 Analyzing the SCF density

 Job title: CS(=O)C                                                         

 Storage needed:     57894 in NPA,     76720 in NBO (1258290600 available)
 GSVD:  LWork=        5930 too small for GESVD, short by       19587 words or       19587 for optimal perf.


 NATURAL POPULATIONS:  Natural atomic orbital occupancies 
                                                          
   NAO  Atom  No  lang   Type(AO)    Occupancy      Energy
 ----------------------------------------------------------
     1    C    1  S      Cor( 1S)     1.99926     -10.08274
     2    C    1  S      Val( 2S)     1.20524      -0.36907
     3    C    1  S      Ryd( 4S)     0.00159       0.87413
     4    C    1  S      Ryd( 3S)     0.00024       0.59426
     5    C    1  S      Ryd( 5S)     0.00000      23.21128
     6    C    1  px     Val( 2p)     1.15251      -0.16502
     7    C    1  px     Ryd( 4p)     0.00195       0.57884
     8    C    1  px     Ryd( 3p)     0.00050       0.32689
     9    C    1  px     Ryd( 5p)     0.00009       2.92396
    10    C    1  py     Val( 2p)     1.16958      -0.15230
    11    C    1  py     Ryd( 4p)     0.00163       0.54471
    12    C    1  py     Ryd( 3p)     0.00035       0.31414
    13    C    1  py     Ryd( 5p)     0.00007       2.98273
    14    C    1  pz     Val( 2p)     1.22075      -0.14590
    15    C    1  pz     Ryd( 4p)     0.00111       0.51823
    16    C    1  pz     Ryd( 3p)     0.00007       0.30440
    17    C    1  pz     Ryd( 5p)     0.00006       3.02001
    18    C    1  dxy    Ryd( 3d)     0.00089       1.95871
    19    C    1  dxz    Ryd( 3d)     0.00049       1.73653
    20    C    1  dyz    Ryd( 3d)     0.00065       1.90349
    21    C    1  dx2y2  Ryd( 3d)     0.00059       1.89932
    22    C    1  dz2    Ryd( 3d)     0.00100       2.13567
 
    23    S    2  S      Cor( 1S)     2.00000     -87.88534
    24    S    2  S      Cor( 2S)     1.99920      -8.88165
    25    S    2  S      Val( 3S)     1.50813      -0.67301
    26    S    2  S      Ryd( 5S)     0.02867       0.70334
    27    S    2  S      Ryd( 4S)     0.00029       0.49433
    28    S    2  S      Ryd( 6S)     0.00001      17.24141
    29    S    2  S      Ryd( 7S)     0.00000     179.30803
    30    S    2  px     Cor( 2p)     1.99994      -5.98683
    31    S    2  px     Val( 3p)     0.96757      -0.20246
    32    S    2  px     Ryd( 4p)     0.00349       0.66079
    33    S    2  px     Ryd( 6p)     0.00018       1.42041
    34    S    2  px     Ryd( 5p)     0.00014       0.74328
    35    S    2  px     Ryd( 7p)     0.00000      16.65289
    36    S    2  py     Cor( 2p)     1.99992      -5.98579
    37    S    2  py     Val( 3p)     0.80301      -0.17298
    38    S    2  py     Ryd( 4p)     0.00645       0.67286
    39    S    2  py     Ryd( 6p)     0.00203       1.38527
    40    S    2  py     Ryd( 5p)     0.00043       0.77497
    41    S    2  py     Ryd( 7p)     0.00000      16.66829
    42    S    2  pz     Cor( 2p)     1.99993      -5.98182
    43    S    2  pz     Val( 3p)     1.44160      -0.24203
    44    S    2  pz     Ryd( 5p)     0.00772       0.78281
    45    S    2  pz     Ryd( 6p)     0.00032       1.33668
    46    S    2  pz     Ryd( 4p)     0.00018       0.73607
    47    S    2  pz     Ryd( 7p)     0.00000      16.70459
    48    S    2  dxy    Ryd( 3d)     0.02812       0.89642
    49    S    2  dxz    Ryd( 3d)     0.00635       0.83979
    50    S    2  dyz    Ryd( 3d)     0.01499       0.95306
    51    S    2  dx2y2  Ryd( 3d)     0.00914       0.87205
    52    S    2  dz2    Ryd( 3d)     0.01573       0.80908
 
    53    O    3  S      Cor( 1S)     1.99986     -18.88027
    54    O    3  S      Val( 2S)     1.84945      -0.94868
    55    O    3  S      Ryd( 3S)     0.00205       1.08553
    56    O    3  S      Ryd( 4S)     0.00018       1.35210
    57    O    3  S      Ryd( 5S)     0.00000      49.58461
    58    O    3  px     Val( 2p)     1.81712      -0.26167
    59    O    3  px     Ryd( 3p)     0.00172       0.56763
    60    O    3  px     Ryd( 4p)     0.00010       1.16808
    61    O    3  px     Ryd( 5p)     0.00001       4.72793
    62    O    3  py     Val( 2p)     1.53350      -0.28435
    63    O    3  py     Ryd( 3p)     0.00333       0.69622
    64    O    3  py     Ryd( 4p)     0.00022       1.12664
    65    O    3  py     Ryd( 5p)     0.00006       4.84342
    66    O    3  pz     Val( 2p)     1.73736      -0.27213
    67    O    3  pz     Ryd( 3p)     0.00241       0.57779
    68    O    3  pz     Ryd( 4p)     0.00023       1.10649
    69    O    3  pz     Ryd( 5p)     0.00002       4.77744
    70    O    3  dxy    Ryd( 3d)     0.00090       2.93215
    71    O    3  dxz    Ryd( 3d)     0.00039       2.89558
    72    O    3  dyz    Ryd( 3d)     0.00109       3.23737
    73    O    3  dx2y2  Ryd( 3d)     0.00083       3.08915
    74    O    3  dz2    Ryd( 3d)     0.00075       2.92495
 
    75    C    4  S      Cor( 1S)     1.99926     -10.08274
    76    C    4  S      Val( 2S)     1.20524      -0.36907
    77    C    4  S      Ryd( 4S)     0.00159       0.87413
    78    C    4  S      Ryd( 3S)     0.00024       0.59426
    79    C    4  S      Ryd( 5S)     0.00000      23.21128
    80    C    4  px     Val( 2p)     1.15251      -0.16502
    81    C    4  px     Ryd( 4p)     0.00195       0.57884
    82    C    4  px     Ryd( 3p)     0.00050       0.32689
    83    C    4  px     Ryd( 5p)     0.00009       2.92396
    84    C    4  py     Val( 2p)     1.16958      -0.15230
    85    C    4  py     Ryd( 4p)     0.00163       0.54471
    86    C    4  py     Ryd( 3p)     0.00035       0.31414
    87    C    4  py     Ryd( 5p)     0.00007       2.98273
    88    C    4  pz     Val( 2p)     1.22075      -0.14590
    89    C    4  pz     Ryd( 4p)     0.00111       0.51823
    90    C    4  pz     Ryd( 3p)     0.00007       0.30440
    91    C    4  pz     Ryd( 5p)     0.00006       3.02001
    92    C    4  dxy    Ryd( 3d)     0.00089       1.95871
    93    C    4  dxz    Ryd( 3d)     0.00049       1.73653
    94    C    4  dyz    Ryd( 3d)     0.00065       1.90349
    95    C    4  dx2y2  Ryd( 3d)     0.00059       1.89932
    96    C    4  dz2    Ryd( 3d)     0.00100       2.13567
 
    97    H    5  S      Val( 1S)     0.77741       0.01122
    98    H    5  S      Ryd( 3S)     0.00123       0.65600
    99    H    5  S      Ryd( 4S)     0.00015       2.08426
   100    H    5  S      Ryd( 2S)     0.00008       0.21942
   101    H    5  px     Ryd( 2p)     0.00014       1.66826
   102    H    5  py     Ryd( 2p)     0.00011       1.70625
   103    H    5  pz     Ryd( 2p)     0.00037       2.61647
 
   104    H    6  S      Val( 1S)     0.77061       0.01786
   105    H    6  S      Ryd( 2S)     0.00081       0.51433
   106    H    6  S      Ryd( 3S)     0.00019       0.89821
   107    H    6  S      Ryd( 4S)     0.00012       1.50548
   108    H    6  px     Ryd( 2p)     0.00034       2.35632
   109    H    6  py     Ryd( 2p)     0.00019       1.87752
   110    H    6  pz     Ryd( 2p)     0.00009       1.73506
 
   111    H    7  S      Val( 1S)     0.78576      -0.00247
   112    H    7  S      Ryd( 2S)     0.00487       0.21142
   113    H    7  S      Ryd( 3S)     0.00055       0.37642
   114    H    7  S      Ryd( 4S)     0.00014       2.22984
   115    H    7  px     Ryd( 2p)     0.00016       1.66982
   116    H    7  py     Ryd( 2p)     0.00034       2.41654
   117    H    7  pz     Ryd( 2p)     0.00014       1.87693
 
   118    H    8  S      Val( 1S)     0.77061       0.01786
   119    H    8  S      Ryd( 2S)     0.00081       0.51433
   120    H    8  S      Ryd( 3S)     0.00019       0.89821
   121    H    8  S      Ryd( 4S)     0.00012       1.50548
   122    H    8  px     Ryd( 2p)     0.00034       2.35632
   123    H    8  py     Ryd( 2p)     0.00019       1.87752
   124    H    8  pz     Ryd( 2p)     0.00009       1.73506
 
   125    H    9  S      Val( 1S)     0.78576      -0.00247
   126    H    9  S      Ryd( 2S)     0.00487       0.21142
   127    H    9  S      Ryd( 3S)     0.00055       0.37642
   128    H    9  S      Ryd( 4S)     0.00014       2.22984
   129    H    9  px     Ryd( 2p)     0.00016       1.66982
   130    H    9  py     Ryd( 2p)     0.00034       2.41654
   131    H    9  pz     Ryd( 2p)     0.00014       1.87693
 
   132    H   10  S      Val( 1S)     0.77741       0.01122
   133    H   10  S      Ryd( 3S)     0.00123       0.65600
   134    H   10  S      Ryd( 4S)     0.00015       2.08426
   135    H   10  S      Ryd( 2S)     0.00008       0.21942
   136    H   10  px     Ryd( 2p)     0.00014       1.66826
   137    H   10  py     Ryd( 2p)     0.00011       1.70625
   138    H   10  pz     Ryd( 2p)     0.00037       2.61647

 WARNING:  Population inversion found on atom  C    1
           Population inversion found on atom  S    2
           Population inversion found on atom  C    4
           Population inversion found on atom  H    5
           Population inversion found on atom  H   10


 Summary of Natural Population Analysis:                  
                                                          
                                       Natural Population 
                Natural  -----------------------------------------------
    Atom  No    Charge         Core      Valence    Rydberg      Total
 -----------------------------------------------------------------------
      C    1   -0.75862      1.99926     4.74808    0.01129     6.75862
      S    2    1.15645      9.99899     4.72031    0.12425    14.84355
      O    3   -0.95160      1.99986     6.93743    0.01431     8.95160
      C    4   -0.75862      1.99926     4.74808    0.01129     6.75862
      H    5    0.22052      0.00000     0.77741    0.00207     0.77948
      H    6    0.22764      0.00000     0.77061    0.00175     0.77236
      H    7    0.20804      0.00000     0.78576    0.00620     0.79196
      H    8    0.22764      0.00000     0.77061    0.00175     0.77236
      H    9    0.20804      0.00000     0.78576    0.00620     0.79196
      H   10    0.22052      0.00000     0.77741    0.00207     0.77948
 =======================================================================
   * Total *    0.00000     15.99736    25.82146    0.18118    42.00000

                                 Natural Population      
 --------------------------------------------------------
   Core                      15.99736 ( 99.9835% of  16)
   Valence                   25.82146 ( 99.3133% of  26)
   Natural Minimal Basis     41.81882 ( 99.5686% of  42)
   Natural Rydberg Basis      0.18118 (  0.4314% of  42)
 --------------------------------------------------------

    Atom  No          Natural Electron Configuration
 ----------------------------------------------------------------------------
      C    1      [core]2S( 1.21)2p( 3.54)
      S    2      [core]3S( 1.51)3p( 3.21)3d( 0.07)4p( 0.01)5S( 0.03)5p( 0.01)
      O    3      [core]2S( 1.85)2p( 5.09)3p( 0.01)
      C    4      [core]2S( 1.21)2p( 3.54)
      H    5            1S( 0.78)
      H    6            1S( 0.77)
      H    7            1S( 0.79)
      H    8            1S( 0.77)
      H    9            1S( 0.79)
      H   10            1S( 0.78)


 NATURAL BOND ORBITAL ANALYSIS:

                       Occupancies       Lewis Structure    Low   High
           Occ.    -------------------  -----------------   occ   occ
  Cycle   Thresh.   Lewis   Non-Lewis     CR  BD  3C  LP    (L)   (NL)   Dev
 =============================================================================
   1(1)    1.90    40.60786   1.39214      8  10   0   3     2      3    0.92
   2(2)    1.90    40.60786   1.39214      8  10   0   3     2      3    0.92
   3(1)    1.80    41.59167   0.40833      8   9   0   4     0      2    0.24
   4(2)    1.80    41.59167   0.40833      8   9   0   4     0      2    0.24
   5(1)    1.70    41.59167   0.40833      8   9   0   4     0      2    0.24
   6(2)    1.70    41.59167   0.40833      8   9   0   4     0      2    0.24
   7(1)    1.60    41.59167   0.40833      8   9   0   4     0      2    0.24
   8(2)    1.60    41.59167   0.40833      8   9   0   4     0      2    0.24
   9(1)    1.50    41.59167   0.40833      8   9   0   4     0      2    0.24
  10(2)    1.50    41.59167   0.40833      8   9   0   4     0      2    0.24
  11(1)    1.80    41.59167   0.40833      8   9   0   4     0      2    0.24
 -----------------------------------------------------------------------------

 Structure accepted: RESONANCE keyword permits strongly delocalized structure

 --------------------------------------------------------
   Core                     15.99735 ( 99.983% of  16)
   Valence Lewis            25.59431 ( 98.440% of  26)
  ==================       ============================
   Total Lewis              41.59167 ( 99.028% of  42)
  -----------------------------------------------------
   Valence non-Lewis         0.29377 (  0.699% of  42)
   Rydberg non-Lewis         0.11456 (  0.273% of  42)
  ==================       ============================
   Total non-Lewis           0.40833 (  0.972% of  42)
 --------------------------------------------------------


       (Occupancy)   Bond orbital/ Coefficients/ Hybrids
 ---------------------------------------------------------------------------------
     1. (1.98661) BD ( 1) C   1 - S   2  
                ( 51.96%)   0.7208* C   1 s( 20.68%)p 3.83( 79.24%)d 0.00(  0.09%)
                                            0.0001  0.4547 -0.0016 -0.0062 -0.0007
                                            0.6788  0.0141 -0.0123 -0.0055  0.4914
                                           -0.0114 -0.0043 -0.0043 -0.2993  0.0018
                                            0.0014  0.0021  0.0212 -0.0131 -0.0092
                                            0.0070 -0.0099
                ( 48.04%)   0.6931* S   2 s( 15.04%)p 5.58( 83.96%)d 0.07(  1.00%)
                                           -0.0000  0.0001  0.3846 -0.0489  0.0061
                                            0.0010 -0.0000  0.0000 -0.7013 -0.0320
                                            0.0058  0.0014 -0.0001 -0.0000 -0.4741
                                           -0.0184  0.0124  0.0021 -0.0005  0.0000
                                            0.3476 -0.0240 -0.0024 -0.0021  0.0003
                                            0.0719 -0.0433 -0.0462  0.0124 -0.0253
     2. (1.99421) BD ( 1) C   1 - H   5  
                ( 61.37%)   0.7834* C   1 s( 26.84%)p 2.72( 73.10%)d 0.00(  0.06%)
                                            0.0001  0.5180  0.0003  0.0024  0.0002
                                            0.0860  0.0103  0.0030 -0.0007 -0.0822
                                            0.0020  0.0001 -0.0018  0.8466 -0.0035
                                            0.0036  0.0029  0.0005  0.0064 -0.0028
                                            0.0001  0.0230
                ( 38.63%)   0.6215* H   5 s( 99.96%)p 0.00(  0.04%)
                                            0.9998  0.0032  0.0004  0.0001  0.0008
                                            0.0015 -0.0204
     3. (1.99186) BD ( 1) C   1 - H   6  
                ( 61.48%)   0.7841* C   1 s( 26.03%)p 2.84( 73.91%)d 0.00(  0.06%)
                                            0.0000  0.5102  0.0034  0.0030  0.0003
                                           -0.7276  0.0037 -0.0030 -0.0026  0.4128
                                            0.0047  0.0042  0.0002 -0.1981 -0.0055
                                           -0.0011 -0.0009 -0.0173  0.0095 -0.0068
                                            0.0076 -0.0107
                ( 38.52%)   0.6206* H   6 s( 99.96%)p 0.00(  0.04%)
                                            0.9998  0.0010  0.0001  0.0005  0.0184
                                           -0.0085  0.0027
     4. (1.99001) BD ( 1) C   1 - H   7  
                ( 60.76%)   0.7795* C   1 s( 26.42%)p 2.78( 73.52%)d 0.00(  0.06%)
                                           -0.0001  0.5140  0.0013  0.0014  0.0000
                                            0.0348  0.0107  0.0006  0.0002 -0.7617
                                            0.0102 -0.0022 -0.0011 -0.3919 -0.0005
                                           -0.0005 -0.0008 -0.0032 -0.0033  0.0185
                                           -0.0150 -0.0034
                ( 39.24%)   0.6264* H   7 s( 99.95%)p 0.00(  0.05%)
                                            0.9998 -0.0044  0.0009  0.0003  0.0034
                                            0.0196  0.0081
     5. (1.99167) BD ( 1) S   2 - O   3  
                ( 37.97%)   0.6162* S   2 s( 20.35%)p 3.85( 78.40%)d 0.06(  1.24%)
                                           -0.0000  0.0002  0.4366 -0.1133 -0.0096
                                           -0.0005 -0.0000  0.0000 -0.0000 -0.0000
                                           -0.0000 -0.0000  0.0000 -0.0001  0.7230
                                            0.0685  0.0219  0.0012 -0.0013 -0.0000
                                            0.5059  0.0129  0.0031 -0.0031 -0.0006
                                           -0.0000 -0.0000  0.0940 -0.0597  0.0055
                ( 62.03%)   0.7876* O   3 s( 19.31%)p 4.17( 80.58%)d 0.01(  0.11%)
                                            0.0000  0.4378 -0.0375 -0.0015 -0.0000
                                            0.0000 -0.0000 -0.0000 -0.0000 -0.7453
                                            0.0401  0.0099  0.0015 -0.4981  0.0229
                                           -0.0001 -0.0002 -0.0000 -0.0000  0.0260
                                           -0.0206 -0.0030
     6. (1.98661) BD ( 1) S   2 - C   4  
                ( 48.04%)   0.6931* S   2 s( 15.04%)p 5.58( 83.96%)d 0.07(  1.00%)
                                           -0.0000  0.0001  0.3846 -0.0489  0.0061
                                            0.0010 -0.0000 -0.0000  0.7013  0.0320
                                           -0.0058 -0.0014  0.0001 -0.0000 -0.4741
                                           -0.0184  0.0124  0.0021 -0.0005  0.0000
                                            0.3476 -0.0240 -0.0024 -0.0021  0.0003
                                           -0.0719  0.0433 -0.0462  0.0124 -0.0253
                ( 51.96%)   0.7208* C   4 s( 20.68%)p 3.83( 79.24%)d 0.00(  0.09%)
                                            0.0001  0.4547 -0.0016 -0.0062 -0.0007
                                           -0.6788 -0.0141  0.0123  0.0055  0.4914
                                           -0.0114 -0.0043 -0.0043 -0.2993  0.0018
                                            0.0014  0.0021 -0.0212  0.0131 -0.0092
                                            0.0070 -0.0099
     7. (1.99186) BD ( 1) C   4 - H   8  
                ( 61.48%)   0.7841* C   4 s( 26.03%)p 2.84( 73.91%)d 0.00(  0.06%)
                                            0.0000  0.5102  0.0034  0.0030  0.0003
                                            0.7276 -0.0037  0.0030  0.0026  0.4128
                                            0.0047  0.0042  0.0002 -0.1981 -0.0055
                                           -0.0011 -0.0009  0.0173 -0.0095 -0.0068
                                            0.0076 -0.0107
                ( 38.52%)   0.6206* H   8 s( 99.96%)p 0.00(  0.04%)
                                            0.9998  0.0010  0.0001  0.0005 -0.0184
                                           -0.0085  0.0027
     8. (1.99001) BD ( 1) C   4 - H   9  
                ( 60.76%)   0.7795* C   4 s( 26.42%)p 2.78( 73.52%)d 0.00(  0.06%)
                                           -0.0001  0.5140  0.0013  0.0014  0.0000
                                           -0.0348 -0.0107 -0.0006 -0.0002 -0.7617
                                            0.0102 -0.0022 -0.0011 -0.3919 -0.0005
                                           -0.0005 -0.0008  0.0032  0.0033  0.0185
                                           -0.0150 -0.0034
                ( 39.24%)   0.6264* H   9 s( 99.95%)p 0.00(  0.05%)
                                            0.9998 -0.0044  0.0009  0.0003 -0.0034
                                            0.0196  0.0081
     9. (1.99421) BD ( 1) C   4 - H  10  
                ( 61.37%)   0.7834* C   4 s( 26.84%)p 2.72( 73.10%)d 0.00(  0.06%)
                                            0.0001  0.5180  0.0003  0.0024  0.0002
                                           -0.0860 -0.0103 -0.0030  0.0007 -0.0822
                                            0.0020  0.0001 -0.0018  0.8466 -0.0035
                                            0.0036  0.0029 -0.0005 -0.0064 -0.0028
                                            0.0001  0.0230
                ( 38.63%)   0.6215* H  10 s( 99.96%)p 0.00(  0.04%)
                                            0.9998  0.0032  0.0004  0.0001 -0.0008
                                            0.0015 -0.0204
    10. (1.99925) CR ( 1) C   1           s(100.00%)p 0.00(  0.00%)
                                            1.0000 -0.0001  0.0000  0.0000  0.0000
                                           -0.0001 -0.0000  0.0000  0.0000 -0.0001
                                            0.0000  0.0000  0.0000 -0.0000  0.0000
                                           -0.0000 -0.0000 -0.0000  0.0000  0.0000
                                           -0.0000 -0.0000
    11. (2.00000) CR ( 1) S   2           s(100.00%)
                                            1.0000  0.0000  0.0000  0.0000 -0.0000
                                           -0.0000  0.0000  0.0000  0.0000  0.0000
                                           -0.0000 -0.0000  0.0000  0.0000  0.0000
                                            0.0000  0.0000  0.0000 -0.0000  0.0000
                                           -0.0000  0.0000 -0.0000 -0.0000  0.0000
                                           -0.0000  0.0000  0.0000  0.0000 -0.0000
    12. (1.99920) CR ( 2) S   2           s(100.00%)
                                            0.0000  1.0000 -0.0002  0.0000  0.0000
                                           -0.0000  0.0000 -0.0000  0.0000  0.0000
                                            0.0000  0.0000 -0.0000  0.0000 -0.0001
                                           -0.0000 -0.0000 -0.0000  0.0000 -0.0000
                                           -0.0000 -0.0000 -0.0000  0.0000  0.0000
                                           -0.0000  0.0000 -0.0000  0.0000  0.0000
    13. (1.99994) CR ( 3) S   2           s(  0.00%)p 1.00(100.00%)
                                            0.0000 -0.0000  0.0000  0.0000 -0.0000
                                           -0.0000  0.0000  1.0000  0.0001  0.0000
                                           -0.0000 -0.0000  0.0000  0.0000  0.0000
                                            0.0000 -0.0000  0.0000  0.0000  0.0000
                                           -0.0000  0.0000 -0.0000  0.0000  0.0000
                                           -0.0000  0.0000  0.0000  0.0000  0.0000
    14. (1.99992) CR ( 4) S   2           s(  0.00%)p 1.00(100.00%)
                                            0.0000  0.0000  0.0000 -0.0000 -0.0000
                                            0.0000 -0.0000  0.0000 -0.0000 -0.0000
                                           -0.0000  0.0000  0.0000  1.0000  0.0000
                                            0.0000  0.0000 -0.0000 -0.0000 -0.0000
                                            0.0001 -0.0000  0.0000 -0.0000 -0.0000
                                           -0.0000 -0.0000  0.0000 -0.0000 -0.0000
    15. (1.99993) CR ( 5) S   2           s(  0.00%)p 1.00(100.00%)
                                            0.0000 -0.0000 -0.0000 -0.0000 -0.0000
                                           -0.0000 -0.0000  0.0000  0.0000  0.0000
                                           -0.0000  0.0000  0.0000 -0.0000  0.0000
                                            0.0000 -0.0000 -0.0000  0.0000  1.0000
                                            0.0000 -0.0000  0.0000  0.0000 -0.0000
                                           -0.0000  0.0000  0.0000 -0.0000  0.0000
    16. (1.99986) CR ( 1) O   3           s(100.00%)p 0.00(  0.00%)
                                            1.0000  0.0001  0.0000  0.0000  0.0000
                                           -0.0000  0.0000  0.0000  0.0000  0.0002
                                            0.0000 -0.0000  0.0000 -0.0001 -0.0000
                                           -0.0000  0.0000  0.0000 -0.0000  0.0000
                                            0.0000  0.0000
    17. (1.99925) CR ( 1) C   4           s(100.00%)p 0.00(  0.00%)
                                            1.0000 -0.0001  0.0000  0.0000  0.0000
                                            0.0001  0.0000 -0.0000 -0.0000 -0.0001
                                            0.0000  0.0000  0.0000 -0.0000  0.0000
                                           -0.0000 -0.0000  0.0000 -0.0000  0.0000
                                           -0.0000 -0.0000
    18. (1.97341) LP ( 1) S   2           s( 51.26%)p 0.95( 48.71%)d 0.00(  0.03%)
                                           -0.0000  0.0001  0.7139  0.0551 -0.0012
                                           -0.0005  0.0000 -0.0000  0.0000 -0.0000
                                           -0.0000 -0.0000  0.0000  0.0000  0.0623
                                            0.0083 -0.0038  0.0113 -0.0002  0.0000
                                           -0.6934  0.0469 -0.0008 -0.0004  0.0003
                                            0.0000 -0.0000  0.0020  0.0161  0.0038
    19. (1.99436) LP ( 1) O   3           s( 79.91%)p 0.25( 20.09%)d 0.00(  0.00%)
                                           -0.0001  0.8938  0.0112  0.0002 -0.0000
                                           -0.0000  0.0000  0.0000 -0.0000  0.3028
                                           -0.0134 -0.0025  0.0046  0.3302 -0.0052
                                           -0.0000  0.0029  0.0000  0.0000 -0.0039
                                            0.0014 -0.0021
    20. (1.89076) LP ( 2) O   3           s(  0.92%)p99.99( 99.02%)d 0.07(  0.06%)
                                           -0.0002  0.0956  0.0005  0.0040  0.0001
                                            0.0000  0.0000 -0.0000  0.0000  0.5909
                                            0.0093 -0.0003 -0.0001 -0.8004 -0.0173
                                           -0.0053  0.0002  0.0000 -0.0000  0.0102
                                            0.0123  0.0190
    21. (1.81873) LP ( 3) O   3           s(  0.00%)p 1.00( 99.93%)d 0.00(  0.07%)
                                            0.0000 -0.0000  0.0000  0.0000  0.0000
                                            0.9996  0.0141  0.0011 -0.0017  0.0000
                                            0.0000  0.0000 -0.0000  0.0000  0.0000
                                            0.0000 -0.0000 -0.0218 -0.0145 -0.0000
                                            0.0000 -0.0000
    22. (0.00272) RY*( 1) C   1           s( 34.58%)p 1.77( 61.13%)d 0.12(  4.30%)
                                           -0.0000  0.0101  0.5855  0.0528 -0.0103
                                            0.0076 -0.5577 -0.1011 -0.0298  0.0008
                                            0.1987  0.1279  0.0211  0.0039  0.4671
                                            0.1209 -0.0060  0.0505  0.1134  0.0765
                                            0.0567 -0.1360
    23. (0.00213) RY*( 2) C   1           s( 29.70%)p 2.14( 63.46%)d 0.23(  6.84%)
                                            0.0000 -0.0044  0.5251 -0.1451  0.0115
                                           -0.0099  0.2167 -0.1907 -0.0087 -0.0129
                                           -0.6927 -0.1356  0.0379  0.0064 -0.2121
                                            0.0502 -0.0611  0.0938  0.0536  0.0596
                                            0.1323 -0.1889
    24. (0.00103) RY*( 3) C   1           s(  7.89%)p11.05( 87.23%)d 0.62(  4.87%)
                                            0.0000  0.0085  0.0822  0.2682 -0.0125
                                            0.0056 -0.4654  0.4021 -0.1657 -0.0022
                                           -0.2349  0.3331 -0.1612 -0.0072 -0.5050
                                           -0.0295  0.1355  0.0423 -0.1157 -0.1444
                                           -0.0526  0.0997
    25. (0.00044) RY*( 4) C   1           s(  5.09%)p10.98( 55.87%)d 7.68( 39.05%)
                                            0.0000  0.0006 -0.0857  0.2086  0.0053
                                           -0.0131  0.1709  0.0495  0.1214  0.0026
                                           -0.4056  0.2660 -0.0986 -0.0022  0.5054
                                            0.0281  0.1041  0.2253 -0.0123 -0.1637
                                           -0.5509  0.0963
    26. (0.00016) RY*( 5) C   1           s( 10.50%)p 7.34( 77.14%)d 1.18( 12.36%)
                                            0.0000 -0.0131  0.3231 -0.0047 -0.0218
                                            0.0011  0.4476 -0.2678 -0.2082 -0.0042
                                            0.2900  0.5193 -0.1788  0.0001 -0.0736
                                           -0.0282  0.2531 -0.1531 -0.2411 -0.1804
                                            0.0725  0.0651
    27. (0.00012) RY*( 6) C   1           s( 17.69%)p 2.09( 37.05%)d 2.56( 45.26%)
                                           -0.0000 -0.0077  0.3214  0.2708  0.0140
                                            0.0100  0.2996  0.2417  0.0784  0.0188
                                            0.3374 -0.0760 -0.0075 -0.0023 -0.2825
                                            0.0419 -0.1203  0.1235  0.4476  0.2356
                                           -0.4205 -0.0684
    28. (0.00009) RY*( 7) C   1           s( 15.56%)p 3.74( 58.18%)d 1.69( 26.26%)
    29. (0.00001) RY*( 8) C   1           s( 15.18%)p 1.53( 23.23%)d 4.06( 61.59%)
    30. (0.00000) RY*( 9) C   1           s(  0.46%)p99.99( 99.26%)d 0.63(  0.29%)
    31. (0.00000) RY*(10) C   1           s(  0.17%)p99.99( 97.79%)d11.80(  2.03%)
    32. (0.00000) RY*(11) C   1           s(  0.67%)p99.99( 97.75%)d 2.36(  1.58%)
    33. (0.00000) RY*(12) C   1           s(  0.26%)p99.99( 98.54%)d 4.62(  1.20%)
    34. (0.00000) RY*(13) C   1           s(  2.50%)p 6.14( 15.35%)d32.87( 82.15%)
    35. (0.00000) RY*(14) C   1           s( 99.60%)p 0.00(  0.26%)d 0.00(  0.14%)
    36. (0.00001) RY*(15) C   1           s(  1.54%)p 9.13( 14.03%)d54.96( 84.43%)
    37. (0.00000) RY*(16) C   1           s( 56.36%)p 0.21( 11.64%)d 0.57( 32.00%)
    38. (0.00000) RY*(17) C   1           s(  2.29%)p 1.01(  2.32%)d41.57( 95.38%)
    39. (0.03484) RY*( 1) S   2           s( 20.69%)p 0.70( 14.50%)d 3.13( 64.80%)
                                            0.0000 -0.0000  0.0234  0.4542 -0.0074
                                            0.0049 -0.0003  0.0000  0.0000 -0.0000
                                            0.0000  0.0000  0.0000  0.0000 -0.0558
                                            0.2336 -0.1544 -0.0147  0.0020  0.0000
                                            0.0849  0.2311  0.0129  0.0497  0.0053
                                            0.0000 -0.0000  0.3674  0.2548  0.6695
    40. (0.03131) RY*( 2) S   2           s(  0.00%)p 1.00(  9.63%)d 9.39( 90.37%)
                                            0.0000 -0.0000 -0.0000 -0.0000  0.0000
                                            0.0000 -0.0000  0.0000  0.0992 -0.2853
                                            0.0553  0.0438  0.0068 -0.0000  0.0000
                                           -0.0000  0.0000  0.0000 -0.0000 -0.0000
                                           -0.0000 -0.0000  0.0000 -0.0000 -0.0000
                                            0.9359  0.1668 -0.0000 -0.0000 -0.0000
    41. (0.00468) RY*( 3) S   2           s(  0.91%)p13.86( 12.56%)d95.50( 86.53%)
                                            0.0000 -0.0000  0.0100  0.0700 -0.0634
                                            0.0066  0.0000 -0.0000 -0.0000  0.0000
                                           -0.0000  0.0000  0.0000  0.0000  0.1138
                                           -0.1850  0.1731  0.0859  0.0090 -0.0000
                                            0.0501  0.1587  0.1092  0.0357  0.0111
                                            0.0000  0.0000 -0.5954  0.7125  0.0568
    42. (0.00379) RY*( 4) S   2           s( 26.55%)p 0.92( 24.51%)d 1.84( 48.94%)
                                            0.0000 -0.0000  0.0331  0.5138 -0.0140
                                            0.0130  0.0001  0.0000 -0.0000 -0.0000
                                            0.0000 -0.0000  0.0000  0.0000  0.0539
                                           -0.3761 -0.1565  0.0866 -0.0091 -0.0000
                                            0.0781  0.2020 -0.1059  0.1028 -0.0023
                                           -0.0000  0.0000 -0.4317 -0.5397  0.1086
    43. (0.00248) RY*( 5) S   2           s( 11.10%)p 5.11( 56.67%)d 2.90( 32.23%)
                                            0.0000 -0.0000  0.0326  0.3290 -0.0341
                                            0.0217  0.0004  0.0000 -0.0000  0.0000
                                            0.0000 -0.0000  0.0000  0.0000  0.0476
                                           -0.4266 -0.3391  0.1542 -0.0091 -0.0000
                                            0.0432 -0.4031 -0.2754  0.0567 -0.0165
                                            0.0000  0.0000  0.3280  0.3355 -0.3196
    44. (0.00109) RY*( 6) S   2           s(  0.00%)p 1.00(  4.24%)d22.59( 95.76%)
                                           -0.0000  0.0000 -0.0000  0.0000 -0.0000
                                            0.0000 -0.0000 -0.0000 -0.0777  0.0503
                                           -0.1715 -0.0665  0.0008  0.0000 -0.0000
                                           -0.0000  0.0000 -0.0000 -0.0000  0.0000
                                           -0.0000  0.0000  0.0000 -0.0000  0.0000
                                           -0.1359  0.9691  0.0000 -0.0000  0.0000
    45. (0.00025) RY*( 7) S   2           s(  0.00%)p 1.00( 94.50%)d 0.06(  5.50%)
                                           -0.0000  0.0000 -0.0000 -0.0000  0.0000
                                           -0.0000 -0.0000 -0.0000 -0.0172  0.8764
                                            0.3166  0.2763  0.0079  0.0000 -0.0000
                                           -0.0000 -0.0000 -0.0000  0.0000  0.0000
                                           -0.0000  0.0000  0.0000  0.0000 -0.0000
                                            0.2266  0.0599  0.0000 -0.0000  0.0000
    46. (0.00025) RY*( 8) S   2           s( 47.11%)p 1.04( 49.19%)d 0.08(  3.69%)
                                            0.0000 -0.0000  0.0137  0.2398  0.6397
                                           -0.0646 -0.0001 -0.0000 -0.0000  0.0000
                                           -0.0000 -0.0000  0.0000  0.0000  0.0321
                                            0.2091  0.0992  0.2809 -0.0080 -0.0000
                                            0.0099 -0.4547  0.1754 -0.3470  0.0179
                                           -0.0000  0.0000 -0.1688 -0.0321  0.0860
    47. (0.00007) RY*( 9) S   2           s(  0.00%)p 1.00( 99.61%)d 0.00(  0.39%)
    48. (0.00008) RY*(10) S   2           s( 19.65%)p 3.19( 62.61%)d 0.90( 17.74%)
    49. (0.00001) RY*(11) S   2           s( 18.65%)p 3.83( 71.38%)d 0.53(  9.97%)
    50. (0.00000) RY*(12) S   2           s(  0.05%)p99.99( 99.90%)d 1.05(  0.05%)
    51. (0.00001) RY*(13) S   2           s( 40.50%)p 1.16( 47.06%)d 0.31( 12.45%)
    52. (0.00000) RY*(14) S   2           s(  5.92%)p14.82( 87.70%)d 1.08(  6.38%)
    53. (0.00000) RY*(15) S   2           s(  7.40%)p12.46( 92.26%)d 0.04(  0.33%)
    54. (0.00000) RY*(16) S   2           s(  0.01%)p99.99( 99.97%)d 0.77(  0.01%)
    55. (0.00000) RY*(17) S   2           s(  0.00%)p 1.00( 93.44%)d 0.07(  6.56%)
    56. (0.00000) RY*(18) S   2           s(100.00%)p 0.00(  0.00%)d 0.00(  0.00%)
    57. (0.00000) RY*(19) S   2           s(  0.00%)p 1.00( 99.99%)d 0.00(  0.01%)
    58. (0.00000) RY*(20) S   2           s( 99.68%)p 0.00(  0.27%)d 0.00(  0.05%)
    59. (0.00000) RY*(21) S   2           s(  0.09%)p99.99( 84.95%)d99.99( 14.96%)
    60. (0.00210) RY*( 1) O   3           s(  0.67%)p99.99( 95.84%)d 5.25(  3.50%)
                                            0.0000  0.0025  0.0304  0.0756  0.0013
                                            0.0000 -0.0000  0.0000 -0.0000 -0.0046
                                           -0.6608  0.0231 -0.0520 -0.0178  0.6792
                                           -0.2380  0.0136  0.0000 -0.0000  0.0428
                                            0.0948  0.1554
    61. (0.00149) RY*( 2) O   3           s(  0.00%)p 1.00( 97.05%)d 0.03(  2.95%)
                                           -0.0000  0.0000  0.0000  0.0000 -0.0000
                                           -0.0087  0.9550 -0.2401  0.0290 -0.0000
                                            0.0000 -0.0000 -0.0000 -0.0000  0.0000
                                           -0.0000  0.0000  0.1594  0.0638  0.0000
                                           -0.0000  0.0000
    62. (0.00040) RY*( 3) O   3           s( 56.10%)p 0.71( 39.96%)d 0.07(  3.94%)
                                           -0.0000 -0.0095 -0.5289  0.5303 -0.0040
                                           -0.0000 -0.0000 -0.0000 -0.0000  0.0411
                                            0.3280  0.3462  0.0219  0.0290  0.3390
                                            0.2297  0.0389 -0.0000 -0.0000  0.1779
                                           -0.0660  0.0584
    63. (0.00014) RY*( 4) O   3           s( 10.01%)p 8.42( 84.29%)d 0.57(  5.70%)
                                            0.0000  0.0072  0.1443  0.2815 -0.0037
                                            0.0000  0.0000 -0.0000 -0.0000 -0.0338
                                           -0.5010  0.4583  0.0647 -0.0202 -0.4104
                                            0.4527  0.0522  0.0000  0.0000 -0.1540
                                            0.1640  0.0797
    64. (0.00005) RY*( 5) O   3           s( 33.79%)p 1.70( 57.32%)d 0.26(  8.90%)
    65. (0.00002) RY*( 6) O   3           s(  0.00%)p 1.00( 97.62%)d 0.02(  2.38%)
    66. (0.00000) RY*( 7) O   3           s( 88.79%)p 0.12( 10.73%)d 0.01(  0.48%)
    67. (0.00000) RY*( 8) O   3           s( 99.97%)p 0.00(  0.03%)d 0.00(  0.00%)
    68. (0.00000) RY*( 9) O   3           s(  8.35%)p10.87( 90.78%)d 0.10(  0.87%)
    69. (0.00000) RY*(10) O   3           s(  0.00%)p 1.00(100.00%)d 0.00(  0.00%)
    70. (0.00001) RY*(11) O   3           s(  0.41%)p99.99( 99.07%)d 1.30(  0.53%)
    71. (0.00000) RY*(12) O   3           s(  0.64%)p99.99( 99.27%)d 0.15(  0.09%)
    72. (0.00000) RY*(13) O   3           s(  0.00%)p 1.00(  2.91%)d33.34( 97.09%)
    73. (0.00000) RY*(14) O   3           s(  0.00%)p 1.00(  2.49%)d39.12( 97.51%)
    74. (0.00000) RY*(15) O   3           s(  0.03%)p99.99( 11.75%)d99.99( 88.22%)
    75. (0.00000) RY*(16) O   3           s(  0.50%)p 8.06(  4.03%)d99.99( 95.47%)
    76. (0.00000) RY*(17) O   3           s(  0.62%)p11.66(  7.24%)d99.99( 92.14%)
    77. (0.00272) RY*( 1) C   4           s( 34.58%)p 1.77( 61.13%)d 0.12(  4.30%)
                                           -0.0000  0.0101  0.5855  0.0528 -0.0103
                                           -0.0076  0.5577  0.1011  0.0298  0.0008
                                            0.1987  0.1279  0.0211  0.0039  0.4671
                                            0.1209 -0.0060 -0.0505 -0.1134  0.0765
                                            0.0567 -0.1360
    78. (0.00213) RY*( 2) C   4           s( 29.70%)p 2.14( 63.46%)d 0.23(  6.84%)
                                            0.0000 -0.0044  0.5251 -0.1451  0.0115
                                            0.0099 -0.2167  0.1907  0.0087 -0.0129
                                           -0.6927 -0.1356  0.0379  0.0064 -0.2121
                                            0.0502 -0.0611 -0.0938 -0.0536  0.0596
                                            0.1323 -0.1889
    79. (0.00103) RY*( 3) C   4           s(  7.89%)p11.05( 87.23%)d 0.62(  4.87%)
                                            0.0000  0.0085  0.0822  0.2682 -0.0125
                                           -0.0056  0.4654 -0.4021  0.1657 -0.0022
                                           -0.2349  0.3331 -0.1612 -0.0072 -0.5050
                                           -0.0295  0.1355 -0.0423  0.1157 -0.1444
                                           -0.0526  0.0997
    80. (0.00044) RY*( 4) C   4           s(  5.09%)p10.98( 55.87%)d 7.68( 39.05%)
                                            0.0000  0.0006 -0.0857  0.2086  0.0053
                                            0.0131 -0.1709 -0.0495 -0.1214  0.0026
                                           -0.4056  0.2660 -0.0986 -0.0022  0.5054
                                            0.0281  0.1041 -0.2253  0.0123 -0.1637
                                           -0.5509  0.0963
    81. (0.00016) RY*( 5) C   4           s( 10.50%)p 7.34( 77.14%)d 1.18( 12.36%)
                                            0.0000 -0.0131  0.3231 -0.0047 -0.0218
                                           -0.0011 -0.4476  0.2678  0.2082 -0.0042
                                            0.2900  0.5193 -0.1788  0.0001 -0.0736
                                           -0.0282  0.2531  0.1531  0.2411 -0.1804
                                            0.0725  0.0651
    82. (0.00012) RY*( 6) C   4           s( 17.69%)p 2.09( 37.05%)d 2.56( 45.26%)
                                           -0.0000 -0.0077  0.3214  0.2708  0.0140
                                           -0.0100 -0.2996 -0.2417 -0.0784  0.0188
                                            0.3374 -0.0760 -0.0075 -0.0023 -0.2825
                                            0.0419 -0.1203 -0.1235 -0.4476  0.2356
                                           -0.4205 -0.0684
    83. (0.00009) RY*( 7) C   4           s( 15.56%)p 3.74( 58.18%)d 1.69( 26.26%)
    84. (0.00001) RY*( 8) C   4           s( 15.18%)p 1.53( 23.23%)d 4.06( 61.59%)
    85. (0.00000) RY*( 9) C   4           s(  0.46%)p99.99( 99.26%)d 0.63(  0.29%)
    86. (0.00000) RY*(10) C   4           s(  0.17%)p99.99( 97.79%)d11.80(  2.03%)
    87. (0.00000) RY*(11) C   4           s(  0.67%)p99.99( 97.75%)d 2.36(  1.58%)
    88. (0.00000) RY*(12) C   4           s(  0.26%)p99.99( 98.54%)d 4.62(  1.20%)
    89. (0.00000) RY*(13) C   4           s(  2.50%)p 6.14( 15.35%)d32.87( 82.15%)
    90. (0.00000) RY*(14) C   4           s( 99.60%)p 0.00(  0.26%)d 0.00(  0.14%)
    91. (0.00001) RY*(15) C   4           s(  1.54%)p 9.13( 14.03%)d54.96( 84.43%)
    92. (0.00000) RY*(16) C   4           s( 56.36%)p 0.21( 11.64%)d 0.57( 32.00%)
    93. (0.00000) RY*(17) C   4           s(  2.29%)p 1.01(  2.32%)d41.57( 95.38%)
    94. (0.00124) RY*( 1) H   5           s( 99.23%)p 0.01(  0.77%)
                                           -0.0037  0.9961  0.0029  0.0007  0.0373
                                            0.0776 -0.0173
    95. (0.00020) RY*( 2) H   5           s( 44.72%)p 1.24( 55.28%)
                                            0.0013 -0.0538  0.6614  0.0824  0.6176
                                            0.3956  0.1219
    96. (0.00012) RY*( 3) H   5           s( 52.17%)p 0.92( 47.83%)
                                            0.0044  0.0545  0.7121 -0.1075 -0.4952
                                           -0.4453  0.1866
    97. (0.00008) RY*( 4) H   5           s( 90.31%)p 0.11(  9.69%)
    98. (0.00008) RY*( 5) H   5           s(  0.88%)p99.99( 99.12%)
    99. (0.00003) RY*( 6) H   5           s( 12.73%)p 6.85( 87.27%)
   100. (0.00082) RY*( 1) H   6           s( 99.25%)p 0.01(  0.75%)
                                           -0.0016  0.9963  0.0010 -0.0002  0.0453
                                            0.0440  0.0590
   101. (0.00020) RY*( 2) H   6           s( 88.96%)p 0.12( 11.04%)
                                            0.0017 -0.0156  0.9340  0.1303  0.0533
                                            0.3260 -0.0360
   102. (0.00017) RY*( 3) H   6           s( 32.79%)p 2.05( 67.21%)
                                           -0.0010 -0.0298 -0.3293  0.4675  0.3956
                                            0.6590 -0.2851
   103. (0.00012) RY*( 4) H   6           s( 60.69%)p 0.65( 39.31%)
                                            0.0054  0.0510  0.0367  0.7765 -0.4469
                                           -0.3668 -0.2424
   104. (0.00007) RY*( 5) H   6           s( 10.37%)p 8.64( 89.63%)
   105. (0.00004) RY*( 6) H   6           s(  7.97%)p11.54( 92.03%)
   106. (0.00489) RY*( 1) H   7           s( 99.86%)p 0.00(  0.14%)
                                            0.0044  0.9993 -0.0009 -0.0003 -0.0268
                                           -0.0058  0.0263
   107. (0.00055) RY*( 2) H   7           s( 99.13%)p 0.01(  0.87%)
                                           -0.0022  0.0030  0.9957  0.0000  0.0778
                                            0.0500  0.0109
   108. (0.00015) RY*( 3) H   7           s( 87.86%)p 0.14( 12.14%)
                                            0.0001  0.0095 -0.0023  0.9373 -0.0019
                                            0.1188 -0.3275
   109. (0.00015) RY*( 4) H   7           s(  1.51%)p65.04( 98.49%)
                                            0.0007 -0.0327  0.0714  0.0947 -0.9533
                                            0.0018  0.2759
   110. (0.00007) RY*( 5) H   7           s( 11.29%)p 7.86( 88.71%)
   111. (0.00003) RY*( 6) H   7           s(  0.39%)p99.99( 99.61%)
   112. (0.00082) RY*( 1) H   8           s( 99.25%)p 0.01(  0.75%)
                                           -0.0016  0.9963  0.0010 -0.0002 -0.0453
                                            0.0440  0.0590
   113. (0.00020) RY*( 2) H   8           s( 88.96%)p 0.12( 11.04%)
                                            0.0017 -0.0156  0.9340  0.1303 -0.0533
                                            0.3260 -0.0360
   114. (0.00017) RY*( 3) H   8           s( 32.79%)p 2.05( 67.21%)
                                           -0.0010 -0.0298 -0.3293  0.4675 -0.3956
                                            0.6590 -0.2851
   115. (0.00012) RY*( 4) H   8           s( 60.69%)p 0.65( 39.31%)
                                            0.0054  0.0510  0.0367  0.7765  0.4469
                                           -0.3668 -0.2424
   116. (0.00007) RY*( 5) H   8           s( 10.37%)p 8.64( 89.63%)
   117. (0.00004) RY*( 6) H   8           s(  7.97%)p11.54( 92.03%)
   118. (0.00489) RY*( 1) H   9           s( 99.86%)p 0.00(  0.14%)
                                            0.0044  0.9993 -0.0009 -0.0003  0.0268
                                           -0.0058  0.0263
   119. (0.00055) RY*( 2) H   9           s( 99.13%)p 0.01(  0.87%)
                                           -0.0022  0.0030  0.9957  0.0000 -0.0778
                                            0.0500  0.0109
   120. (0.00015) RY*( 3) H   9           s( 87.86%)p 0.14( 12.14%)
                                            0.0001  0.0095 -0.0023  0.9373  0.0019
                                            0.1188 -0.3275
   121. (0.00015) RY*( 4) H   9           s(  1.51%)p65.04( 98.49%)
                                            0.0007 -0.0327  0.0714  0.0947  0.9533
                                            0.0018  0.2759
   122. (0.00007) RY*( 5) H   9           s( 11.29%)p 7.86( 88.71%)
   123. (0.00003) RY*( 6) H   9           s(  0.39%)p99.99( 99.61%)
   124. (0.00124) RY*( 1) H  10           s( 99.23%)p 0.01(  0.77%)
                                           -0.0037  0.9961  0.0029  0.0007 -0.0373
                                            0.0776 -0.0173
   125. (0.00020) RY*( 2) H  10           s( 44.72%)p 1.24( 55.28%)
                                            0.0013 -0.0538  0.6614  0.0824 -0.6176
                                            0.3956  0.1219
   126. (0.00012) RY*( 3) H  10           s( 52.17%)p 0.92( 47.83%)
                                            0.0044  0.0545  0.7121 -0.1075  0.4952
                                           -0.4453  0.1866
   127. (0.00008) RY*( 4) H  10           s( 90.31%)p 0.11(  9.69%)
   128. (0.00008) RY*( 5) H  10           s(  0.88%)p99.99( 99.12%)
   129. (0.00003) RY*( 6) H  10           s( 12.73%)p 6.85( 87.27%)
   130. (0.10926) BD*( 1) C   1 - S   2  
                ( 48.04%)   0.6931* C   1 s( 20.68%)p 3.83( 79.24%)d 0.00(  0.09%)
                                           -0.0001 -0.4547  0.0016  0.0062  0.0007
                                           -0.6788 -0.0141  0.0123  0.0055 -0.4914
                                            0.0114  0.0043  0.0043  0.2993 -0.0018
                                           -0.0014 -0.0021 -0.0212  0.0131  0.0092
                                           -0.0070  0.0099
                ( 51.96%)  -0.7208* S   2 s( 15.04%)p 5.58( 83.96%)d 0.07(  1.00%)
                                            0.0000 -0.0001 -0.3846  0.0489 -0.0061
                                           -0.0010  0.0000 -0.0000  0.7013  0.0320
                                           -0.0058 -0.0014  0.0001  0.0000  0.4741
                                            0.0184 -0.0124 -0.0021  0.0005 -0.0000
                                           -0.3476  0.0240  0.0024  0.0021 -0.0003
                                           -0.0719  0.0433  0.0462 -0.0124  0.0253
   131. (0.01209) BD*( 1) C   1 - H   5  
                ( 38.63%)   0.6215* C   1 s( 26.84%)p 2.72( 73.10%)d 0.00(  0.06%)
                                           -0.0001 -0.5180 -0.0003 -0.0024 -0.0002
                                           -0.0860 -0.0103 -0.0030  0.0007  0.0822
                                           -0.0020 -0.0001  0.0018 -0.8466  0.0035
                                           -0.0036 -0.0029 -0.0005 -0.0064  0.0028
                                           -0.0001 -0.0230
                ( 61.37%)  -0.7834* H   5 s( 99.96%)p 0.00(  0.04%)
                                           -0.9998 -0.0032 -0.0004 -0.0001 -0.0008
                                           -0.0015  0.0204
   132. (0.00611) BD*( 1) C   1 - H   6  
                ( 38.52%)   0.6206* C   1 s( 26.03%)p 2.84( 73.91%)d 0.00(  0.06%)
                                           -0.0000 -0.5102 -0.0034 -0.0030 -0.0003
                                            0.7276 -0.0037  0.0030  0.0026 -0.4128
                                           -0.0047 -0.0042 -0.0002  0.1981  0.0055
                                            0.0011  0.0009  0.0173 -0.0095  0.0068
                                           -0.0076  0.0107
                ( 61.48%)  -0.7841* H   6 s( 99.96%)p 0.00(  0.04%)
                                           -0.9998 -0.0010 -0.0001 -0.0005 -0.0184
                                            0.0085 -0.0027
   133. (0.00849) BD*( 1) C   1 - H   7  
                ( 39.24%)   0.6264* C   1 s( 26.42%)p 2.78( 73.52%)d 0.00(  0.06%)
                                            0.0001 -0.5140 -0.0013 -0.0014 -0.0000
                                           -0.0348 -0.0107 -0.0006 -0.0002  0.7617
                                           -0.0102  0.0022  0.0011  0.3919  0.0005
                                            0.0005  0.0008  0.0032  0.0033 -0.0185
                                            0.0150  0.0034
                ( 60.76%)  -0.7795* H   7 s( 99.95%)p 0.00(  0.05%)
                                           -0.9998  0.0044 -0.0009 -0.0003 -0.0034
                                           -0.0196 -0.0081
   134. (0.02187) BD*( 1) S   2 - O   3  
                ( 62.03%)   0.7876* S   2 s( 20.35%)p 3.85( 78.40%)d 0.06(  1.24%)
                                           -0.0000  0.0002  0.4366 -0.1133 -0.0096
                                           -0.0005 -0.0000  0.0000 -0.0000 -0.0000
                                           -0.0000 -0.0000  0.0000 -0.0001  0.7230
                                            0.0685  0.0219  0.0012 -0.0013 -0.0000
                                            0.5059  0.0129  0.0031 -0.0031 -0.0006
                                           -0.0000 -0.0000  0.0940 -0.0597  0.0055
                ( 37.97%)  -0.6162* O   3 s( 19.31%)p 4.17( 80.58%)d 0.01(  0.11%)
                                            0.0000  0.4378 -0.0375 -0.0015 -0.0000
                                            0.0000 -0.0000 -0.0000 -0.0000 -0.7453
                                            0.0401  0.0099  0.0015 -0.4981  0.0229
                                           -0.0001 -0.0002 -0.0000 -0.0000  0.0260
                                           -0.0206 -0.0030
   135. (0.10926) BD*( 1) S   2 - C   4  
                ( 51.96%)   0.7208* S   2 s( 15.04%)p 5.58( 83.96%)d 0.07(  1.00%)
                                           -0.0000  0.0001  0.3846 -0.0489  0.0061
                                            0.0010 -0.0000 -0.0000  0.7013  0.0320
                                           -0.0058 -0.0014  0.0001 -0.0000 -0.4741
                                           -0.0184  0.0124  0.0021 -0.0005  0.0000
                                            0.3476 -0.0240 -0.0024 -0.0021  0.0003
                                           -0.0719  0.0433 -0.0462  0.0124 -0.0253
                ( 48.04%)  -0.6931* C   4 s( 20.68%)p 3.83( 79.24%)d 0.00(  0.09%)
                                            0.0001  0.4547 -0.0016 -0.0062 -0.0007
                                           -0.6788 -0.0141  0.0123  0.0055  0.4914
                                           -0.0114 -0.0043 -0.0043 -0.2993  0.0018
                                            0.0014  0.0021 -0.0212  0.0131 -0.0092
                                            0.0070 -0.0099
   136. (0.00611) BD*( 1) C   4 - H   8  
                ( 38.52%)   0.6206* C   4 s( 26.03%)p 2.84( 73.91%)d 0.00(  0.06%)
                                           -0.0000 -0.5102 -0.0034 -0.0030 -0.0003
                                           -0.7276  0.0037 -0.0030 -0.0026 -0.4128
                                           -0.0047 -0.0042 -0.0002  0.1981  0.0055
                                            0.0011  0.0009 -0.0173  0.0095  0.0068
                                           -0.0076  0.0107
                ( 61.48%)  -0.7841* H   8 s( 99.96%)p 0.00(  0.04%)
                                           -0.9998 -0.0010 -0.0001 -0.0005  0.0184
                                            0.0085 -0.0027
   137. (0.00849) BD*( 1) C   4 - H   9  
                ( 39.24%)   0.6264* C   4 s( 26.42%)p 2.78( 73.52%)d 0.00(  0.06%)
                                            0.0001 -0.5140 -0.0013 -0.0014 -0.0000
                                            0.0348  0.0107  0.0006  0.0002  0.7617
                                           -0.0102  0.0022  0.0011  0.3919  0.0005
                                            0.0005  0.0008 -0.0032 -0.0033 -0.0185
                                            0.0150  0.0034
                ( 60.76%)  -0.7795* H   9 s( 99.95%)p 0.00(  0.05%)
                                           -0.9998  0.0044 -0.0009 -0.0003  0.0034
                                           -0.0196 -0.0081
   138. (0.01209) BD*( 1) C   4 - H  10  
                ( 38.63%)   0.6215* C   4 s( 26.84%)p 2.72( 73.10%)d 0.00(  0.06%)
                                           -0.0001 -0.5180 -0.0003 -0.0024 -0.0002
                                            0.0860  0.0103  0.0030 -0.0007  0.0822
                                           -0.0020 -0.0001  0.0018 -0.8466  0.0035
                                           -0.0036 -0.0029  0.0005  0.0064  0.0028
                                           -0.0001 -0.0230
                ( 61.37%)  -0.7834* H  10 s( 99.96%)p 0.00(  0.04%)
                                           -0.9998 -0.0032 -0.0004 -0.0001  0.0008
                                           -0.0015  0.0204


 NHO Directionality and "Bond Bending" (deviations from line of nuclear centers)

         [Thresholds for printing:  angular deviation  >  1.0 degree]
                                    hybrid p-character > 25.0%
                                    orbital occupancy  >  0.10e

                                Line of Centers        Hybrid 1              Hybrid 2
                                ---------------  -------------------   ------------------
                NBO               Theta   Phi    Theta   Phi    Dev    Theta   Phi    Dev
 ========================================================================================
     1. BD (   1) C   1 - S   2   110.0   37.4   109.6   34.9   2.3     69.8  213.4   3.8
     2. BD (   1) C   1 - H   5     7.3  313.6     8.6  320.3   1.6      --     --    --
     4. BD (   1) C   1 - H   7   117.0  271.5   117.5  273.5   1.9      --     --    --
     5. BD (   1) S   2 - O   3    56.8   90.0     --     --    --     124.4  270.0   1.2
     6. BD (   1) S   2 - C   4    70.0  322.6    69.8  326.6   3.8    109.6  145.1   2.3
     8. BD (   1) C   4 - H   9   117.0  268.5   117.5  266.5   1.9      --     --    --
     9. BD (   1) C   4 - H  10     7.3  226.4     8.6  219.7   1.6      --     --    --
    18. LP (   1) S   2             --     --    173.1   90.0   --       --     --    --
    20. LP (   2) O   3             --     --    143.9   90.0   --       --     --    --
    21. LP (   3) O   3             --     --     90.0    0.0   --       --     --    --
   130. BD*(   1) C   1 - S   2   110.0   37.4   109.6   34.9   2.3     69.8  213.4   3.8
   135. BD*(   1) S   2 - C   4    70.0  322.6    69.8  326.6   3.8    109.6  145.1   2.3


 Second Order Perturbation Theory Analysis of Fock Matrix in NBO Basis

     Threshold for printing:   0.50 kcal/mol
                                                                              E(2)  E(j)-E(i) F(i,j)
         Donor NBO (i)                     Acceptor NBO (j)                 kcal/mol   a.u.    a.u. 
 ===================================================================================================

 within unit  1
   1. BD (   1) C   1 - S   2        /134. BD*(   1) S   2 - O   3            1.53    0.87    0.033
   1. BD (   1) C   1 - S   2        /136. BD*(   1) C   4 - H   8            1.24    1.00    0.031
   2. BD (   1) C   1 - H   5        /130. BD*(   1) C   1 - S   2            0.58    0.67    0.018
   3. BD (   1) C   1 - H   6        / 42. RY*(   4) S   2                    0.53    1.25    0.023
   3. BD (   1) C   1 - H   6        /135. BD*(   1) S   2 - C   4            0.87    0.66    0.022
   4. BD (   1) C   1 - H   7        /130. BD*(   1) C   1 - S   2            0.73    0.67    0.020
   4. BD (   1) C   1 - H   7        /134. BD*(   1) S   2 - O   3            1.46    0.81    0.031
   6. BD (   1) S   2 - C   4        /132. BD*(   1) C   1 - H   6            1.24    1.00    0.031
   6. BD (   1) S   2 - C   4        /134. BD*(   1) S   2 - O   3            1.53    0.87    0.033
   7. BD (   1) C   4 - H   8        / 42. RY*(   4) S   2                    0.53    1.25    0.023
   7. BD (   1) C   4 - H   8        /130. BD*(   1) C   1 - S   2            0.87    0.66    0.022
   8. BD (   1) C   4 - H   9        /134. BD*(   1) S   2 - O   3            1.46    0.81    0.031
   8. BD (   1) C   4 - H   9        /135. BD*(   1) S   2 - C   4            0.73    0.67    0.020
   9. BD (   1) C   4 - H  10        /135. BD*(   1) S   2 - C   4            0.58    0.67    0.018
  10. CR (   1) C   1                / 94. RY*(   1) H   5                    0.63   10.75    0.073
  10. CR (   1) C   1                /108. RY*(   3) H   7                    0.55   12.26    0.073
  10. CR (   1) C   1                /130. BD*(   1) C   1 - S   2            1.57   10.20    0.116
  12. CR (   2) S   2                / 63. RY*(   4) O   3                    0.51   10.10    0.064
  12. CR (   2) S   2                /134. BD*(   1) S   2 - O   3            0.78    9.13    0.076
  16. CR (   1) O   3                / 42. RY*(   4) S   2                    0.52   19.58    0.090
  16. CR (   1) O   3                / 43. RY*(   5) S   2                    0.97   20.27    0.125
  17. CR (   1) C   4                /120. RY*(   3) H   9                    0.55   12.26    0.073
  17. CR (   1) C   4                /124. RY*(   1) H  10                    0.63   10.75    0.073
  17. CR (   1) C   4                /135. BD*(   1) S   2 - C   4            1.57   10.20    0.116
  18. LP (   1) S   2                /131. BD*(   1) C   1 - H   5            1.83    0.92    0.037
  18. LP (   1) S   2                /138. BD*(   1) C   4 - H  10            1.83    0.92    0.037
  19. LP (   1) O   3                / 42. RY*(   4) S   2                    1.77    1.51    0.046
  19. LP (   1) O   3                / 43. RY*(   5) S   2                    3.31    2.19    0.076
  20. LP (   2) O   3                / 39. RY*(   1) S   2                   12.40    0.83    0.092
  20. LP (   2) O   3                / 42. RY*(   4) S   2                    0.56    0.97    0.021
  20. LP (   2) O   3                / 59. RY*(  21) S   2                    0.76    0.92    0.024
  20. LP (   2) O   3                /130. BD*(   1) C   1 - S   2            7.43    0.38    0.048
  20. LP (   2) O   3                /135. BD*(   1) S   2 - C   4            7.43    0.38    0.048
  21. LP (   3) O   3                / 40. RY*(   2) S   2                    8.82    1.04    0.089
  21. LP (   3) O   3                / 44. RY*(   6) S   2                    0.91    1.14    0.030
  21. LP (   3) O   3                / 45. RY*(   7) S   2                    0.51    1.15    0.023
  21. LP (   3) O   3                /130. BD*(   1) C   1 - S   2           11.97    0.38    0.061
  21. LP (   3) O   3                /133. BD*(   1) C   1 - H   7            0.66    0.63    0.019
  21. LP (   3) O   3                /135. BD*(   1) S   2 - C   4           11.97    0.38    0.061
  21. LP (   3) O   3                /137. BD*(   1) C   4 - H   9            0.66    0.63    0.019
 130. BD*(   1) C   1 - S   2        / 39. RY*(   1) S   2                    0.75    0.45    0.061
 130. BD*(   1) C   1 - S   2        / 40. RY*(   2) S   2                    1.74    0.66    0.114
 130. BD*(   1) C   1 - S   2        / 44. RY*(   6) S   2                    0.62    0.76    0.083
 135. BD*(   1) S   2 - C   4        / 39. RY*(   1) S   2                    0.75    0.45    0.061
 135. BD*(   1) S   2 - C   4        / 40. RY*(   2) S   2                    1.74    0.66    0.114
 135. BD*(   1) S   2 - C   4        / 44. RY*(   6) S   2                    0.62    0.76    0.083


 Natural Bond Orbitals (Summary):

                                                            Principal Delocalizations
           NBO                        Occupancy    Energy   (geminal,vicinal,remote)
 ====================================================================================
 Molecular unit  1  (C2H6OS)
     1. BD (   1) C   1 - S   2          1.98661    -0.61502  134(g),136(v)
     2. BD (   1) C   1 - H   5          1.99421    -0.55046  130(g)
     3. BD (   1) C   1 - H   6          1.99186    -0.54814  135(v),42(v)
     4. BD (   1) C   1 - H   7          1.99001    -0.55555  134(v),130(g)
     5. BD (   1) S   2 - O   3          1.99167    -0.85727   
     6. BD (   1) S   2 - C   4          1.98661    -0.61502  134(g),132(v)
     7. BD (   1) C   4 - H   8          1.99186    -0.54814  130(v),42(v)
     8. BD (   1) C   4 - H   9          1.99001    -0.55555  134(v),135(g)
     9. BD (   1) C   4 - H  10          1.99421    -0.55046  135(g)
    10. CR (   1) C   1                  1.99925   -10.08259  130(g),94(v),108(v)
    11. CR (   1) S   2                  2.00000   -87.88534   
    12. CR (   2) S   2                  1.99920    -8.88111  134(g),63(v)
    13. CR (   3) S   2                  1.99994    -5.98685   
    14. CR (   4) S   2                  1.99992    -5.98580   
    15. CR (   5) S   2                  1.99993    -5.98183   
    16. CR (   1) O   3                  1.99986   -18.88051  43(v),42(v)
    17. CR (   1) C   4                  1.99925   -10.08259  135(g),124(v),120(v)
    18. LP (   1) S   2                  1.97341    -0.54844  131(v),138(v)
    19. LP (   1) O   3                  1.99436    -0.80456  43(v),42(v)
    20. LP (   2) O   3                  1.89076    -0.26996  39(v),130(v),135(v),59(v)
                                                    42(v)
    21. LP (   3) O   3                  1.81873    -0.26278  130(v),135(v),40(v),44(v)
                                                    133(r),137(r),45(v)
    22. RY*(   1) C   1                  0.00272     0.78290   
    23. RY*(   2) C   1                  0.00213     0.70231   
    24. RY*(   3) C   1                  0.00103     0.85495   
    25. RY*(   4) C   1                  0.00044     0.94581   
    26. RY*(   5) C   1                  0.00016     1.03927   
    27. RY*(   6) C   1                  0.00012     1.10571   
    28. RY*(   7) C   1                  0.00009     0.90111   
    29. RY*(   8) C   1                  0.00001     1.38649   
    30. RY*(   9) C   1                  0.00000     2.48489   
    31. RY*(  10) C   1                  0.00000     2.70956   
    32. RY*(  11) C   1                  0.00000     0.33606   
    33. RY*(  12) C   1                  0.00000     2.77384   
    34. RY*(  13) C   1                  0.00000     1.67583   
    35. RY*(  14) C   1                  0.00000    23.23805   
    36. RY*(  15) C   1                  0.00001     1.73571   
    37. RY*(  16) C   1                  0.00000     1.05988   
    38. RY*(  17) C   1                  0.00000     2.08335   
    39. RY*(   1) S   2                  0.03484     0.56312   
    40. RY*(   2) S   2                  0.03131     0.77704   
    41. RY*(   3) S   2                  0.00468     0.91498   
    42. RY*(   4) S   2                  0.00379     0.70201   
    43. RY*(   5) S   2                  0.00248     1.38868   
    44. RY*(   6) S   2                  0.00109     0.87265   
    45. RY*(   7) S   2                  0.00025     0.88965   
    46. RY*(   8) S   2                  0.00025     0.87706   
    47. RY*(   9) S   2                  0.00007     1.56986   
    48. RY*(  10) S   2                  0.00008     0.57520   
    49. RY*(  11) S   2                  0.00001     1.32232   
    50. RY*(  12) S   2                  0.00000    16.66777   
    51. RY*(  13) S   2                  0.00001     0.67503   
    52. RY*(  14) S   2                  0.00000     1.31029   
    53. RY*(  15) S   2                  0.00000     0.77115   
    54. RY*(  16) S   2                  0.00000    16.67169   
    55. RY*(  17) S   2                  0.00000     0.50197   
    56. RY*(  18) S   2                  0.00000   179.30564   
    57. RY*(  19) S   2                  0.00000    16.57775   
    58. RY*(  20) S   2                  0.00000    16.99544   
    59. RY*(  21) S   2                  0.00000     0.65271   
    60. RY*(   1) O   3                  0.00210     0.73979   
    61. RY*(   2) O   3                  0.00149     0.74802   
    62. RY*(   3) O   3                  0.00040     1.37339   
    63. RY*(   4) O   3                  0.00014     1.21755   
    64. RY*(   5) O   3                  0.00005     1.85866   
    65. RY*(   6) O   3                  0.00002     0.77715   
    66. RY*(   7) O   3                  0.00000     0.50445   
    67. RY*(   8) O   3                  0.00000    49.62360   
    68. RY*(   9) O   3                  0.00000     4.60360   
    69. RY*(  10) O   3                  0.00000     5.02487   
    70. RY*(  11) O   3                  0.00001     0.93337   
    71. RY*(  12) O   3                  0.00000     4.78385   
    72. RY*(  13) O   3                  0.00000     2.87996   
    73. RY*(  14) O   3                  0.00000     2.86249   
    74. RY*(  15) O   3                  0.00000     2.91544   
    75. RY*(  16) O   3                  0.00000     3.04812   
    76. RY*(  17) O   3                  0.00000     2.79485   
    77. RY*(   1) C   4                  0.00272     0.78290   
    78. RY*(   2) C   4                  0.00213     0.70231   
    79. RY*(   3) C   4                  0.00103     0.85495   
    80. RY*(   4) C   4                  0.00044     0.94581   
    81. RY*(   5) C   4                  0.00016     1.03927   
    82. RY*(   6) C   4                  0.00012     1.10571   
    83. RY*(   7) C   4                  0.00009     0.90111   
    84. RY*(   8) C   4                  0.00001     1.38649   
    85. RY*(   9) C   4                  0.00000     2.48489   
    86. RY*(  10) C   4                  0.00000     2.70956   
    87. RY*(  11) C   4                  0.00000     0.33606   
    88. RY*(  12) C   4                  0.00000     2.77384   
    89. RY*(  13) C   4                  0.00000     1.67583   
    90. RY*(  14) C   4                  0.00000    23.23805   
    91. RY*(  15) C   4                  0.00001     1.73571   
    92. RY*(  16) C   4                  0.00000     1.05988   
    93. RY*(  17) C   4                  0.00000     2.08335   
    94. RY*(   1) H   5                  0.00124     0.66956   
    95. RY*(   2) H   5                  0.00020     1.81354   
    96. RY*(   3) H   5                  0.00012     1.99549   
    97. RY*(   4) H   5                  0.00008     0.46791   
    98. RY*(   5) H   5                  0.00008     1.73127   
    99. RY*(   6) H   5                  0.00003     2.27013   
   100. RY*(   1) H   6                  0.00082     0.52997   
   101. RY*(   2) H   6                  0.00020     0.76037   
   102. RY*(   3) H   6                  0.00017     1.79472   
   103. RY*(   4) H   6                  0.00012     1.70475   
   104. RY*(   5) H   6                  0.00007     1.69879   
   105. RY*(   6) H   6                  0.00004     2.39665   
   106. RY*(   1) H   7                  0.00489     0.21082   
   107. RY*(   2) H   7                  0.00055     0.40277   
   108. RY*(   3) H   7                  0.00015     2.17398   
   109. RY*(   4) H   7                  0.00015     1.67085   
   110. RY*(   5) H   7                  0.00007     1.75417   
   111. RY*(   6) H   7                  0.00003     2.56589   
   112. RY*(   1) H   8                  0.00082     0.52997   
   113. RY*(   2) H   8                  0.00020     0.76037   
   114. RY*(   3) H   8                  0.00017     1.79472   
   115. RY*(   4) H   8                  0.00012     1.70475   
   116. RY*(   5) H   8                  0.00007     1.69879   
   117. RY*(   6) H   8                  0.00004     2.39665   
   118. RY*(   1) H   9                  0.00489     0.21082   
   119. RY*(   2) H   9                  0.00055     0.40277   
   120. RY*(   3) H   9                  0.00015     2.17398   
   121. RY*(   4) H   9                  0.00015     1.67085   
   122. RY*(   5) H   9                  0.00007     1.75417   
   123. RY*(   6) H   9                  0.00003     2.56589   
   124. RY*(   1) H  10                  0.00124     0.66956   
   125. RY*(   2) H  10                  0.00020     1.81354   
   126. RY*(   3) H  10                  0.00012     1.99549   
   127. RY*(   4) H  10                  0.00008     0.46791   
   128. RY*(   5) H  10                  0.00008     1.73127   
   129. RY*(   6) H  10                  0.00003     2.27013   
   130. BD*(   1) C   1 - S   2          0.10926     0.11468  135(g),40(g),44(g),39(g)
   131. BD*(   1) C   1 - H   5          0.01209     0.37369   
   132. BD*(   1) C   1 - H   6          0.00611     0.38245   
   133. BD*(   1) C   1 - H   7          0.00849     0.36650   
   134. BD*(   1) S   2 - O   3          0.02187     0.25281   
   135. BD*(   1) S   2 - C   4          0.10926     0.11468  130(g),40(g),44(g),39(g)
   136. BD*(   1) C   4 - H   8          0.00611     0.38245   
   137. BD*(   1) C   4 - H   9          0.00849     0.36650   
   138. BD*(   1) C   4 - H  10          0.01209     0.37369   
       -------------------------------
              Total Lewis   41.59167  ( 99.0278%)
        Valence non-Lewis    0.29377  (  0.6995%)
        Rydberg non-Lewis    0.11456  (  0.2728%)
       -------------------------------
            Total unit  1   42.00000  (100.0000%)
           Charge unit  1    0.00000
 Calling FoFJK, ICntrl=    100127 FMM=F ISym2X=0 I1Cent= 0 IOpClX= 0 NMat=1 NMatS=1 NMatT=0.
 Full mass-weighted force constant matrix:
 Low frequencies ---    0.0036    0.0039    0.0047    1.4624    2.2810    3.3625
 Low frequencies ---  173.2693  218.1316  278.0659
 Diagonal vibrational polarizability:
        4.3046591       5.2644466       2.5539289
 Harmonic frequencies (cm**-1), IR intensities (KM/Mole), Raman scattering
 activities (A**4/AMU), depolarization ratios for plane and unpolarized
 incident light, reduced masses (AMU), force constants (mDyne/A),
 and normal coordinates:
                      1                      2                      3
                      A                      A                      A
 Frequencies --    173.2692               218.1316               278.0659
 Red. masses --      1.0289                 1.0562                 2.6037
 Frc consts  --      0.0182                 0.0296                 0.1186
 IR Inten    --      0.0034                 0.3920                 0.4743
  Atom  AN      X      Y      Z        X      Y      Z        X      Y      Z
     1   6    -0.00   0.02   0.03    -0.00   0.00   0.02     0.17  -0.14   0.02
     2  16    -0.00   0.00  -0.00    -0.00  -0.01  -0.00    -0.00   0.09   0.00
     3   8     0.01  -0.00   0.00     0.00   0.01  -0.04     0.00   0.12  -0.05
     4   6    -0.00  -0.02  -0.03     0.00   0.00   0.02    -0.17  -0.14   0.02
     5   1    -0.18   0.38   0.07     0.20  -0.34  -0.03     0.26  -0.22   0.01
     6   1    -0.03  -0.19  -0.31     0.03   0.22   0.37     0.02  -0.37   0.12
     7   1     0.22  -0.14   0.34    -0.25   0.15  -0.27     0.40  -0.10  -0.05
     8   1    -0.03   0.19   0.31    -0.03   0.22   0.37    -0.02  -0.37   0.12
     9   1     0.22   0.14  -0.34     0.25   0.15  -0.27    -0.40  -0.10  -0.05
    10   1    -0.18  -0.38  -0.07    -0.20  -0.34  -0.03    -0.26  -0.22   0.01
                      4                      5                      6
                      A                      A                      A
 Frequencies --    304.9973               356.0443               623.4450
 Red. masses --      4.1956                 3.2507                 4.7709
 Frc consts  --      0.2300                 0.2428                 1.0926
 IR Inten    --      9.3654                 8.6261                 8.8993
  Atom  AN      X      Y      Z        X      Y      Z        X      Y      Z
     1   6    -0.07  -0.18  -0.06    -0.12  -0.06  -0.08     0.27   0.18  -0.09
     2  16    -0.12  -0.00  -0.00     0.00  -0.02   0.17    -0.00  -0.14   0.12
     3   8     0.36   0.00   0.00    -0.00   0.18  -0.15     0.00  -0.05  -0.05
     4   6    -0.07   0.18   0.06     0.12  -0.06  -0.08    -0.27   0.18  -0.09
     5   1    -0.16  -0.30  -0.06    -0.45  -0.27  -0.07     0.07   0.07  -0.08
     6   1    -0.17  -0.38  -0.12    -0.06  -0.05  -0.28     0.32   0.21  -0.20
     7   1     0.21  -0.11  -0.17     0.05   0.03  -0.26     0.28   0.23  -0.19
     8   1    -0.17   0.38   0.12     0.06  -0.05  -0.28    -0.32   0.21  -0.20
     9   1     0.21   0.11   0.17    -0.05   0.03  -0.26    -0.28   0.23  -0.19
    10   1    -0.16   0.30   0.06     0.45  -0.27  -0.07    -0.07   0.07  -0.08
                      7                      8                      9
                      A                      A                      A
 Frequencies --    653.3732               895.3966               928.6973
 Red. masses --      4.3233                 1.1769                 1.3735
 Frc consts  --      1.0874                 0.5559                 0.6980
 IR Inten    --     18.6052                 1.1813                 6.1034
  Atom  AN      X      Y      Z        X      Y      Z        X      Y      Z
     1   6    -0.21  -0.20   0.09    -0.05   0.03  -0.05    -0.04   0.05   0.08
     2  16     0.21  -0.00   0.00     0.02   0.00   0.00     0.05   0.00  -0.00
     3   8    -0.02  -0.00  -0.00    -0.00  -0.00  -0.00    -0.04  -0.00  -0.00
     4   6    -0.21   0.20  -0.09    -0.05  -0.03   0.05    -0.04  -0.05  -0.08
     5   1    -0.15  -0.02   0.10     0.43   0.12  -0.09    -0.23  -0.32   0.06
     6   1    -0.08   0.02   0.08    -0.31  -0.27   0.28    -0.15  -0.21  -0.06
     7   1    -0.46  -0.28   0.23     0.16  -0.03   0.09     0.40   0.22  -0.23
     8   1    -0.08  -0.02  -0.08    -0.31   0.27  -0.28    -0.15   0.21   0.06
     9   1    -0.46   0.28  -0.23     0.16   0.03  -0.09     0.40  -0.22   0.23
    10   1    -0.15   0.02  -0.10     0.43  -0.12   0.09    -0.23   0.32  -0.06
                     10                     11                     12
                      A                      A                      A
 Frequencies --    953.9751              1025.0283              1051.2070
 Red. masses --      1.7134                 1.3615                 5.3040
 Frc consts  --      0.9187                 0.8428                 3.4533
 IR Inten    --     24.7703                14.6599               135.9710
  Atom  AN      X      Y      Z        X      Y      Z        X      Y      Z
     1   6     0.03  -0.07  -0.08    -0.07   0.06  -0.06    -0.03   0.06   0.07
     2  16     0.00  -0.04   0.02     0.00  -0.03   0.04     0.00  -0.19  -0.15
     3   8    -0.00   0.15   0.05     0.00  -0.00  -0.02    -0.00   0.31   0.24
     4   6    -0.03  -0.07  -0.08     0.07   0.06  -0.06     0.03   0.06   0.07
     5   1     0.22   0.30  -0.06     0.41   0.10  -0.10    -0.13  -0.26   0.04
     6   1     0.13   0.20   0.08    -0.33  -0.27   0.25    -0.10  -0.17  -0.10
     7   1    -0.39  -0.24   0.24     0.22  -0.00   0.07     0.37   0.22  -0.24
     8   1    -0.13   0.20   0.08     0.33  -0.27   0.25     0.10  -0.17  -0.10
     9   1     0.39  -0.24   0.24    -0.22  -0.00   0.07    -0.37   0.22  -0.24
    10   1    -0.22   0.30  -0.06    -0.41   0.10  -0.10     0.13  -0.26   0.04
                     13                     14                     15
                      A                      A                      A
 Frequencies --   1319.9666              1342.7135              1440.0085
 Red. masses --      1.1880                 1.1852                 1.0531
 Frc consts  --      1.2195                 1.2589                 1.2867
 IR Inten    --      1.6366                 8.1106                11.1737
  Atom  AN      X      Y      Z        X      Y      Z        X      Y      Z
     1   6    -0.07  -0.05   0.03    -0.06  -0.06   0.03    -0.03   0.02  -0.02
     2  16    -0.00  -0.00   0.00     0.00   0.00   0.00    -0.00  -0.00  -0.00
     3   8     0.00  -0.00  -0.00    -0.00  -0.01  -0.01     0.00  -0.00   0.00
     4   6    -0.07   0.05  -0.03     0.06  -0.06   0.03    -0.03  -0.02   0.02
     5   1     0.32   0.24   0.01     0.31   0.26   0.02     0.06  -0.38  -0.06
     6   1     0.20   0.31  -0.17     0.20   0.30  -0.16     0.12   0.27  -0.00
     7   1     0.32   0.11  -0.23     0.31   0.11  -0.25     0.25  -0.19   0.40
     8   1     0.20  -0.31   0.17    -0.20   0.30  -0.16     0.12  -0.27   0.00
     9   1     0.32  -0.11   0.23    -0.31   0.11  -0.25     0.25   0.19  -0.40
    10   1     0.32  -0.24  -0.01    -0.31   0.26   0.02     0.06   0.38   0.06
                     16                     17                     18
                      A                      A                      A
 Frequencies --   1453.2462              1455.3332              1470.7644
 Red. masses --      1.0453                 1.0544                 1.0516
 Frc consts  --      1.3007                 1.3157                 1.3402
 IR Inten    --      4.9874                 0.0029                25.2298
  Atom  AN      X      Y      Z        X      Y      Z        X      Y      Z
     1   6    -0.03   0.02  -0.02     0.01  -0.03  -0.03     0.01  -0.03  -0.03
     2  16     0.00   0.00  -0.01     0.00  -0.00   0.00     0.00  -0.00  -0.01
     3   8    -0.00  -0.00   0.00    -0.00  -0.00  -0.00     0.00  -0.00   0.00
     4   6     0.03   0.02  -0.02     0.01   0.03   0.03    -0.01  -0.03  -0.03
     5   1     0.06  -0.38  -0.06    -0.35   0.21   0.03    -0.36   0.20   0.03
     6   1     0.13   0.28  -0.02    -0.01   0.19   0.47    -0.02   0.18   0.48
     7   1     0.26  -0.18   0.38     0.26  -0.01  -0.02     0.26  -0.01  -0.02
     8   1    -0.13   0.28  -0.02    -0.01  -0.19  -0.47     0.02   0.18   0.48
     9   1    -0.26  -0.18   0.38     0.26   0.01   0.02    -0.26  -0.01  -0.02
    10   1    -0.06  -0.38  -0.06    -0.35  -0.21  -0.03     0.36   0.20   0.03
                     19                     20                     21
                      A                      A                      A
 Frequencies --   3037.2189              3039.6235              3134.4238
 Red. masses --      1.0289                 1.0286                 1.1072
 Frc consts  --      5.5923                 5.5994                 6.4092
 IR Inten    --      5.0991                 9.1833                 0.1066
  Atom  AN      X      Y      Z        X      Y      Z        X      Y      Z
     1   6    -0.02  -0.02   0.01     0.02   0.02  -0.01     0.00  -0.04  -0.06
     2  16     0.00  -0.00  -0.00    -0.00  -0.00  -0.00    -0.00  -0.00  -0.00
     3   8     0.00   0.00   0.00    -0.00   0.00   0.00     0.00   0.00   0.00
     4   6    -0.02   0.02  -0.01    -0.02   0.02  -0.01     0.00   0.04   0.06
     5   1    -0.05   0.03  -0.42     0.05  -0.04   0.44     0.05  -0.05   0.47
     6   1     0.28  -0.17   0.08    -0.29   0.17  -0.08    -0.08   0.04  -0.03
     7   1    -0.02   0.40   0.21     0.02  -0.38  -0.20    -0.02   0.46   0.23
     8   1     0.28   0.17  -0.08     0.29   0.17  -0.08    -0.08  -0.04   0.03
     9   1    -0.02  -0.40  -0.21    -0.02  -0.38  -0.20    -0.02  -0.46  -0.23
    10   1    -0.05  -0.03   0.42    -0.05  -0.04   0.44     0.05   0.05  -0.47
                     22                     23                     24
                      A                      A                      A
 Frequencies --   3138.3822              3146.4391              3147.1066
 Red. masses --      1.1068                 1.1049                 1.1054
 Frc consts  --      6.4232                 6.4446                 6.4503
 IR Inten    --     11.0843                 1.4001                 3.4661
  Atom  AN      X      Y      Z        X      Y      Z        X      Y      Z
     1   6     0.00  -0.04  -0.06    -0.05   0.04  -0.03    -0.05   0.04  -0.03
     2  16     0.00  -0.00  -0.00    -0.00  -0.00   0.00    -0.00   0.00  -0.00
     3   8    -0.00   0.00   0.00     0.00   0.00   0.00     0.00  -0.00  -0.00
     4   6    -0.00  -0.04  -0.06    -0.05  -0.04   0.03     0.05   0.04  -0.03
     5   1     0.05  -0.05   0.47     0.02  -0.02   0.29     0.02  -0.02   0.28
     6   1    -0.04   0.02  -0.02     0.52  -0.30   0.14     0.52  -0.30   0.14
     7   1    -0.02   0.46   0.23    -0.00  -0.14  -0.08    -0.00  -0.17  -0.10
     8   1     0.04   0.02  -0.02     0.52   0.30  -0.14    -0.52  -0.30   0.14
     9   1     0.02   0.46   0.23    -0.00   0.14   0.08     0.00  -0.17  -0.10
    10   1    -0.05  -0.05   0.47     0.02   0.02  -0.29    -0.02  -0.02   0.28

 -------------------
 - Thermochemistry -
 -------------------
 Temperature   298.150 Kelvin.  Pressure   1.00000 Atm.
 Atom     1 has atomic number  6 and mass  12.00000
 Atom     2 has atomic number 16 and mass  31.97207
 Atom     3 has atomic number  8 and mass  15.99491
 Atom     4 has atomic number  6 and mass  12.00000
 Atom     5 has atomic number  1 and mass   1.00783
 Atom     6 has atomic number  1 and mass   1.00783
 Atom     7 has atomic number  1 and mass   1.00783
 Atom     8 has atomic number  1 and mass   1.00783
 Atom     9 has atomic number  1 and mass   1.00783
 Atom    10 has atomic number  1 and mass   1.00783
 Molecular mass:    78.01394 amu.
 Principal axes and moments of inertia in atomic units:
                           1         2         3
     Eigenvalues --   265.54635 269.44771 443.14868
           X            1.00000   0.00000   0.00000
           Y           -0.00000   0.99964  -0.02666
           Z           -0.00000   0.02666   0.99964
 This molecule is an asymmetric top.
 Rotational symmetry number  1.
 Rotational temperatures (Kelvin)      0.32617     0.32145     0.19545
 Rotational constants (GHZ):           6.79633     6.69793     4.07254
 Zero-point vibrational energy     206875.3 (Joules/Mol)
                                   49.44439 (Kcal/Mol)
 Warning -- explicit consideration of   5 degrees of freedom as
           vibrations may cause significant error
 Vibrational temperatures:    249.30   313.84   400.07   438.82   512.27
          (Kelvin)            897.00   940.06  1288.28  1336.19  1372.56
                             1474.79  1512.45  1899.14  1931.87  2071.85
                             2090.90  2093.90  2116.10  4369.88  4373.34
                             4509.74  4515.43  4527.02  4527.98
 
 Zero-point correction=                           0.078795 (Hartree/Particle)
 Thermal correction to Energy=                    0.084516
 Thermal correction to Enthalpy=                  0.085460
 Thermal correction to Gibbs Free Energy=         0.050389
 Sum of electronic and zero-point Energies=           -553.189153
 Sum of electronic and thermal Energies=              -553.183432
 Sum of electronic and thermal Enthalpies=            -553.182488
 Sum of electronic and thermal Free Energies=         -553.217559
 
                     E (Thermal)             CV                S
                      KCal/Mol        Cal/Mol-Kelvin    Cal/Mol-Kelvin
 Total                   53.034             19.188             73.813
 Electronic               0.000              0.000              0.000
 Translational            0.889              2.981             38.978
 Rotational               0.889              2.981             24.964
 Vibrational             51.257             13.226              9.871
 Vibration     1          0.627              1.875              2.400
 Vibration     2          0.646              1.813              1.975
 Vibration     3          0.679              1.714              1.546
 Vibration     4          0.696              1.664              1.389
 Vibration     5          0.732              1.563              1.139
                       Q            Log10(Q)             Ln(Q)
 Total Bot       0.664990D-23        -23.177185        -53.367440
 Total V=0       0.116362D+14         13.065810         30.085139
 Vib (Bot)       0.385190D-35        -35.414325        -81.544496
 Vib (Bot)    1  0.116183D+01          0.065142          0.149994
 Vib (Bot)    2  0.907516D+00         -0.042146         -0.097044
 Vib (Bot)    3  0.692128D+00         -0.159814         -0.367985
 Vib (Bot)    4  0.621770D+00         -0.206370         -0.475184
 Vib (Bot)    5  0.516147D+00         -0.287226         -0.661363
 Vib (V=0)       0.674016D+01          0.828670          1.908083
 Vib (V=0)    1  0.176485D+01          0.246708          0.568065
 Vib (V=0)    2  0.153614D+01          0.186431          0.429272
 Vib (V=0)    3  0.135384D+01          0.131567          0.302944
 Vib (V=0)    4  0.129787D+01          0.113232          0.260725
 Vib (V=0)    5  0.121862D+01          0.085867          0.197715
 Electronic      0.100000D+01          0.000000          0.000000
 Translational   0.270840D+08          7.432712         17.114452
 Rotational      0.637423D+05          4.804428         11.062604
 ***** Axes restored to original set *****
 -------------------------------------------------------------------
 Center     Atomic                   Forces (Hartrees/Bohr)
 Number     Number              X              Y              Z
 -------------------------------------------------------------------
      1        6          -0.000011201   -0.000010660   -0.000003420
      2       16          -0.000000162    0.000025909   -0.000007946
      3        8           0.000000224   -0.000012589    0.000001511
      4        6           0.000012061   -0.000010074   -0.000001979
      5        1           0.000000871    0.000004900    0.000000351
      6        1          -0.000000255   -0.000001302    0.000002188
      7        1          -0.000000392    0.000000126    0.000003421
      8        1           0.000000048   -0.000001295    0.000002207
      9        1          -0.000000040    0.000000134    0.000003443
     10        1          -0.000001153    0.000004850    0.000000225
 -------------------------------------------------------------------
 Cartesian Forces:  Max     0.000025909 RMS     0.000007032
 FormGI is forming the generalized inverse of G from B-inverse, IUseBI=4.

 GradGradGradGradGradGradGradGradGradGradGradGradGradGradGradGradGradGrad
 Berny optimization.
 Internal  Forces:  Max     0.000012826 RMS     0.000004495
 Search for a local minimum.
 Step number   1 out of a maximum of    2
 All quantities printed in internal units (Hartrees-Bohrs-Radians)
 Second derivative matrix not updated -- analytic derivatives used.
 ITU=  0
     Eigenvalues ---    0.00215   0.00328   0.04956   0.05021   0.05290
     Eigenvalues ---    0.05429   0.07604   0.08681   0.10592   0.10784
     Eigenvalues ---    0.12376   0.12689   0.15310   0.15433   0.17108
     Eigenvalues ---    0.18435   0.29738   0.33929   0.34032   0.34072
     Eigenvalues ---    0.34347   0.34755   0.34769   0.44494
 Angle between quadratic step and forces=  70.33 degrees.
 Linear search not attempted -- first point.
 Iteration  1 RMS(Cart)=  0.00032179 RMS(Int)=  0.00000005
 Iteration  2 RMS(Cart)=  0.00000006 RMS(Int)=  0.00000000
 Variable       Old X    -DE/DX   Delta X   Delta X   Delta X     New X
                                 (Linear)    (Quad)   (Total)
    R1        3.46827   0.00001   0.00000   0.00009   0.00009   3.46836
    R2        2.06171   0.00000   0.00000   0.00000   0.00000   2.06171
    R3        2.05898  -0.00000   0.00000  -0.00000  -0.00000   2.05898
    R4        2.06294  -0.00000   0.00000  -0.00001  -0.00001   2.06293
    R5        2.86146  -0.00001   0.00000  -0.00003  -0.00003   2.86144
    R6        3.46827   0.00001   0.00000   0.00009   0.00009   3.46836
    R7        2.05898  -0.00000   0.00000  -0.00000  -0.00000   2.05898
    R8        2.06294  -0.00000   0.00000  -0.00001  -0.00001   2.06293
    R9        2.06171   0.00000   0.00000   0.00000   0.00000   2.06171
    A1        1.90363  -0.00001   0.00000  -0.00014  -0.00014   1.90349
    A2        1.85951   0.00000   0.00000   0.00004   0.00004   1.85956
    A3        1.91353   0.00000   0.00000   0.00007   0.00007   1.91360
    A4        1.91929  -0.00000   0.00000  -0.00002  -0.00002   1.91927
    A5        1.94543   0.00000   0.00000   0.00002   0.00002   1.94544
    A6        1.92040  -0.00000   0.00000   0.00003   0.00003   1.92043
    A7        1.86460  -0.00000   0.00000  -0.00005  -0.00005   1.86455
    A8        1.68556   0.00000   0.00000  -0.00003  -0.00003   1.68553
    A9        1.86460  -0.00000   0.00000  -0.00005  -0.00005   1.86455
   A10        1.85951   0.00000   0.00000   0.00004   0.00004   1.85956
   A11        1.91353   0.00000   0.00000   0.00007   0.00007   1.91360
   A12        1.90363  -0.00001   0.00000  -0.00014  -0.00014   1.90349
   A13        1.92040  -0.00000   0.00000   0.00003   0.00003   1.92043
   A14        1.91929  -0.00000   0.00000  -0.00002  -0.00002   1.91927
   A15        1.94543   0.00000   0.00000   0.00002   0.00002   1.94544
    D1       -0.90167   0.00000   0.00000   0.00058   0.00058  -0.90109
    D2        1.01544   0.00000   0.00000   0.00051   0.00051   1.01595
    D3        1.16931   0.00000   0.00000   0.00050   0.00050   1.16981
    D4        3.08642  -0.00000   0.00000   0.00043   0.00043   3.08685
    D5       -3.03630   0.00000   0.00000   0.00060   0.00060  -3.03570
    D6       -1.11919   0.00000   0.00000   0.00053   0.00053  -1.11866
    D7       -3.08642   0.00000   0.00000  -0.00043  -0.00043  -3.08685
    D8        1.11919  -0.00000   0.00000  -0.00053  -0.00053   1.11866
    D9       -1.01544  -0.00000   0.00000  -0.00051  -0.00051  -1.01595
   D10       -1.16931  -0.00000   0.00000  -0.00050  -0.00050  -1.16981
   D11        3.03630  -0.00000   0.00000  -0.00060  -0.00060   3.03570
   D12        0.90167  -0.00000   0.00000  -0.00058  -0.00058   0.90109
         Item               Value     Threshold  Converged?
 Maximum Force            0.000013     0.000450     YES
 RMS     Force            0.000004     0.000300     YES
 Maximum Displacement     0.000957     0.001800     YES
 RMS     Displacement     0.000322     0.001200     YES
 Predicted change in Energy=-8.402007D-09
 Optimization completed.
    -- Stationary point found.
                           ----------------------------
                           !   Optimized Parameters   !
                           ! (Angstroms and Degrees)  !
 --------------------------                            --------------------------
 ! Name  Definition              Value          Derivative Info.                !
 --------------------------------------------------------------------------------
 ! R1    R(1,2)                  1.8353         -DE/DX =    0.0                 !
 ! R2    R(1,5)                  1.091          -DE/DX =    0.0                 !
 ! R3    R(1,6)                  1.0896         -DE/DX =    0.0                 !
 ! R4    R(1,7)                  1.0917         -DE/DX =    0.0                 !
 ! R5    R(2,3)                  1.5142         -DE/DX =    0.0                 !
 ! R6    R(2,4)                  1.8353         -DE/DX =    0.0                 !
 ! R7    R(4,8)                  1.0896         -DE/DX =    0.0                 !
 ! R8    R(4,9)                  1.0917         -DE/DX =    0.0                 !
 ! R9    R(4,10)                 1.091          -DE/DX =    0.0                 !
 ! A1    A(2,1,5)              109.0698         -DE/DX =    0.0                 !
 ! A2    A(2,1,6)              106.5423         -DE/DX =    0.0                 !
 ! A3    A(2,1,7)              109.6372         -DE/DX =    0.0                 !
 ! A4    A(5,1,6)              109.9673         -DE/DX =    0.0                 !
 ! A5    A(5,1,7)              111.4646         -DE/DX =    0.0                 !
 ! A6    A(6,1,7)              110.0308         -DE/DX =    0.0                 !
 ! A7    A(1,2,3)              106.8335         -DE/DX =    0.0                 !
 ! A8    A(1,2,4)               96.5753         -DE/DX =    0.0                 !
 ! A9    A(3,2,4)              106.8335         -DE/DX =    0.0                 !
 ! A10   A(2,4,8)              106.5423         -DE/DX =    0.0                 !
 ! A11   A(2,4,9)              109.6372         -DE/DX =    0.0                 !
 ! A12   A(2,4,10)             109.0698         -DE/DX =    0.0                 !
 ! A13   A(8,4,9)              110.0308         -DE/DX =    0.0                 !
 ! A14   A(8,4,10)             109.9673         -DE/DX =    0.0                 !
 ! A15   A(9,4,10)             111.4646         -DE/DX =    0.0                 !
 ! D1    D(5,1,2,3)            -51.662          -DE/DX =    0.0                 !
 ! D2    D(5,1,2,4)             58.1804         -DE/DX =    0.0                 !
 ! D3    D(6,1,2,3)             66.9966         -DE/DX =    0.0                 !
 ! D4    D(6,1,2,4)            176.839          -DE/DX =    0.0                 !
 ! D5    D(7,1,2,3)           -173.9673         -DE/DX =    0.0                 !
 ! D6    D(7,1,2,4)            -64.1249         -DE/DX =    0.0                 !
 ! D7    D(1,2,4,8)           -176.839          -DE/DX =    0.0                 !
 ! D8    D(1,2,4,9)             64.1249         -DE/DX =    0.0                 !
 ! D9    D(1,2,4,10)           -58.1804         -DE/DX =    0.0                 !
 ! D10   D(3,2,4,8)            -66.9966         -DE/DX =    0.0                 !
 ! D11   D(3,2,4,9)            173.9673         -DE/DX =    0.0                 !
 ! D12   D(3,2,4,10)            51.662          -DE/DX =    0.0                 !
 --------------------------------------------------------------------------------
 GradGradGradGradGradGradGradGradGradGradGradGradGradGradGradGradGradGrad


 ----------------------------------------------------------------------

 Electric dipole moment (input orientation):
 (Debye = 10**-18 statcoulomb cm , SI units = C m)
                  (au)            (Debye)         (10**-30 SI)
   Tot        0.174631D+01      0.443868D+01      0.148058D+02
   x          0.391241D-01      0.994435D-01      0.331708D+00
   y         -0.174417D+01     -0.443324D+01     -0.147877D+02
   z          0.770765D-01      0.195909D+00      0.653481D+00

 Dipole polarizability, Alpha (input orientation).
 (esu units = cm**3 , SI units = C**2 m**2 J**-1)
 Alpha(0;0):
               (au)            (10**-24 esu)      (10**-40 SI)
   iso        0.514675D+02      0.762669D+01      0.848584D+01
   aniso      0.126380D+02      0.187276D+01      0.208373D+01
   xx         0.554375D+02      0.821499D+01      0.914041D+01
   yx         0.889825D-01      0.131858D-01      0.146712D-01
   yy         0.556858D+02      0.825178D+01      0.918134D+01
   zx         0.794605D+00      0.117748D+00      0.131013D+00
   zy        -0.151622D+01     -0.224681D+00     -0.249991D+00
   zz         0.432792D+02      0.641331D+01      0.713577D+01

 ----------------------------------------------------------------------

 Dipole orientation:
     6         -2.58174557         -0.19555463          0.42830315
    16          0.12433323         -1.47063634         -1.32673785
     8          0.02740614         -0.32416484         -3.94669511
     6          2.57793182          0.24066420          0.42830319
     1         -2.57416962          1.86059881          0.27728501
     1         -4.27231500         -0.95991160         -0.46452946
     1         -2.48309728         -0.80834676          2.39565769
     1          4.37283161         -0.22901776         -0.46452954
     1          2.58356406         -0.37999205          2.39565766
     1          2.22526062          2.26636097          0.27728525

 Electric dipole moment (dipole orientation):
 (Debye = 10**-18 statcoulomb cm , SI units = C m)
                  (au)            (Debye)         (10**-30 SI)
   Tot        0.174631D+01      0.443868D+01      0.148058D+02
   x          0.000000D+00      0.000000D+00      0.000000D+00
   y          0.000000D+00      0.000000D+00      0.000000D+00
   z          0.174631D+01      0.443868D+01      0.148058D+02

 Dipole polarizability, Alpha (dipole orientation).
 (esu units = cm**3 , SI units = C**2 m**2 J**-1)
 Alpha(0;0):
               (au)            (10**-24 esu)      (10**-40 SI)
   iso        0.514675D+02      0.762669D+01      0.848584D+01
   aniso      0.126380D+02      0.187276D+01      0.208373D+01
   xx         0.554012D+02      0.820961D+01      0.913442D+01
   yx         0.103824D+01      0.153851D+00      0.171182D+00
   yy         0.432085D+02      0.640284D+01      0.712412D+01
   zx        -0.827856D-01     -0.122676D-01     -0.136495D-01
   zy         0.979203D+00      0.145103D+00      0.161449D+00
   zz         0.557927D+02      0.826763D+01      0.919898D+01

 ----------------------------------------------------------------------
 Unable to Open any file for archive entry.
 1\1\GINC-CCC131\Freq\RB3LYP\6-311++G(d,p)\C2H6O1S1\ROOT\12-Jun-2024\0\
 \#N Geom=AllCheck Guess=TCheck SCRF=Check GenChk RB3LYP/6-311++G(d,p) 
 Freq\\CS(=O)C\\0,1\C,-1.3626840668,-0.2602660011,-0.0627445277\S,0.033
 3555828,0.6679063518,-0.8097348746\O,-0.0359709425,2.0785982345,-0.263
 834933\C,1.3713340462,-0.1914531169,0.1066384723\H,-1.3371494908,-0.13
 1815785,1.0203742962\H,-2.2761181255,0.1744026922,-0.4675394383\H,-1.2
 941319442,-1.3134187194,-0.3418423698\H,2.3047859918,0.2897001838,-0.1
 837346381\H,1.3905986718,-1.2458463332,-0.175513023\H,1.2059802859,-0.
 0678075066,1.1779310365\\Version=ES64L-G16RevC.02\State=1-A\HF=-553.26
 79478\RMSD=4.834e-09\RMSF=7.032e-06\ZeroPoint=0.0787947\Thermal=0.0845
 156\ETot=-553.1834322\HTot=-553.182488\GTot=-553.2175591\Dipole=0.0391
 241,-1.7441698,0.0770765\DipoleDeriv=-0.1452048,-0.0640223,0.0270024,-
 0.0971708,-0.1260907,0.0430963,0.1080069,0.120121,-0.0499634,0.7284374
 ,-0.0223106,0.0171498,-0.0044018,1.3896261,-0.1973592,0.0098743,0.0917
 077,0.5323004,-0.5148394,0.0419506,-0.0020853,0.0102578,-1.2155786,0.1
 194842,0.0107901,-0.39207,-0.5287948,-0.1341988,0.0481665,-0.0394647,0
 .0903116,-0.1185552,0.0530215,-0.1241241,0.1212118,-0.068505,0.0239523
 ,-0.057553,-0.023009,-0.0415054,0.0552114,-0.0143101,0.0413233,0.02095
 88,-0.0697075,-0.0330464,0.0140341,-0.0319075,0.0372057,0.0650163,0.03
 10018,-0.0213032,0.0365981,0.0669165,0.0413597,0.0071009,0.0305969,-0.
 0310412,-0.0866992,-0.028612,0.0395505,-0.0286237,0.0626802,-0.0348215
 ,-0.023402,0.0175815,-0.0457391,0.0619876,0.0271114,0.0066381,0.034984
 8,0.0717204,0.0483957,0.0031715,-0.0308789,0.0409929,-0.0849895,-0.025
 7075,-0.0397021,-0.0308728,0.0539345,0.0199658,0.0528642,0.0350147,0.0
 410902,0.0600719,-0.0077264,-0.0310537,0.0259842,-0.0705814\Polar=55.4
 37484,0.0889825,55.6857526,0.7946052,-1.5162216,43.2791706\Quadrupole=
 3.3397977,-3.6522301,0.3124324,0.2199375,0.2063614,-0.7020233\PG=C01 [
 X(C2H6O1S1)]\NImag=0\\0.42312497,-0.09218568,0.50946287,0.07075944,0.0
 4820766,0.52561024,-0.08555777,-0.00994237,0.05679384,0.26297230,-0.01
 762854,-0.05646956,0.02567101,-0.01065452,0.46421105,0.01424073,0.0031
 4934,-0.08176466,-0.00480932,0.08999058,0.30347436,0.00750466,-0.02067
 818,-0.01438108,-0.05234846,0.01649024,0.00674425,0.03748093,0.0025454
 7,-0.02338854,-0.00846340,0.01452384,-0.34663125,-0.11453731,-0.016725
 77,0.39403576,0.00015564,0.01104043,0.01491690,0.00754311,-0.14627712,
 -0.11384332,-0.00563378,0.12480591,0.07694276,-0.02129307,0.00819082,-
 0.01443817,-0.07793370,0.01320286,-0.01386416,0.00491601,-0.00006650,-
 0.00195636,0.43364175,-0.00924316,0.01069755,-0.00541228,0.00822150,-0
 .05524123,0.00355540,0.02061889,-0.02241322,0.01354982,0.08145953,0.51
 819721,0.01126821,-0.00368517,0.00602667,-0.05751611,0.02469216,-0.090
 61708,0.01361155,-0.00791663,0.01653024,-0.08428137,0.05504701,0.50635
 913,-0.04135575,0.00160102,-0.00848710,-0.01049550,-0.00112172,0.02832
 847,0.00314450,0.00196821,-0.00510011,0.00238491,0.00024852,0.00087447
 ,0.04563690,0.00169906,-0.04975205,-0.03232572,-0.00644098,0.00087003,
 0.01788738,0.00269547,0.00093026,-0.00339573,0.00168475,-0.00064678,-0
 .00037312,0.00086174,0.04726722,-0.01334892,-0.03485933,-0.31525606,0.
 00456415,-0.00040240,-0.01342666,-0.00179427,0.00105490,0.00337804,-0.
 00126922,-0.00023483,0.00167262,0.01085393,0.03578455,0.33570201,-0.23
 701935,0.09536932,-0.08999434,-0.01848179,0.00950301,-0.00678874,0.002
 80211,-0.00101613,-0.00039833,-0.00398003,-0.00318787,0.00319600,0.001
 22569,-0.00036660,0.00075479,0.25460785,0.09420155,-0.08979290,0.04050
 213,-0.01317894,0.00532915,-0.00519946,0.00159729,0.00042061,-0.000264
 67,-0.00317213,-0.00234771,0.00168293,-0.00388055,0.00150395,-0.001738
 28,-0.10054665,0.09355421,-0.08759257,0.04121587,-0.08501518,0.0106266
 2,-0.00539647,0.00402089,-0.00081521,-0.00101846,-0.00043735,0.0024085
 1,0.00193268,-0.00146355,-0.02636081,0.01271905,-0.00924436,0.09336667
 ,-0.04627675,0.08850680,-0.04464658,0.01627739,0.00367722,0.00437009,-
 0.01687533,-0.00846946,-0.00452377,-0.00582179,0.00322759,0.00036308,0
 .00151759,-0.00028910,-0.00046833,-0.00048846,-0.00048042,0.00106926,0
 .02589277,0.00757610,0.04491617,0.01997305,-0.29803033,-0.06907637,0.0
 0316106,-0.00971628,-0.00436039,-0.00293098,-0.00224089,0.00212002,0.0
 0082046,0.00016469,-0.00029889,0.00037568,-0.00042563,0.00070400,-0.00
 051827,-0.00972766,-0.00304721,-0.02054552,0.31893465,0.00538869,-0.06
 629388,-0.06403963,-0.00428035,0.00857954,0.00240474,0.00287998,0.0027
 3695,-0.00032475,-0.00042684,-0.00060499,-0.00010967,0.00117150,-0.029
 86592,-0.00369858,0.00034509,0.01159297,0.00245668,-0.00506651,0.07371
 441,0.06305918,-0.00354598,0.00285367,-0.00352686,-0.01785844,-0.00991
 392,0.00429193,0.00261940,0.00124695,0.00079507,-0.24612719,-0.1073649
 3,0.06747145,0.00050671,0.00022805,-0.00032768,-0.00100664,-0.00100375
 ,0.00078193,0.00032846,-0.00002654,-0.00012864,0.26394540,0.00287131,-
 0.00204382,0.00188746,0.01251631,0.00548677,-0.00332961,-0.00143819,0.
 00040129,-0.00042240,-0.10612549,-0.09993185,0.03206858,-0.00014378,-0
 .00017794,0.00012443,0.00097010,0.00099772,-0.00046208,0.00005218,0.00
 024622,0.00017000,0.11382909,0.10433962,-0.00275293,0.00217639,-0.0022
 0149,-0.01302117,-0.00719559,0.00323991,0.00124108,-0.00082621,-0.0002
 3531,0.06504057,0.03251155,-0.06576838,-0.00016122,0.00017353,0.000195
 26,-0.00101743,-0.00062966,0.00110799,0.00023072,0.00018658,-0.0001851
 2,-0.06874677,-0.03709016,0.06838384,0.00037839,-0.00141941,0.00036005
 ,0.00209097,0.01630600,0.00869091,-0.00411215,0.00533353,-0.00378466,-
 0.04350601,0.00481406,0.00238334,-0.00017299,0.00010214,0.00008711,0.0
 0033639,-0.00006880,-0.00017524,-0.00125272,-0.00020070,0.00008373,0.0
 0334482,-0.02649352,-0.00738508,0.04351207,-0.00076495,0.00005086,-0.0
 0038079,-0.00199405,-0.00900944,-0.00424430,0.00254200,-0.00182263,0.0
 0228195,0.00148456,-0.29878490,-0.07025617,0.00010152,-0.00001144,0.00
 000303,0.00000839,0.00024405,0.00017852,0.00008540,0.00081690,0.000100
 08,0.00154408,-0.01099571,-0.00329954,-0.00253975,0.31984191,0.0005151
 3,-0.00076327,-0.00001115,0.00379640,0.01084209,0.00397702,-0.00347738
 ,0.00326741,-0.00115463,0.00052312,-0.06712834,-0.06442563,-0.00005018
 ,-0.00011907,0.00002490,0.00018474,0.00017038,-0.00019088,-0.00029626,
 0.00007279,0.00041935,-0.00081486,0.00831469,0.00144918,-0.00110030,0.
 07493197,0.06355603,0.00241046,-0.00006658,-0.00076300,-0.00675771,0.0
 0069192,-0.02836462,0.00251677,-0.00198782,0.00515183,-0.04846575,0.00
 291587,0.04328156,-0.00040614,0.00002482,0.00096052,0.00044650,0.00015
 922,0.00018398,-0.00015566,-0.00010825,0.00003334,-0.00220653,0.003961
 97,0.02657223,-0.00061877,-0.00046721,0.00071960,0.05323683,-0.0014681
 2,-0.00073409,-0.00060971,0.00378816,0.00117077,0.01708837,-0.00217077
 ,0.00070861,-0.00343820,0.00252113,-0.04969375,-0.03096070,-0.00001064
 ,0.00044238,-0.00043606,-0.00021531,-0.00018144,0.00015484,-0.00009423
 ,-0.00002167,-0.00012916,-0.00139271,0.00167769,0.01399311,0.00416644,
 -0.00032959,-0.02958867,-0.00512394,0.04696109,0.00136659,-0.00018805,
 0.00173437,-0.00369719,-0.00050380,-0.01746519,0.00162486,0.00089684,0
 .00422742,0.04826392,-0.03321601,-0.30820435,-0.00106895,-0.00048495,0
 .00065283,0.00035153,0.00016039,0.00025896,-0.00010990,-0.00001496,0.0
 0001781,0.00020444,-0.00126090,-0.00598587,0.00084013,0.00068526,-0.00
 364419,-0.04777545,0.03392618,0.32840821\\0.00001120,0.00001066,0.0000
 0342,0.00000016,-0.00002591,0.00000795,-0.00000022,0.00001259,-0.00000
 151,-0.00001206,0.00001007,0.00000198,-0.00000087,-0.00000490,-0.00000
 035,0.00000026,0.00000130,-0.00000219,0.00000039,-0.00000013,-0.000003
 42,-0.00000005,0.00000130,-0.00000221,0.00000004,-0.00000013,-0.000003
 44,0.00000115,-0.00000485,-0.00000022\\\@
 The archive entry for this job was punched.


 SOME PEOPLE TRY TO PULL THE WOOL OVER YOUR EYES
 USING THE WRONG YARN.
 Job cpu time:       0 days  0 hours  3 minutes  2.3 seconds.
 Elapsed time:       0 days  0 hours  0 minutes 24.6 seconds.
 File lengths (MBytes):  RWF=     24 Int=      0 D2E=      0 Chk=      3 Scr=      1
 Normal termination of Gaussian 16 at Wed Jun 12 21:58:28 2024.
