 Entering Gaussian System, Link 0=/apl/gaussian/16c02/g16/._.g16
 Initial command:
 /apl/gaussian/16c02/g16/l1.exe "/lwork/users/eso/6527395.ccpbs1/gaussian/Gau-1394334.inp" -scrdir="/lwork/users/eso/6527395.ccpbs1/gaussian/"
 Default CPUs for threads: 48,49,50,51,52,53,54,55
 Default is to use a total of   8 processors:
                                8 via shared-memory
                                1 via Linda
 Entering Link 1 = /apl/gaussian/16c02/g16/l1.exe PID=   1394335.
  
 Copyright (c) 1988-2021, Gaussian, Inc.  All Rights Reserved.
  
 This is part of the Gaussian(R) 16 program.  It is based on
 the Gaussian(R) 09 system (copyright 2009, Gaussian, Inc.),
 the Gaussian(R) 03 system (copyright 2003, Gaussian, Inc.),
 the Gaussian(R) 98 system (copyright 1998, Gaussian, Inc.),
 the Gaussian(R) 94 system (copyright 1995, Gaussian, Inc.),
 the Gaussian 92(TM) system (copyright 1992, Gaussian, Inc.),
 the Gaussian 90(TM) system (copyright 1990, Gaussian, Inc.),
 the Gaussian 88(TM) system (copyright 1988, Gaussian, Inc.),
 the Gaussian 86(TM) system (copyright 1986, Carnegie Mellon
 University), and the Gaussian 82(TM) system (copyright 1983,
 Carnegie Mellon University). Gaussian is a federally registered
 trademark of Gaussian, Inc.
  
 This software contains proprietary and confidential information,
 including trade secrets, belonging to Gaussian, Inc.
  
 This software is provided under written license and may be
 used, copied, transmitted, or stored only in accord with that
 written license.
  
 The following legend is applicable only to US Government
 contracts under FAR:
  
                    RESTRICTED RIGHTS LEGEND
  
 Use, reproduction and disclosure by the US Government is
 subject to restrictions as set forth in subparagraphs (a)
 and (c) of the Commercial Computer Software - Restricted
 Rights clause in FAR 52.227-19.
  
 Gaussian, Inc.
 340 Quinnipiac St., Bldg. 40, Wallingford CT 06492
  
  
 ---------------------------------------------------------------
 Warning -- This program may not be used in any manner that
 competes with the business of Gaussian, Inc. or will provide
 assistance to any competitor of Gaussian, Inc.  The licensee
 of this program is prohibited from giving any competitor of
 Gaussian, Inc. access to this program.  By using this program,
 the user acknowledges that Gaussian, Inc. is engaged in the
 business of creating and licensing software in the field of
 computational chemistry and represents and warrants to the
 licensee that it is not a competitor of Gaussian, Inc. and that
 it will not use this program in any manner prohibited above.
 ---------------------------------------------------------------
  

 Cite this work as:
 Gaussian 16, Revision C.02,
 M. J. Frisch, G. W. Trucks, H. B. Schlegel, G. E. Scuseria, 
 M. A. Robb, J. R. Cheeseman, G. Scalmani, V. Barone, 
 G. A. Petersson, H. Nakatsuji, X. Li, M. Caricato, A. V. Marenich, 
 J. Bloino, B. G. Janesko, R. Gomperts, B. Mennucci, H. P. Hratchian, 
 J. V. Ortiz, A. F. Izmaylov, J. L. Sonnenberg, D. Williams-Young, 
 F. Ding, F. Lipparini, F. Egidi, J. Goings, B. Peng, A. Petrone, 
 T. Henderson, D. Ranasinghe, V. G. Zakrzewski, J. Gao, N. Rega, 
 G. Zheng, W. Liang, M. Hada, M. Ehara, K. Toyota, R. Fukuda, 
 J. Hasegawa, M. Ishida, T. Nakajima, Y. Honda, O. Kitao, H. Nakai, 
 T. Vreven, K. Throssell, J. A. Montgomery, Jr., J. E. Peralta, 
 F. Ogliaro, M. J. Bearpark, J. J. Heyd, E. N. Brothers, K. N. Kudin, 
 V. N. Staroverov, T. A. Keith, R. Kobayashi, J. Normand, 
 K. Raghavachari, A. P. Rendell, J. C. Burant, S. S. Iyengar, 
 J. Tomasi, M. Cossi, J. M. Millam, M. Klene, C. Adamo, R. Cammi, 
 J. W. Ochterski, R. L. Martin, K. Morokuma, O. Farkas, 
 J. B. Foresman, and D. J. Fox, Gaussian, Inc., Wallingford CT, 2019.
 
 ******************************************
 Gaussian 16:  ES64L-G16RevC.02  7-Dec-2021
                12-Jun-2024 
 ******************************************
 %chk=Fc1ccccc1.chk
 %mem=9600MB
 SetSPE:  set environment variable "OMP_PROC_BIND" = "true"
 SetSPE:  set environment variable "OMP_PLACES" = "{48},{49},{50},{51},{52},{53},{54},{55}"
 --------------------------------------------------------
 # opt freq b3lyp/6-311++g(d,p) pop=nbo geom=connectivity
 --------------------------------------------------------
 1/18=20,19=15,26=3,38=1,57=2/1,3;
 2/9=110,12=2,17=6,18=5,40=1/2;
 3/5=4,6=6,7=1111,11=2,25=1,30=1,71=1,74=-5/1,2,3;
 4//1;
 5/5=2,38=5/2;
 6/7=2,8=2,9=2,10=2,28=1,40=1/1,7;
 7//1,2,3,16;
 1/18=20,19=15,26=3/3(2);
 2/9=110/2;
 99//99;
 2/9=110/2;
 3/5=4,6=6,7=1111,11=2,25=1,30=1,71=1,74=-5/1,2,3;
 4/5=5,16=3,69=1/1;
 5/5=2,38=5/2;
 7//1,2,3,16;
 1/18=20,19=15,26=3/3(-5);
 2/9=110/2;
 6/7=2,8=2,9=2,10=2,19=2,28=1,40=1/1,7;
 99/9=1/99;
 ---------
 Fc1ccccc1
 ---------
 Symbolic Z-matrix:
 Charge =  0 Multiplicity = 1
 F                     1.69418  -2.10272  -0.02355 
 C                     0.85374  -1.05961  -0.01187 
 C                    -0.51836  -1.28586  -0.02506 
 C                    -1.39356  -0.20012  -0.0129 
 C                    -0.88754   1.10156   0.01233 
 C                     0.4922    1.31883   0.02543 
 C                     1.36691   0.23269   0.01327 
 H                    -0.89503  -2.30325  -0.04465 
 H                    -2.46763  -0.36669  -0.02305 
 H                    -1.56982   1.94838   0.0218 
 H                     0.88361   2.33268   0.04507 
 H                     2.4413    0.3841    0.02318 
 

 GradGradGradGradGradGradGradGradGradGradGradGradGradGradGradGradGradGrad
 Berny optimization.
 Initialization pass.
                           ----------------------------
                           !    Initial Parameters    !
                           ! (Angstroms and Degrees)  !
 --------------------------                            --------------------------
 ! Name  Definition              Value          Derivative Info.                !
 --------------------------------------------------------------------------------
 ! R1    R(1,2)                  1.3396         estimate D2E/DX2                !
 ! R2    R(2,3)                  1.3907         estimate D2E/DX2                !
 ! R3    R(2,7)                  1.3907         estimate D2E/DX2                !
 ! R4    R(3,4)                  1.3946         estimate D2E/DX2                !
 ! R5    R(3,8)                  1.085          estimate D2E/DX2                !
 ! R6    R(4,5)                  1.3968         estimate D2E/DX2                !
 ! R7    R(4,9)                  1.087          estimate D2E/DX2                !
 ! R8    R(5,6)                  1.3968         estimate D2E/DX2                !
 ! R9    R(5,10)                 1.0875         estimate D2E/DX2                !
 ! R10   R(6,7)                  1.3946         estimate D2E/DX2                !
 ! R11   R(6,11)                 1.087          estimate D2E/DX2                !
 ! R12   R(7,12)                 1.085          estimate D2E/DX2                !
 ! A1    A(1,2,3)              119.487          estimate D2E/DX2                !
 ! A2    A(1,2,7)              119.487          estimate D2E/DX2                !
 ! A3    A(3,2,7)              121.0259         estimate D2E/DX2                !
 ! A4    A(2,3,4)              119.5            estimate D2E/DX2                !
 ! A5    A(2,3,8)              119.6842         estimate D2E/DX2                !
 ! A6    A(4,3,8)              120.8159         estimate D2E/DX2                !
 ! A7    A(3,4,5)              119.8887         estimate D2E/DX2                !
 ! A8    A(3,4,9)              120.0483         estimate D2E/DX2                !
 ! A9    A(5,4,9)              120.0629         estimate D2E/DX2                !
 ! A10   A(4,5,6)              120.1967         estimate D2E/DX2                !
 ! A11   A(4,5,10)             119.9017         estimate D2E/DX2                !
 ! A12   A(6,5,10)             119.9017         estimate D2E/DX2                !
 ! A13   A(5,6,7)              119.8887         estimate D2E/DX2                !
 ! A14   A(5,6,11)             120.063          estimate D2E/DX2                !
 ! A15   A(7,6,11)             120.0483         estimate D2E/DX2                !
 ! A16   A(2,7,6)              119.5            estimate D2E/DX2                !
 ! A17   A(2,7,12)             119.6842         estimate D2E/DX2                !
 ! A18   A(6,7,12)             120.8158         estimate D2E/DX2                !
 ! D1    D(1,2,3,4)           -179.9995         estimate D2E/DX2                !
 ! D2    D(1,2,3,8)              0.0004         estimate D2E/DX2                !
 ! D3    D(7,2,3,4)              0.0004         estimate D2E/DX2                !
 ! D4    D(7,2,3,8)           -179.9997         estimate D2E/DX2                !
 ! D5    D(1,2,7,6)            179.9994         estimate D2E/DX2                !
 ! D6    D(1,2,7,12)            -0.0005         estimate D2E/DX2                !
 ! D7    D(3,2,7,6)             -0.0005         estimate D2E/DX2                !
 ! D8    D(3,2,7,12)           179.9996         estimate D2E/DX2                !
 ! D9    D(2,3,4,5)              0.0001         estimate D2E/DX2                !
 ! D10   D(2,3,4,9)           -180.0            estimate D2E/DX2                !
 ! D11   D(8,3,4,5)           -179.9998         estimate D2E/DX2                !
 ! D12   D(8,3,4,9)              0.0001         estimate D2E/DX2                !
 ! D13   D(3,4,5,6)             -0.0005         estimate D2E/DX2                !
 ! D14   D(3,4,5,10)           179.9995         estimate D2E/DX2                !
 ! D15   D(9,4,5,6)            179.9996         estimate D2E/DX2                !
 ! D16   D(9,4,5,10)            -0.0004         estimate D2E/DX2                !
 ! D17   D(4,5,6,7)              0.0004         estimate D2E/DX2                !
 ! D18   D(4,5,6,11)          -179.9997         estimate D2E/DX2                !
 ! D19   D(10,5,6,7)          -179.9996         estimate D2E/DX2                !
 ! D20   D(10,5,6,11)            0.0003         estimate D2E/DX2                !
 ! D21   D(5,6,7,2)              0.0001         estimate D2E/DX2                !
 ! D22   D(5,6,7,12)          -180.0            estimate D2E/DX2                !
 ! D23   D(11,6,7,2)          -179.9998         estimate D2E/DX2                !
 ! D24   D(11,6,7,12)            0.0001         estimate D2E/DX2                !
 --------------------------------------------------------------------------------
 Trust Radius=3.00D-01 FncErr=1.00D-07 GrdErr=1.00D-06 EigMax=2.50D+02 EigMin=1.00D-04
 Number of steps in this run=     64 maximum allowed number of steps=    100.
 GradGradGradGradGradGradGradGradGradGradGradGradGradGradGradGradGradGrad

                          Input orientation:                          
 ---------------------------------------------------------------------
 Center     Atomic      Atomic             Coordinates (Angstroms)
 Number     Number       Type             X           Y           Z
 ---------------------------------------------------------------------
      1          9           0        1.694178   -2.102716   -0.023554
      2          6           0        0.853739   -1.059612   -0.011865
      3          6           0       -0.518361   -1.285865   -0.025058
      4          6           0       -1.393562   -0.200118   -0.012904
      5          6           0       -0.887539    1.101562    0.012330
      6          6           0        0.492204    1.318831    0.025433
      7          6           0        1.366914    0.232689    0.013271
      8          1           0       -0.895027   -2.303246   -0.044654
      9          1           0       -2.467634   -0.366685   -0.023054
     10          1           0       -1.569823    1.948375    0.021804
     11          1           0        0.883613    2.332682    0.045074
     12          1           0        2.441298    0.384102    0.023177
 ---------------------------------------------------------------------
                    Distance matrix (angstroms):
                    1          2          3          4          5
     1  F    0.000000
     2  C    1.339605   0.000000
     3  C    2.358511   1.390691   0.000000
     4  C    3.626862   2.406053   1.394622   0.000000
     5  C    4.115088   2.775483   2.416091   1.396806   0.000000
     6  C    3.626862   2.406053   2.794321   2.421733   1.396806
     7  C    2.358511   1.390691   2.421102   2.794321   2.416091
     8  H    2.597044   2.146132   1.085046   2.161641   3.405293
     9  H    4.509377   3.392903   2.155124   1.086959   2.157245
    10  H    5.202605   3.863001   3.401187   2.155990   1.087517
    11  H    4.509377   3.392903   3.881279   3.406459   2.157245
    12  H    2.597044   2.146132   3.398631   3.879273   3.405293
                    6          7          8          9         10
     6  C    0.000000
     7  C    1.394622   0.000000
     8  H    3.879273   3.398631   0.000000
     9  H    3.406458   3.881279   2.494760   0.000000
    10  H    2.155990   3.401187   4.305351   2.483462   0.000000
    11  H    1.086959   2.155124   4.966229   4.303729   2.483462
    12  H    2.161641   1.085046   4.284566   4.966229   4.305350
                   11         12
    11  H    0.000000
    12  H    2.494759   0.000000
 Stoichiometry    C6H5F
 Framework group  C1[X(C6H5F)]
 Deg. of freedom    30
 Full point group                 C1      NOp   1
 Largest Abelian subgroup         C1      NOp   1
 Largest concise Abelian subgroup C1      NOp   1
                         Standard orientation:                         
 ---------------------------------------------------------------------
 Center     Atomic      Atomic             Coordinates (Angstroms)
 Number     Number       Type             X           Y           Z
 ---------------------------------------------------------------------
      1          9           0        2.282148    0.000000   -0.000006
      2          6           0        0.942543    0.000000    0.000002
      3          6           0        0.258008   -1.210551    0.000004
      4          6           0       -1.136614   -1.210866    0.000002
      5          6           0       -1.832940    0.000000   -0.000005
      6          6           0       -1.136614    1.210866    0.000001
      7          6           0        0.258008    1.210551    0.000005
      8          1           0        0.814067   -2.142283    0.000007
      9          1           0       -1.680675   -2.151864    0.000003
     10          1           0       -2.920458    0.000000   -0.000015
     11          1           0       -1.680674    2.151865    0.000000
     12          1           0        0.814066    2.142283    0.000010
 ---------------------------------------------------------------------
 Rotational constants (GHZ):           5.6820409           2.5568465           1.7633578
 Standard basis: 6-311++G(d,p) (5D, 7F)
 There are   196 symmetry adapted cartesian basis functions of A   symmetry.
 There are   189 symmetry adapted basis functions of A   symmetry.
   189 basis functions,   297 primitive gaussians,   196 cartesian basis functions
    25 alpha electrons       25 beta electrons
       nuclear repulsion energy       269.1258359382 Hartrees.
 NAtoms=   12 NActive=   12 NUniq=   12 SFac= 1.00D+00 NAtFMM=   60 NAOKFM=F Big=F
 Integral buffers will be    131072 words long.
 Raffenetti 2 integral format.
 Two-electron integral symmetry is turned on.
 One-electron integrals computed using PRISM.
 NBasis=   189 RedAO= T EigKep=  1.66D-06  NBF=   189
 NBsUse=   189 1.00D-06 EigRej= -1.00D+00 NBFU=   189
 ExpMin= 3.60D-02 ExpMax= 1.14D+04 ExpMxC= 1.72D+03 IAcc=3 IRadAn=         5 AccDes= 0.00D+00
 Harris functional with IExCor=  402 and IRadAn=       5 diagonalized for initial guess.
 HarFok:  IExCor=  402 AccDes= 0.00D+00 IRadAn=         5 IDoV= 1 UseB2=F ITyADJ=14
 ICtDFT=  3500011 ScaDFX=  1.000000  1.000000  1.000000  1.000000
 FoFCou: FMM=F IPFlag=           0 FMFlag=      100000 FMFlg1=           0
         NFxFlg=           0 DoJE=T BraDBF=F KetDBF=T FulRan=T
         wScrn=  0.000000 ICntrl=       500 IOpCl=  0 I1Cent=   200000004 NGrid=           0
         NMat0=    1 NMatS0=      1 NMatT0=    0 NMatD0=    1 NMtDS0=    0 NMtDT0=    0
 Petite list used in FoFCou.
 Keep R1 ints in memory in canonical form, NReq=169410400.
 Requested convergence on RMS density matrix=1.00D-08 within 128 cycles.
 Requested convergence on MAX density matrix=1.00D-06.
 Requested convergence on             energy=1.00D-06.
 No special actions if energy rises.
 SCF Done:  E(RB3LYP) =  -331.579718271     A.U. after   12 cycles
            NFock= 12  Conv=0.81D-08     -V/T= 2.0041

 **********************************************************************

            Population analysis using the SCF Density.

 **********************************************************************

 Orbital symmetries:
       Occupied  (A) (A) (A) (A) (A) (A) (A) (A) (A) (A) (A) (A)
                 (A) (A) (A) (A) (A) (A) (A) (A) (A) (A) (A) (A)
                 (A)
       Virtual   (A) (A) (A) (A) (A) (A) (A) (A) (A) (A) (A) (A)
                 (A) (A) (A) (A) (A) (A) (A) (A) (A) (A) (A) (A)
                 (A) (A) (A) (A) (A) (A) (A) (A) (A) (A) (A) (A)
                 (A) (A) (A) (A) (A) (A) (A) (A) (A) (A) (A) (A)
                 (A) (A) (A) (A) (A) (A) (A) (A) (A) (A) (A) (A)
                 (A) (A) (A) (A) (A) (A) (A) (A) (A) (A) (A) (A)
                 (A) (A) (A) (A) (A) (A) (A) (A) (A) (A) (A) (A)
                 (A) (A) (A) (A) (A) (A) (A) (A) (A) (A) (A) (A)
                 (A) (A) (A) (A) (A) (A) (A) (A) (A) (A) (A) (A)
                 (A) (A) (A) (A) (A) (A) (A) (A) (A) (A) (A) (A)
                 (A) (A) (A) (A) (A) (A) (A) (A) (A) (A) (A) (A)
                 (A) (A) (A) (A) (A) (A) (A) (A) (A) (A) (A) (A)
                 (A) (A) (A) (A) (A) (A) (A) (A) (A) (A) (A) (A)
                 (A) (A) (A) (A) (A) (A) (A) (A)
 The electronic state is 1-A.
 Alpha  occ. eigenvalues --  -24.69699 -10.26792 -10.19297 -10.19296 -10.19003
 Alpha  occ. eigenvalues --  -10.19002 -10.18625  -1.24036  -0.87295  -0.76772
 Alpha  occ. eigenvalues --   -0.75912  -0.63408  -0.62455  -0.55858  -0.50769
 Alpha  occ. eigenvalues --   -0.50093  -0.47988  -0.45822  -0.44221  -0.41165
 Alpha  occ. eigenvalues --   -0.38272  -0.37361  -0.35840  -0.27305  -0.25882
 Alpha virt. eigenvalues --   -0.02997  -0.01904  -0.00813   0.00739   0.01304
 Alpha virt. eigenvalues --    0.03156   0.03331   0.05723   0.05839   0.07746
 Alpha virt. eigenvalues --    0.08544   0.08817   0.09786   0.10813   0.11658
 Alpha virt. eigenvalues --    0.11930   0.12338   0.12737   0.12812   0.13442
 Alpha virt. eigenvalues --    0.13680   0.13772   0.13880   0.15136   0.15260
 Alpha virt. eigenvalues --    0.17171   0.19161   0.19828   0.19894   0.21329
 Alpha virt. eigenvalues --    0.21608   0.24626   0.26082   0.26822   0.27386
 Alpha virt. eigenvalues --    0.27752   0.29904   0.30138   0.31230   0.33228
 Alpha virt. eigenvalues --    0.34468   0.34600   0.36472   0.38973   0.39268
 Alpha virt. eigenvalues --    0.43556   0.47754   0.49406   0.51654   0.52573
 Alpha virt. eigenvalues --    0.53940   0.55030   0.56013   0.56440   0.56756
 Alpha virt. eigenvalues --    0.59035   0.59599   0.60804   0.61119   0.66852
 Alpha virt. eigenvalues --    0.66916   0.71826   0.73100   0.75626   0.77424
 Alpha virt. eigenvalues --    0.78729   0.83361   0.84022   0.85197   0.86687
 Alpha virt. eigenvalues --    0.87207   0.88203   0.90962   0.93159   0.96389
 Alpha virt. eigenvalues --    0.99160   1.01294   1.01354   1.06393   1.09408
 Alpha virt. eigenvalues --    1.12077   1.17380   1.28502   1.32511   1.41761
 Alpha virt. eigenvalues --    1.43212   1.44429   1.49514   1.51456   1.52601
 Alpha virt. eigenvalues --    1.55297   1.55329   1.55631   1.60620   1.63049
 Alpha virt. eigenvalues --    1.63845   1.65548   1.72520   1.72997   1.75894
 Alpha virt. eigenvalues --    1.81677   1.85275   1.90400   1.90861   1.92332
 Alpha virt. eigenvalues --    1.93944   1.94277   1.97525   1.99752   2.02302
 Alpha virt. eigenvalues --    2.05143   2.06731   2.07302   2.26444   2.26958
 Alpha virt. eigenvalues --    2.32100   2.38967   2.40979   2.42968   2.48485
 Alpha virt. eigenvalues --    2.60565   2.62333   2.63412   2.68649   2.70527
 Alpha virt. eigenvalues --    2.72242   2.73786   2.75218   2.76013   2.77647
 Alpha virt. eigenvalues --    2.81901   2.82619   2.86130   2.87285   2.93185
 Alpha virt. eigenvalues --    3.06039   3.10215   3.16812   3.31791   3.33988
 Alpha virt. eigenvalues --    3.46428   3.47763   3.60211   3.71597   3.78240
 Alpha virt. eigenvalues --    3.84814   3.97808   3.99187   4.03278   4.11128
 Alpha virt. eigenvalues --    4.14108   4.15173   4.83242   4.87511   6.30847
 Alpha virt. eigenvalues --    6.43775   6.74966  23.55543  23.90791  23.95807
 Alpha virt. eigenvalues --   24.05900  24.08061  24.17699  66.79942
          Condensed to atoms (all electrons):
               1          2          3          4          5          6
     1  F    9.153841   0.673715  -0.348372   0.064197  -0.050216   0.064197
     2  C    0.673715   7.483810  -1.089523   0.931230  -1.053924   0.931230
     3  C   -0.348372  -1.089523   7.923260  -0.725368   0.857737  -0.562488
     4  C    0.064197   0.931230  -0.725368   5.939815  -0.396633   0.662117
     5  C   -0.050216  -1.053924   0.857737  -0.396633   6.016363  -0.396633
     6  C    0.064197   0.931230  -0.562488   0.662117  -0.396633   5.939815
     7  C   -0.348372  -1.089525  -0.706820  -0.562488   0.857737  -0.725368
     8  H   -0.024325  -0.136710   0.522252  -0.037115   0.028197   0.008012
     9  H    0.001195   0.045293  -0.104899   0.420838  -0.070614   0.004579
    10  H   -0.000217  -0.005827   0.012666  -0.053928   0.408164  -0.053928
    11  H    0.001195   0.045293   0.017623   0.004579  -0.070614   0.420838
    12  H   -0.024325  -0.136710  -0.071557   0.008012   0.028197  -0.037115
               7          8          9         10         11         12
     1  F   -0.348372  -0.024325   0.001195  -0.000217   0.001195  -0.024325
     2  C   -1.089525  -0.136710   0.045293  -0.005827   0.045293  -0.136710
     3  C   -0.706820   0.522252  -0.104899   0.012666   0.017623  -0.071557
     4  C   -0.562488  -0.037115   0.420838  -0.053928   0.004579   0.008012
     5  C    0.857737   0.028197  -0.070614   0.408164  -0.070614   0.028197
     6  C   -0.725368   0.008012   0.004579  -0.053928   0.420838  -0.037115
     7  C    7.923261  -0.071557   0.017623   0.012666  -0.104900   0.522252
     8  H   -0.071557   0.533327  -0.013314   0.000562   0.001372  -0.002373
     9  H    0.017623  -0.013314   0.537309  -0.007674  -0.000959   0.001372
    10  H    0.012666   0.000562  -0.007674   0.538323  -0.007674   0.000562
    11  H   -0.104900   0.001372  -0.000959  -0.007674   0.537309  -0.013314
    12  H    0.522252  -0.002373   0.001372   0.000562  -0.013314   0.533327
 Mulliken charges:
               1
     1  F   -0.162512
     2  C   -0.598350
     3  C    0.275490
     4  C   -0.255256
     5  C   -0.157761
     6  C   -0.255255
     7  C    0.275490
     8  H    0.191670
     9  H    0.169254
    10  H    0.156305
    11  H    0.169254
    12  H    0.191670
 Sum of Mulliken charges =  -0.00000
 Mulliken charges with hydrogens summed into heavy atoms:
               1
     1  F   -0.162512
     2  C   -0.598350
     3  C    0.467160
     4  C   -0.086001
     5  C   -0.001456
     6  C   -0.086001
     7  C    0.467161
 Electronic spatial extent (au):  <R**2>=            652.3601
 Charge=             -0.0000 electrons
 Dipole moment (field-independent basis, Debye):
    X=             -1.6432    Y=              0.0000    Z=              0.0000  Tot=              1.6432
 Quadrupole moment (field-independent basis, Debye-Ang):
   XX=            -41.1382   YY=            -34.7106   ZZ=            -43.7156
   XY=             -0.0000   XZ=              0.0000   YZ=             -0.0000
 Traceless Quadrupole moment (field-independent basis, Debye-Ang):
   XX=             -1.2834   YY=              5.1442   ZZ=             -3.8608
   XY=             -0.0000   XZ=              0.0000   YZ=             -0.0000
 Octapole moment (field-independent basis, Debye-Ang**2):
  XXX=             -2.1247  YYY=              0.0000  ZZZ=             -0.0001  XYY=              4.4962
  XXY=             -0.0000  XXZ=             -0.0001  XZZ=              9.0182  YZZ=              0.0000
  YYZ=              0.0001  XYZ=              0.0000
 Hexadecapole moment (field-independent basis, Debye-Ang**3):
 XXXX=           -485.0056 YYYY=           -269.4619 ZZZZ=            -50.2157 XXXY=              0.0000
 XXXZ=              0.0003 YYYX=             -0.0000 YYYZ=              0.0000 ZZZX=             -0.0001
 ZZZY=             -0.0000 XXYY=           -118.5667 XXZZ=            -94.7438 YYZZ=            -65.3082
 XXYZ=             -0.0000 YYXZ=             -0.0000 ZZXY=             -0.0000
 N-N= 2.691258359382D+02 E-N=-1.313893171554D+03  KE= 3.302405969484D+02
 ******************************Gaussian NBO Version 3.1******************************
             N A T U R A L   A T O M I C   O R B I T A L   A N D
          N A T U R A L   B O N D   O R B I T A L   A N A L Y S I S
 ******************************Gaussian NBO Version 3.1******************************
       /RESON  / : Allow strongly delocalized NBO set

 Analyzing the SCF density

 Job title: Fc1ccccc1                                                       

 Storage needed:    108039 in NPA,    143617 in NBO (1258290384 available)
 GSVD:  LWork=        7881 too small for GESVD, short by       46755 words or       46755 for optimal perf.


 NATURAL POPULATIONS:  Natural atomic orbital occupancies 
                                                          
   NAO  Atom  No  lang   Type(AO)    Occupancy      Energy
 ----------------------------------------------------------
     1    F    1  S      Cor( 1S)     1.99992     -24.43141
     2    F    1  S      Val( 2S)     1.82381      -1.27598
     3    F    1  S      Ryd( 3S)     0.00027       0.93257
     4    F    1  S      Ryd( 4S)     0.00009       1.84308
     5    F    1  S      Ryd( 5S)     0.00000      66.50908
     6    F    1  px     Val( 2p)     1.62196      -0.43863
     7    F    1  px     Ryd( 3p)     0.00069       0.49829
     8    F    1  px     Ryd( 4p)     0.00011       1.29059
     9    F    1  px     Ryd( 5p)     0.00006       6.41918
    10    F    1  py     Val( 2p)     1.97001      -0.42514
    11    F    1  py     Ryd( 3p)     0.00262       0.54161
    12    F    1  py     Ryd( 4p)     0.00006       1.38150
    13    F    1  py     Ryd( 5p)     0.00000       6.30566
    14    F    1  pz     Val( 2p)     1.92392      -0.42450
    15    F    1  pz     Ryd( 3p)     0.00136       0.44797
    16    F    1  pz     Ryd( 4p)     0.00006       1.19466
    17    F    1  pz     Ryd( 5p)     0.00000       6.25613
    18    F    1  dxy    Ryd( 3d)     0.00060       3.94777
    19    F    1  dxz    Ryd( 3d)     0.00058       3.86987
    20    F    1  dyz    Ryd( 3d)     0.00000       3.76788
    21    F    1  dx2y2  Ryd( 3d)     0.00105       4.21306
    22    F    1  dz2    Ryd( 3d)     0.00031       3.91512
 
    23    C    2  S      Cor( 1S)     1.99848     -10.14292
    24    C    2  S      Val( 2S)     0.83340      -0.15663
    25    C    2  S      Ryd( 4S)     0.00131       1.04635
    26    C    2  S      Ryd( 3S)     0.00006       0.80773
    27    C    2  S      Ryd( 5S)     0.00002      22.32507
    28    C    2  px     Val( 2p)     0.65019      -0.05976
    29    C    2  px     Ryd( 4p)     0.01074       1.11601
    30    C    2  px     Ryd( 3p)     0.00048       0.50075
    31    C    2  px     Ryd( 5p)     0.00020       2.70800
    32    C    2  py     Val( 2p)     1.08806      -0.07770
    33    C    2  py     Ryd( 4p)     0.00393       1.30742
    34    C    2  py     Ryd( 3p)     0.00057       0.43597
    35    C    2  py     Ryd( 5p)     0.00023       2.58742
    36    C    2  pz     Val( 2p)     0.99383      -0.13651
    37    C    2  pz     Ryd( 4p)     0.00123       0.68037
    38    C    2  pz     Ryd( 3p)     0.00048       0.32097
    39    C    2  pz     Ryd( 5p)     0.00006       2.51589
    40    C    2  dxy    Ryd( 3d)     0.00201       2.61510
    41    C    2  dxz    Ryd( 3d)     0.00232       1.55519
    42    C    2  dyz    Ryd( 3d)     0.00066       1.63190
    43    C    2  dx2y2  Ryd( 3d)     0.00228       2.48747
    44    C    2  dz2    Ryd( 3d)     0.00061       2.03684
 
    45    C    3  S      Cor( 1S)     1.99906     -10.04483
    46    C    3  S      Val( 2S)     0.96352      -0.18225
    47    C    3  S      Ryd( 3S)     0.00156       0.78309
    48    C    3  S      Ryd( 4S)     0.00010       0.79068
    49    C    3  S      Ryd( 5S)     0.00001      23.05508
    50    C    3  px     Val( 2p)     1.10519      -0.06885
    51    C    3  px     Ryd( 4p)     0.00568       0.91689
    52    C    3  px     Ryd( 3p)     0.00024       0.55819
    53    C    3  px     Ryd( 5p)     0.00011       2.96983
    54    C    3  py     Val( 2p)     1.14641      -0.07464
    55    C    3  py     Ryd( 4p)     0.00467       1.06083
    56    C    3  py     Ryd( 3p)     0.00022       0.54212
    57    C    3  py     Ryd( 5p)     0.00010       2.91456
    58    C    3  pz     Val( 2p)     1.03446      -0.12534
    59    C    3  pz     Ryd( 4p)     0.00133       0.51669
    60    C    3  pz     Ryd( 3p)     0.00033       0.33645
    61    C    3  pz     Ryd( 5p)     0.00002       2.63343
    62    C    3  dxy    Ryd( 3d)     0.00085       2.52869
    63    C    3  dxz    Ryd( 3d)     0.00046       1.64366
    64    C    3  dyz    Ryd( 3d)     0.00056       1.62472
    65    C    3  dx2y2  Ryd( 3d)     0.00059       2.58225
    66    C    3  dz2    Ryd( 3d)     0.00042       2.09036
 
    67    C    4  S      Cor( 1S)     1.99917     -10.04772
    68    C    4  S      Val( 2S)     0.95544      -0.17836
    69    C    4  S      Ryd( 3S)     0.00147       0.79050
    70    C    4  S      Ryd( 4S)     0.00007       1.39814
    71    C    4  S      Ryd( 5S)     0.00001      22.41118
    72    C    4  px     Val( 2p)     1.07847      -0.05781
    73    C    4  px     Ryd( 4p)     0.00491       0.86432
    74    C    4  px     Ryd( 3p)     0.00037       0.38750
    75    C    4  px     Ryd( 5p)     0.00013       3.07974
    76    C    4  py     Val( 2p)     1.14860      -0.06179
    77    C    4  py     Ryd( 4p)     0.00624       0.98159
    78    C    4  py     Ryd( 3p)     0.00021       0.44042
    79    C    4  py     Ryd( 5p)     0.00007       3.10208
    80    C    4  pz     Val( 2p)     0.98962      -0.12040
    81    C    4  pz     Ryd( 4p)     0.00091       0.51550
    82    C    4  pz     Ryd( 3p)     0.00032       0.29230
    83    C    4  pz     Ryd( 5p)     0.00001       2.66871
    84    C    4  dxy    Ryd( 3d)     0.00075       2.49654
    85    C    4  dxz    Ryd( 3d)     0.00051       1.64651
    86    C    4  dyz    Ryd( 3d)     0.00041       1.61326
    87    C    4  dx2y2  Ryd( 3d)     0.00069       2.55036
    88    C    4  dz2    Ryd( 3d)     0.00041       2.04881
 
    89    C    5  S      Cor( 1S)     1.99916     -10.04099
    90    C    5  S      Val( 2S)     0.95332      -0.17377
    91    C    5  S      Ryd( 3S)     0.00142       0.76662
    92    C    5  S      Ryd( 4S)     0.00005       1.33618
    93    C    5  S      Ryd( 5S)     0.00000      22.47670
    94    C    5  px     Val( 2p)     1.17258      -0.05947
    95    C    5  px     Ryd( 4p)     0.00670       1.03915
    96    C    5  px     Ryd( 3p)     0.00016       0.51191
    97    C    5  px     Ryd( 5p)     0.00005       3.07565
    98    C    5  py     Val( 2p)     1.06069      -0.05673
    99    C    5  py     Ryd( 4p)     0.00462       0.75818
   100    C    5  py     Ryd( 3p)     0.00048       0.38336
   101    C    5  py     Ryd( 5p)     0.00013       3.07364
   102    C    5  pz     Val( 2p)     1.01443      -0.11796
   103    C    5  pz     Ryd( 4p)     0.00114       0.50237
   104    C    5  pz     Ryd( 3p)     0.00027       0.29877
   105    C    5  pz     Ryd( 5p)     0.00001       2.68075
   106    C    5  dxy    Ryd( 3d)     0.00066       2.57203
   107    C    5  dxz    Ryd( 3d)     0.00039       1.59899
   108    C    5  dyz    Ryd( 3d)     0.00047       1.66500
   109    C    5  dx2y2  Ryd( 3d)     0.00084       2.47373
   110    C    5  dz2    Ryd( 3d)     0.00040       2.05009
 
   111    C    6  S      Cor( 1S)     1.99917     -10.04772
   112    C    6  S      Val( 2S)     0.95544      -0.17836
   113    C    6  S      Ryd( 3S)     0.00147       0.79050
   114    C    6  S      Ryd( 4S)     0.00007       1.39814
   115    C    6  S      Ryd( 5S)     0.00001      22.41118
   116    C    6  px     Val( 2p)     1.07847      -0.05781
   117    C    6  px     Ryd( 4p)     0.00491       0.86432
   118    C    6  px     Ryd( 3p)     0.00037       0.38750
   119    C    6  px     Ryd( 5p)     0.00013       3.07974
   120    C    6  py     Val( 2p)     1.14860      -0.06179
   121    C    6  py     Ryd( 4p)     0.00624       0.98159
   122    C    6  py     Ryd( 3p)     0.00021       0.44042
   123    C    6  py     Ryd( 5p)     0.00007       3.10208
   124    C    6  pz     Val( 2p)     0.98962      -0.12040
   125    C    6  pz     Ryd( 4p)     0.00091       0.51550
   126    C    6  pz     Ryd( 3p)     0.00032       0.29230
   127    C    6  pz     Ryd( 5p)     0.00001       2.66871
   128    C    6  dxy    Ryd( 3d)     0.00075       2.49654
   129    C    6  dxz    Ryd( 3d)     0.00051       1.64651
   130    C    6  dyz    Ryd( 3d)     0.00041       1.61326
   131    C    6  dx2y2  Ryd( 3d)     0.00069       2.55036
   132    C    6  dz2    Ryd( 3d)     0.00041       2.04881
 
   133    C    7  S      Cor( 1S)     1.99906     -10.04483
   134    C    7  S      Val( 2S)     0.96352      -0.18225
   135    C    7  S      Ryd( 3S)     0.00156       0.78309
   136    C    7  S      Ryd( 4S)     0.00010       0.79068
   137    C    7  S      Ryd( 5S)     0.00001      23.05508
   138    C    7  px     Val( 2p)     1.10519      -0.06885
   139    C    7  px     Ryd( 4p)     0.00568       0.91689
   140    C    7  px     Ryd( 3p)     0.00024       0.55819
   141    C    7  px     Ryd( 5p)     0.00011       2.96983
   142    C    7  py     Val( 2p)     1.14641      -0.07464
   143    C    7  py     Ryd( 4p)     0.00467       1.06083
   144    C    7  py     Ryd( 3p)     0.00022       0.54212
   145    C    7  py     Ryd( 5p)     0.00010       2.91456
   146    C    7  pz     Val( 2p)     1.03446      -0.12534
   147    C    7  pz     Ryd( 4p)     0.00133       0.51669
   148    C    7  pz     Ryd( 3p)     0.00033       0.33645
   149    C    7  pz     Ryd( 5p)     0.00002       2.63343
   150    C    7  dxy    Ryd( 3d)     0.00085       2.52869
   151    C    7  dxz    Ryd( 3d)     0.00046       1.64366
   152    C    7  dyz    Ryd( 3d)     0.00056       1.62472
   153    C    7  dx2y2  Ryd( 3d)     0.00059       2.58225
   154    C    7  dz2    Ryd( 3d)     0.00042       2.09036
 
   155    H    8  S      Val( 1S)     0.77807       0.03954
   156    H    8  S      Ryd( 3S)     0.00087       0.68832
   157    H    8  S      Ryd( 4S)     0.00017       2.02429
   158    H    8  S      Ryd( 2S)     0.00008       0.26318
   159    H    8  px     Ryd( 2p)     0.00019       2.16878
   160    H    8  py     Ryd( 2p)     0.00034       2.51796
   161    H    8  pz     Ryd( 2p)     0.00016       1.59096
 
   162    H    9  S      Val( 1S)     0.78913       0.04241
   163    H    9  S      Ryd( 3S)     0.00072       0.60420
   164    H    9  S      Ryd( 4S)     0.00019       2.10083
   165    H    9  S      Ryd( 2S)     0.00002       0.23500
   166    H    9  px     Ryd( 2p)     0.00020       2.13970
   167    H    9  py     Ryd( 2p)     0.00038       2.50386
   168    H    9  pz     Ryd( 2p)     0.00019       1.58258
 
   169    H   10  S      Val( 1S)     0.79092       0.04451
   170    H   10  S      Ryd( 3S)     0.00073       0.66670
   171    H   10  S      Ryd( 4S)     0.00018       2.04148
   172    H   10  S      Ryd( 2S)     0.00002       0.24887
   173    H   10  px     Ryd( 2p)     0.00045       2.68804
   174    H   10  py     Ryd( 2p)     0.00011       1.96019
   175    H   10  pz     Ryd( 2p)     0.00021       1.58573
 
   176    H   11  S      Val( 1S)     0.78913       0.04241
   177    H   11  S      Ryd( 3S)     0.00072       0.60420
   178    H   11  S      Ryd( 4S)     0.00019       2.10083
   179    H   11  S      Ryd( 2S)     0.00002       0.23500
   180    H   11  px     Ryd( 2p)     0.00020       2.13970
   181    H   11  py     Ryd( 2p)     0.00038       2.50387
   182    H   11  pz     Ryd( 2p)     0.00019       1.58258
 
   183    H   12  S      Val( 1S)     0.77807       0.03954
   184    H   12  S      Ryd( 3S)     0.00087       0.68832
   185    H   12  S      Ryd( 4S)     0.00017       2.02429
   186    H   12  S      Ryd( 2S)     0.00008       0.26318
   187    H   12  px     Ryd( 2p)     0.00019       2.16878
   188    H   12  py     Ryd( 2p)     0.00034       2.51796
   189    H   12  pz     Ryd( 2p)     0.00016       1.59096

 WARNING:  1 low occupancy (<1.9990e) core orbital  found on  C    2

 WARNING:  Population inversion found on atom  C    2
           Population inversion found on atom  C    3
           Population inversion found on atom  C    4
           Population inversion found on atom  C    5
           Population inversion found on atom  C    6
           Population inversion found on atom  C    7
           Population inversion found on atom  H    8
           Population inversion found on atom  H    9
           Population inversion found on atom  H   10
           Population inversion found on atom  H   11
           Population inversion found on atom  H   12


 Summary of Natural Population Analysis:                  
                                                          
                                       Natural Population 
                Natural  -----------------------------------------------
    Atom  No    Charge         Core      Valence    Rydberg      Total
 -----------------------------------------------------------------------
      F    1   -0.34746      1.99992     7.33969    0.00785     9.34746
      C    2    0.40883      1.99848     3.56548    0.02721     5.59117
      C    3   -0.26591      1.99906     4.24959    0.01726     6.26591
      C    4   -0.18876      1.99917     4.17214    0.01746     6.18876
      C    5   -0.21799      1.99916     4.20103    0.01781     6.21799
      C    6   -0.18876      1.99917     4.17214    0.01746     6.18876
      C    7   -0.26591      1.99906     4.24959    0.01726     6.26591
      H    8    0.22011      0.00000     0.77807    0.00181     0.77989
      H    9    0.20918      0.00000     0.78913    0.00170     0.79082
      H   10    0.20737      0.00000     0.79092    0.00171     0.79263
      H   11    0.20918      0.00000     0.78913    0.00170     0.79082
      H   12    0.22011      0.00000     0.77807    0.00181     0.77989
 =======================================================================
   * Total *   -0.00000     13.99400    35.87496    0.13104    50.00000

                                 Natural Population      
 --------------------------------------------------------
   Core                      13.99400 ( 99.9572% of  14)
   Valence                   35.87496 ( 99.6527% of  36)
   Natural Minimal Basis     49.86896 ( 99.7379% of  50)
   Natural Rydberg Basis      0.13104 (  0.2621% of  50)
 --------------------------------------------------------

    Atom  No          Natural Electron Configuration
 ----------------------------------------------------------------------------
      F    1      [core]2S( 1.82)2p( 5.52)
      C    2      [core]2S( 0.83)2p( 2.73)3d( 0.01)4p( 0.02)
      C    3      [core]2S( 0.96)2p( 3.29)4p( 0.01)
      C    4      [core]2S( 0.96)2p( 3.22)4p( 0.01)
      C    5      [core]2S( 0.95)2p( 3.25)4p( 0.01)
      C    6      [core]2S( 0.96)2p( 3.22)4p( 0.01)
      C    7      [core]2S( 0.96)2p( 3.29)4p( 0.01)
      H    8            1S( 0.78)
      H    9            1S( 0.79)
      H   10            1S( 0.79)
      H   11            1S( 0.79)
      H   12            1S( 0.78)


 NATURAL BOND ORBITAL ANALYSIS:

                       Occupancies       Lewis Structure    Low   High
           Occ.    -------------------  -----------------   occ   occ
  Cycle   Thresh.   Lewis   Non-Lewis     CR  BD  3C  LP    (L)   (NL)   Dev
 =============================================================================
   1(1)    1.90    46.72987   3.27013      7  12   0   6     3      3    0.44
   2(2)    1.90    46.72987   3.27013      7  12   0   6     3      3    0.44
   3(1)    1.80    46.72987   3.27013      7  12   0   6     3      3    0.44
   4(2)    1.80    46.72987   3.27013      7  12   0   6     3      3    0.44
   5(1)    1.70    46.72987   3.27013      7  12   0   6     3      3    0.44
   6(2)    1.70    46.72987   3.27013      7  12   0   6     3      3    0.44
   7(1)    1.60    48.65016   1.34984      7  15   0   3     0      3    0.44
   8(2)    1.60    48.02224   1.97776      7  14   0   4     1      3    0.44
   9(3)    1.60    48.65016   1.34984      7  15   0   3     0      3    0.44
  10(4)    1.60    48.65016   1.34984      7  15   0   3     0      3    0.44
  11(5)    1.60    48.02224   1.97776      7  14   0   4     1      3    0.44
  12(6)    1.60    48.65016   1.34984      7  15   0   3     0      3    0.44
  13(7)    1.60    48.65016   1.34984      7  15   0   3     0      3    0.44
  14(8)    1.60    48.02224   1.97776      7  14   0   4     1      3    0.44
  15(9)    1.60    48.65016   1.34984      7  15   0   3     0      3    0.44
  16(1)    1.50    48.65016   1.34984      7  15   0   3     0      3    0.44
  17(2)    1.50    48.02224   1.97776      7  14   0   4     1      3    0.44
  18(3)    1.50    48.65016   1.34984      7  15   0   3     0      3    0.44
  19(4)    1.50    48.65016   1.34984      7  15   0   3     0      3    0.44
  20(5)    1.50    48.02224   1.97776      7  14   0   4     1      3    0.44
  21(6)    1.50    48.65016   1.34984      7  15   0   3     0      3    0.44
  22(7)    1.50    48.65016   1.34984      7  15   0   3     0      3    0.44
  23(8)    1.50    48.02224   1.97776      7  14   0   4     1      3    0.44
  24(9)    1.50    48.65016   1.34984      7  15   0   3     0      3    0.44
  25(1)    1.60    48.65016   1.34984      7  15   0   3     0      3    0.44
 -----------------------------------------------------------------------------

 Structure accepted: RESONANCE keyword permits strongly delocalized structure

 WARNING:  1 low occupancy (<1.9990e) core orbital  found on  C    2

 --------------------------------------------------------
   Core                     13.99402 ( 99.957% of  14)
   Valence Lewis            34.65614 ( 96.267% of  36)
  ==================       ============================
   Total Lewis              48.65016 ( 97.300% of  50)
  -----------------------------------------------------
   Valence non-Lewis         1.26604 (  2.532% of  50)
   Rydberg non-Lewis         0.08381 (  0.168% of  50)
  ==================       ============================
   Total non-Lewis           1.34984 (  2.700% of  50)
 --------------------------------------------------------


       (Occupancy)   Bond orbital/ Coefficients/ Hybrids
 ---------------------------------------------------------------------------------
     1. (1.99611) BD ( 1) F   1 - C   2  
                ( 72.64%)   0.8523* F   1 s( 31.18%)p 2.20( 68.74%)d 0.00(  0.08%)
                                           -0.0000 -0.5583 -0.0091 -0.0024  0.0000
                                            0.8290 -0.0131 -0.0040 -0.0026  0.0000
                                           -0.0000  0.0000 -0.0000 -0.0000  0.0000
                                            0.0000  0.0000 -0.0000  0.0000  0.0000
                                           -0.0253  0.0137
                ( 27.36%)   0.5231* C   2 s( 22.40%)p 3.45( 77.26%)d 0.02(  0.34%)
                                            0.0001 -0.4727  0.0225 -0.0020  0.0028
                                           -0.8774  0.0477  0.0169  0.0147  0.0000
                                            0.0000  0.0000 -0.0000  0.0000 -0.0000
                                           -0.0000 -0.0000 -0.0000  0.0000  0.0000
                                           -0.0525  0.0261
     2. (1.98068) BD ( 1) C   2 - C   3  
                ( 50.01%)   0.7071* C   2 s( 38.67%)p 1.58( 61.29%)d 0.00(  0.04%)
                                            0.0000  0.6219  0.0050 -0.0006  0.0006
                                           -0.3354 -0.0212  0.0112 -0.0031 -0.7068
                                            0.0144  0.0053 -0.0005  0.0000 -0.0000
                                           -0.0000  0.0000  0.0127  0.0000 -0.0000
                                           -0.0118 -0.0076
                ( 49.99%)   0.7071* C   3 s( 34.24%)p 1.92( 65.70%)d 0.00(  0.05%)
                                           -0.0000  0.5851 -0.0051  0.0030  0.0010
                                            0.4248 -0.0400  0.0013  0.0005  0.6891
                                            0.0004 -0.0105  0.0024 -0.0000 -0.0000
                                            0.0000 -0.0000  0.0164 -0.0000 -0.0000
                                           -0.0104 -0.0130
     3. (1.65808) BD ( 2) C   2 - C   3  
                ( 48.42%)   0.6959* C   2 s(  0.00%)p 1.00( 99.95%)d 0.00(  0.05%)
                                            0.0000  0.0000  0.0000  0.0000 -0.0000
                                            0.0000  0.0000  0.0000  0.0000 -0.0000
                                           -0.0000 -0.0000 -0.0000  0.9992  0.0267
                                            0.0197  0.0073 -0.0000 -0.0185 -0.0114
                                            0.0000  0.0000
                ( 51.58%)   0.7182* C   3 s(  0.00%)p 1.00( 99.94%)d 0.00(  0.06%)
                                            0.0000  0.0000  0.0000 -0.0000 -0.0000
                                            0.0000 -0.0000 -0.0000 -0.0000  0.0000
                                            0.0000  0.0000  0.0000  0.9993  0.0220
                                            0.0165 -0.0014 -0.0000 -0.0012  0.0237
                                           -0.0000 -0.0000
     4. (1.98068) BD ( 1) C   2 - C   7  
                ( 50.01%)   0.7071* C   2 s( 38.67%)p 1.58( 61.29%)d 0.00(  0.04%)
                                            0.0000  0.6219  0.0050 -0.0006  0.0006
                                           -0.3354 -0.0212  0.0112 -0.0031  0.7068
                                           -0.0144 -0.0053  0.0005  0.0000 -0.0000
                                           -0.0000  0.0000 -0.0127 -0.0000  0.0000
                                           -0.0118 -0.0076
                ( 49.99%)   0.7071* C   7 s( 34.24%)p 1.92( 65.70%)d 0.00(  0.05%)
                                           -0.0000  0.5851 -0.0051  0.0030  0.0010
                                            0.4248 -0.0400  0.0013  0.0005 -0.6891
                                           -0.0004  0.0105 -0.0024 -0.0000 -0.0000
                                            0.0000 -0.0000 -0.0164 -0.0000  0.0000
                                           -0.0104 -0.0130
     5. (1.97537) BD ( 1) C   3 - C   4  
                ( 50.52%)   0.7108* C   3 s( 36.66%)p 1.73( 63.30%)d 0.00(  0.04%)
                                           -0.0002  0.6051 -0.0216 -0.0016 -0.0004
                                           -0.7943  0.0186  0.0085 -0.0012 -0.0233
                                            0.0335 -0.0051 -0.0008  0.0000 -0.0000
                                            0.0000 -0.0000 -0.0043  0.0000  0.0000
                                            0.0160 -0.0119
                ( 49.48%)   0.7034* C   4 s( 35.28%)p 1.83( 64.68%)d 0.00(  0.04%)
                                            0.0001  0.5938 -0.0143 -0.0013 -0.0001
                                            0.8024 -0.0217 -0.0121  0.0012 -0.0254
                                            0.0409 -0.0047  0.0005  0.0000 -0.0000
                                            0.0000  0.0000  0.0029  0.0000 -0.0000
                                            0.0166 -0.0125
     6. (1.97762) BD ( 1) C   3 - H   8  
                ( 61.02%)   0.7811* C   3 s( 29.11%)p 2.43( 70.85%)d 0.00(  0.04%)
                                            0.0003 -0.5391 -0.0218  0.0015  0.0005
                                           -0.4312 -0.0087  0.0009  0.0011  0.7228
                                            0.0083 -0.0020  0.0008 -0.0000  0.0000
                                            0.0000 -0.0000  0.0158 -0.0000  0.0000
                                            0.0070  0.0094
                ( 38.98%)   0.6243* H   8 s( 99.95%)p 0.00(  0.05%)
                                           -0.9998 -0.0013 -0.0010 -0.0002  0.0114
                                           -0.0185  0.0000
     7. (1.98012) BD ( 1) C   4 - C   5  
                ( 50.13%)   0.7080* C   4 s( 35.93%)p 1.78( 64.03%)d 0.00(  0.04%)
                                            0.0001  0.5992 -0.0145  0.0001 -0.0001
                                           -0.4211  0.0426  0.0016 -0.0006  0.6790
                                            0.0017 -0.0101  0.0001 -0.0000  0.0000
                                            0.0000 -0.0000 -0.0131  0.0000 -0.0000
                                           -0.0107 -0.0121
                ( 49.87%)   0.7062* C   5 s( 35.71%)p 1.80( 64.24%)d 0.00(  0.04%)
                                            0.0000  0.5974 -0.0140 -0.0004 -0.0000
                                            0.3769  0.0228 -0.0086  0.0002 -0.7059
                                            0.0381  0.0064 -0.0008  0.0000  0.0000
                                           -0.0000  0.0000 -0.0160  0.0000 -0.0000
                                           -0.0065 -0.0123
     8. (1.66723) BD ( 2) C   4 - C   5  
                ( 49.06%)   0.7005* C   4 s(  0.00%)p 1.00( 99.96%)d 0.00(  0.04%)
                                            0.0000  0.0000 -0.0000 -0.0000 -0.0000
                                           -0.0000 -0.0000 -0.0000  0.0000  0.0000
                                            0.0000  0.0000  0.0000  0.9995  0.0157
                                            0.0148 -0.0021 -0.0000  0.0009  0.0208
                                           -0.0000 -0.0000
                ( 50.94%)   0.7137* C   5 s(  0.00%)p 1.00( 99.96%)d 0.00(  0.04%)
                                           -0.0000  0.0000  0.0000  0.0000  0.0000
                                           -0.0000 -0.0000 -0.0000 -0.0000  0.0000
                                            0.0000  0.0000 -0.0000  0.9995  0.0184
                                            0.0148 -0.0020  0.0000  0.0183 -0.0089
                                           -0.0000  0.0000
     9. (1.98031) BD ( 1) C   4 - H   9  
                ( 60.53%)   0.7780* C   4 s( 28.81%)p 2.47( 71.15%)d 0.00(  0.04%)
                                            0.0004 -0.5362 -0.0243 -0.0011 -0.0003
                                            0.4189  0.0084 -0.0002  0.0008  0.7318
                                            0.0169  0.0010  0.0016 -0.0000  0.0000
                                            0.0000 -0.0000 -0.0163  0.0000  0.0000
                                            0.0095  0.0085
                ( 39.47%)   0.6282* H   9 s( 99.95%)p 0.00(  0.05%)
                                           -0.9998 -0.0014 -0.0010 -0.0000 -0.0108
                                           -0.0192  0.0000
    10. (1.98012) BD ( 1) C   5 - C   6  
                ( 49.87%)   0.7062* C   5 s( 35.71%)p 1.80( 64.24%)d 0.00(  0.04%)
                                            0.0000  0.5974 -0.0140 -0.0004 -0.0000
                                            0.3769  0.0228 -0.0086  0.0002  0.7059
                                           -0.0381 -0.0064  0.0008  0.0000  0.0000
                                           -0.0000  0.0000  0.0160  0.0000  0.0000
                                           -0.0065 -0.0123
                ( 50.13%)   0.7080* C   6 s( 35.93%)p 1.78( 64.03%)d 0.00(  0.04%)
                                            0.0001  0.5992 -0.0145  0.0001 -0.0001
                                           -0.4211  0.0426  0.0016 -0.0006 -0.6790
                                           -0.0017  0.0101 -0.0001 -0.0000  0.0000
                                            0.0000 -0.0000  0.0131  0.0000  0.0000
                                           -0.0107 -0.0121
    11. (1.98016) BD ( 1) C   5 - H  10  
                ( 60.45%)   0.7775* C   5 s( 28.59%)p 2.50( 71.37%)d 0.00(  0.04%)
                                            0.0004 -0.5341 -0.0241 -0.0010 -0.0002
                                            0.8446  0.0187  0.0005  0.0017 -0.0000
                                           -0.0000 -0.0000  0.0000  0.0000  0.0000
                                           -0.0000  0.0000  0.0000 -0.0000 -0.0000
                                           -0.0189  0.0084
                ( 39.55%)   0.6289* H  10 s( 99.95%)p 0.00(  0.05%)
                                           -0.9998 -0.0014 -0.0010  0.0001 -0.0219
                                            0.0000 -0.0000
    12. (1.97537) BD ( 1) C   6 - C   7  
                ( 49.48%)   0.7034* C   6 s( 35.28%)p 1.83( 64.68%)d 0.00(  0.04%)
                                            0.0001  0.5938 -0.0143 -0.0013 -0.0001
                                            0.8024 -0.0217 -0.0121  0.0012  0.0254
                                           -0.0409  0.0047 -0.0005  0.0000 -0.0000
                                           -0.0000  0.0000 -0.0029  0.0000 -0.0000
                                            0.0166 -0.0125
                ( 50.52%)   0.7108* C   7 s( 36.66%)p 1.73( 63.30%)d 0.00(  0.04%)
                                           -0.0002  0.6051 -0.0216 -0.0016 -0.0004
                                           -0.7943  0.0186  0.0085 -0.0012  0.0233
                                           -0.0335  0.0051  0.0008 -0.0000  0.0000
                                            0.0000 -0.0000  0.0043  0.0000  0.0000
                                            0.0160 -0.0119
    13. (1.68194) BD ( 2) C   6 - C   7  
                ( 48.31%)   0.6951* C   6 s(  0.00%)p 1.00( 99.95%)d 0.00(  0.05%)
                                           -0.0000 -0.0000  0.0000 -0.0000  0.0000
                                           -0.0000 -0.0000 -0.0000  0.0000 -0.0000
                                           -0.0000 -0.0000 -0.0000  0.9994  0.0194
                                            0.0174 -0.0015  0.0000  0.0186 -0.0112
                                           -0.0000  0.0000
                ( 51.69%)   0.7189* C   7 s(  0.00%)p 1.00( 99.95%)d 0.00(  0.05%)
                                           -0.0000 -0.0000  0.0000 -0.0000  0.0000
                                           -0.0000 -0.0000 -0.0000  0.0000 -0.0000
                                           -0.0000 -0.0000 -0.0000  0.9995  0.0186
                                            0.0149 -0.0027  0.0000 -0.0166 -0.0137
                                            0.0000 -0.0000
    14. (1.98031) BD ( 1) C   6 - H  11  
                ( 60.53%)   0.7780* C   6 s( 28.81%)p 2.47( 71.15%)d 0.00(  0.04%)
                                           -0.0004  0.5362  0.0243  0.0011  0.0003
                                           -0.4189 -0.0084  0.0002 -0.0008  0.7318
                                            0.0169  0.0010  0.0016  0.0000 -0.0000
                                            0.0000 -0.0000 -0.0163 -0.0000 -0.0000
                                           -0.0095 -0.0085
                ( 39.47%)   0.6282* H  11 s( 99.95%)p 0.00(  0.05%)
                                            0.9998  0.0014  0.0010  0.0000  0.0108
                                           -0.0192 -0.0000
    15. (1.97762) BD ( 1) C   7 - H  12  
                ( 61.02%)   0.7811* C   7 s( 29.11%)p 2.43( 70.85%)d 0.00(  0.04%)
                                           -0.0003  0.5391  0.0218 -0.0015 -0.0005
                                            0.4312  0.0087 -0.0009 -0.0011  0.7228
                                            0.0083 -0.0020  0.0008  0.0000 -0.0000
                                           -0.0000  0.0000  0.0158  0.0000  0.0000
                                           -0.0070 -0.0094
                ( 38.98%)   0.6243* H  12 s( 99.95%)p 0.00(  0.05%)
                                            0.9998  0.0013  0.0010  0.0002 -0.0114
                                           -0.0185 -0.0000
    16. (1.99992) CR ( 1) F   1           s(100.00%)p 0.00(  0.00%)
                                            1.0000  0.0001 -0.0000 -0.0000  0.0000
                                            0.0001 -0.0000 -0.0000  0.0000 -0.0000
                                           -0.0000 -0.0000  0.0000 -0.0000  0.0000
                                            0.0000 -0.0000  0.0000  0.0000  0.0000
                                           -0.0000  0.0000
    17. (1.99849) CR ( 1) C   2           s(100.00%)p 0.00(  0.00%)
                                            1.0000  0.0000 -0.0000  0.0000 -0.0000
                                            0.0002 -0.0000 -0.0000 -0.0000 -0.0000
                                            0.0000  0.0000  0.0000 -0.0000  0.0000
                                            0.0000  0.0000  0.0000 -0.0000 -0.0000
                                            0.0000 -0.0000
    18. (1.99906) CR ( 1) C   3           s(100.00%)p 0.00(  0.00%)
                                            1.0000  0.0003  0.0000 -0.0000 -0.0000
                                           -0.0000  0.0000  0.0000 -0.0000 -0.0002
                                            0.0000 -0.0000 -0.0000 -0.0000 -0.0000
                                           -0.0000  0.0000 -0.0000  0.0000 -0.0000
                                            0.0000 -0.0000
    19. (1.99917) CR ( 1) C   4           s(100.00%)p 0.00(  0.00%)
                                            1.0000  0.0001  0.0000  0.0000  0.0000
                                           -0.0002 -0.0000  0.0000 -0.0000 -0.0003
                                           -0.0000  0.0000 -0.0000 -0.0000 -0.0000
                                           -0.0000  0.0000  0.0000 -0.0000 -0.0000
                                           -0.0000 -0.0000
    20. (1.99916) CR ( 1) C   5           s(100.00%)p 0.00(  0.00%)
                                            1.0000  0.0002  0.0000  0.0000  0.0000
                                           -0.0004 -0.0000  0.0000 -0.0000 -0.0000
                                            0.0000  0.0000 -0.0000  0.0000  0.0000
                                            0.0000 -0.0000 -0.0000  0.0000 -0.0000
                                            0.0000 -0.0000
    21. (1.99917) CR ( 1) C   6           s(100.00%)p 0.00(  0.00%)
                                            1.0000  0.0001  0.0000  0.0000  0.0000
                                           -0.0002 -0.0000  0.0000 -0.0000  0.0003
                                            0.0000 -0.0000  0.0000  0.0000  0.0000
                                            0.0000 -0.0000 -0.0000  0.0000 -0.0000
                                           -0.0000 -0.0000
    22. (1.99906) CR ( 1) C   7           s(100.00%)p 0.00(  0.00%)
                                            1.0000  0.0003  0.0000 -0.0000 -0.0000
                                           -0.0000  0.0000  0.0000 -0.0000  0.0002
                                           -0.0000  0.0000  0.0000  0.0000  0.0000
                                            0.0000 -0.0000  0.0000 -0.0000 -0.0000
                                            0.0000 -0.0000
    23. (1.98929) LP ( 1) F   1           s( 68.82%)p 0.45( 31.17%)d 0.00(  0.01%)
                                           -0.0002  0.8296 -0.0048 -0.0010  0.0000
                                            0.5583 -0.0051 -0.0035  0.0036  0.0000
                                            0.0000 -0.0000  0.0000 -0.0000  0.0000
                                            0.0000 -0.0000 -0.0000  0.0000  0.0000
                                           -0.0068  0.0038
    24. (1.97064) LP ( 2) F   1           s(  0.00%)p 1.00( 99.97%)d 0.00(  0.03%)
                                            0.0000 -0.0000 -0.0000  0.0000 -0.0000
                                           -0.0000 -0.0000  0.0000  0.0000  0.9998
                                            0.0063  0.0035 -0.0004  0.0000  0.0000
                                            0.0000 -0.0000 -0.0164 -0.0000  0.0000
                                            0.0000 -0.0000
    25. (1.92448) LP ( 3) F   1           s(  0.00%)p 1.00( 99.97%)d 0.00(  0.03%)
                                            0.0000 -0.0000 -0.0000 -0.0000 -0.0000
                                            0.0000  0.0000 -0.0000 -0.0000 -0.0000
                                            0.0000 -0.0000 -0.0000  0.9999  0.0047
                                            0.0009  0.0001  0.0000 -0.0164 -0.0000
                                           -0.0000  0.0000
    26. (0.00263) RY*( 1) F   1           s(  0.00%)p 1.00( 97.71%)d 0.02(  2.29%)
                                           -0.0000 -0.0000  0.0000 -0.0000  0.0000
                                            0.0000  0.0000 -0.0000  0.0000 -0.0034
                                            0.9829 -0.1045 -0.0056 -0.0000  0.0000
                                            0.0000  0.0000  0.1513  0.0000 -0.0000
                                            0.0000  0.0000
    27. (0.00141) RY*( 2) F   1           s(  0.00%)p 1.00( 96.08%)d 0.04(  3.92%)
                                            0.0000 -0.0000 -0.0000 -0.0000 -0.0000
                                            0.0000  0.0000 -0.0000 -0.0000 -0.0000
                                           -0.0000 -0.0000 -0.0000 -0.0014  0.9636
                                            0.1785  0.0194 -0.0000  0.1979  0.0000
                                            0.0000 -0.0000
    28. (0.00047) RY*( 3) F   1           s(  6.53%)p14.13( 92.20%)d 0.20(  1.28%)
                                           -0.0000  0.0034  0.2283  0.1142  0.0087
                                           -0.0110 -0.9047  0.3142  0.0686 -0.0000
                                            0.0000 -0.0000  0.0000  0.0000  0.0000
                                            0.0000 -0.0000  0.0000  0.0000 -0.0000
                                           -0.0674  0.0906
    29. (0.00014) RY*( 4) F   1           s( 87.52%)p 0.10(  8.59%)d 0.04(  3.89%)
                                           -0.0000  0.0030 -0.6334  0.6885 -0.0002
                                           -0.0090 -0.0855  0.0124 -0.2799 -0.0000
                                            0.0000 -0.0000 -0.0000  0.0000  0.0000
                                           -0.0000  0.0000 -0.0000 -0.0000 -0.0000
                                           -0.1760 -0.0889
    30. (0.00003) RY*( 5) F   1           s( 59.92%)p 0.63( 37.93%)d 0.04(  2.15%)
    31. (0.00002) RY*( 6) F   1           s(  0.00%)p 1.00( 80.66%)d 0.24( 19.34%)
    32. (0.00001) RY*( 7) F   1           s(  0.00%)p 1.00(  2.60%)d37.49( 97.40%)
    33. (0.00001) RY*( 8) F   1           s(  0.00%)p 1.00(100.00%)
    34. (0.00000) RY*( 9) F   1           s(  0.00%)p 1.00( 99.72%)d 0.00(  0.28%)
    35. (0.00001) RY*(10) F   1           s( 16.27%)p 4.91( 79.88%)d 0.24(  3.85%)
    36. (0.00000) RY*(11) F   1           s( 20.88%)p 3.70( 77.33%)d 0.09(  1.80%)
    37. (0.00000) RY*(12) F   1           s(  0.00%)p 1.00( 99.99%)d 0.00(  0.01%)
    38. (0.00000) RY*(13) F   1           s( 99.98%)p 0.00(  0.02%)d 0.00(  0.00%)
    39. (0.00000) RY*(14) F   1           s(  0.00%)p 1.00( 23.29%)d 3.29( 76.71%)
    40. (0.00000) RY*(15) F   1           s(  0.00%)p 0.00(  0.00%)d 1.00(100.00%)
    41. (0.00000) RY*(16) F   1           s(  5.61%)p 0.30(  1.68%)d16.52( 92.70%)
    42. (0.00000) RY*(17) F   1           s(  3.29%)p 0.75(  2.46%)d28.63( 94.25%)
    43. (0.00838) RY*( 1) C   2           s(  2.06%)p46.77( 96.51%)d 0.69(  1.43%)
                                           -0.0000  0.0469  0.1329 -0.0198 -0.0193
                                            0.0217  0.9794 -0.0659 -0.0304 -0.0000
                                           -0.0000 -0.0000  0.0000 -0.0000 -0.0000
                                            0.0000  0.0000 -0.0000  0.0000  0.0000
                                            0.1159 -0.0297
    44. (0.00417) RY*( 2) C   2           s(  0.00%)p 1.00( 88.53%)d 0.13( 11.47%)
                                           -0.0000  0.0000  0.0000 -0.0000  0.0000
                                            0.0000  0.0000  0.0000 -0.0000  0.0251
                                            0.9220  0.0059 -0.1858 -0.0000  0.0000
                                           -0.0000 -0.0000  0.3387  0.0000 -0.0000
                                            0.0000 -0.0000
    45. (0.00249) RY*( 3) C   2           s(  0.00%)p 1.00(  8.35%)d10.98( 91.65%)
                                           -0.0000 -0.0000 -0.0000  0.0000  0.0000
                                           -0.0000 -0.0000  0.0000 -0.0000 -0.0000
                                            0.0000 -0.0000  0.0000  0.0092  0.2520
                                            0.1367 -0.0346 -0.0000  0.9554  0.0602
                                            0.0000 -0.0000
    46. (0.00208) RY*( 4) C   2           s(  0.00%)p 1.00( 37.07%)d 1.70( 62.93%)
                                           -0.0000  0.0000  0.0000  0.0000 -0.0000
                                            0.0000  0.0000  0.0000 -0.0000  0.0114
                                           -0.3238  0.4952 -0.1432  0.0000 -0.0000
                                            0.0000 -0.0000  0.7933  0.0000 -0.0000
                                           -0.0000  0.0000
    47. (0.00181) RY*( 5) C   2           s( 45.72%)p 0.14(  6.21%)d 1.05( 48.07%)
                                            0.0000  0.0126  0.6697  0.0902 -0.0193
                                            0.0587  0.0040  0.2155 -0.1107 -0.0000
                                            0.0000 -0.0000  0.0000  0.0000 -0.0000
                                            0.0000 -0.0000 -0.0000  0.0000  0.0000
                                           -0.6530  0.2329
    48. (0.00078) RY*( 6) C   2           s(  0.00%)p 1.00(  0.03%)d99.99( 99.97%)
                                           -0.0000 -0.0000  0.0000 -0.0000  0.0000
                                           -0.0000 -0.0000 -0.0000  0.0000  0.0000
                                            0.0000  0.0000  0.0000  0.0101  0.0096
                                           -0.0091  0.0073  0.0000 -0.0639  0.9978
                                            0.0000  0.0000
    49. (0.00024) RY*( 7) C   2           s( 57.42%)p 0.19( 11.15%)d 0.55( 31.43%)
                                            0.0000 -0.0136  0.7140 -0.2484  0.0498
                                           -0.0255 -0.1844 -0.2730  0.0484  0.0000
                                           -0.0000  0.0000 -0.0000 -0.0000  0.0001
                                           -0.0000  0.0000 -0.0000 -0.0000 -0.0000
                                            0.5183 -0.2137
    50. (0.00020) RY*( 8) C   2           s(  0.00%)p 1.00( 94.40%)d 0.06(  5.60%)
                                            0.0000  0.0000 -0.0000  0.0000 -0.0000
                                            0.0000  0.0000  0.0000 -0.0000  0.0000
                                           -0.0000 -0.0000  0.0000 -0.0306  0.9495
                                           -0.0421  0.1991  0.0000 -0.2353 -0.0258
                                           -0.0000  0.0000
    51. (0.00013) RY*( 9) C   2           s( 16.58%)p 0.68( 11.24%)d 4.35( 72.18%)
                                           -0.0000  0.0076  0.0434  0.3510  0.2016
                                           -0.0126 -0.0321 -0.0401 -0.3310 -0.0000
                                            0.0000 -0.0000  0.0000 -0.0000 -0.0000
                                            0.0000  0.0000  0.0000  0.0000 -0.0000
                                            0.3967  0.7513
    52. (0.00007) RY*(10) C   2           s(  0.00%)p 1.00( 81.82%)d 0.22( 18.18%)
    53. (0.00004) RY*(11) C   2           s(  5.00%)p16.65( 83.23%)d 2.36( 11.77%)
    54. (0.00000) RY*(12) C   2           s(  0.00%)p 1.00( 99.30%)d 0.01(  0.70%)
    55. (0.00001) RY*(13) C   2           s( 78.90%)p 0.00(  0.21%)d 0.26( 20.88%)
    56. (0.00000) RY*(14) C   2           s( 93.48%)p 0.03(  3.13%)d 0.04(  3.39%)
    57. (0.00000) RY*(15) C   2           s(  0.00%)p 1.00( 92.62%)d 0.08(  7.38%)
    58. (0.00001) RY*(16) C   2           s(  1.09%)p80.82( 88.44%)d 9.56( 10.46%)
    59. (0.00000) RY*(17) C   2           s(  0.00%)p 1.00( 97.96%)d 0.02(  2.04%)
    60. (0.00522) RY*( 1) C   3           s(  0.40%)p99.99( 95.38%)d10.52(  4.22%)
                                           -0.0000 -0.0150  0.0463 -0.0393  0.0096
                                           -0.0001 -0.7007 -0.0245  0.0322 -0.0315
                                            0.6727 -0.0478  0.0729 -0.0000  0.0000
                                           -0.0000 -0.0000  0.1893 -0.0000  0.0000
                                            0.0684  0.0407
    61. (0.00271) RY*( 2) C   3           s(  0.22%)p99.99( 98.50%)d 5.79(  1.28%)
                                           -0.0000 -0.0052  0.0386  0.0256  0.0064
                                            0.0372  0.6907 -0.1269 -0.0923  0.0175
                                            0.6820 -0.1282  0.0036  0.0000 -0.0000
                                           -0.0000 -0.0000  0.1008 -0.0000  0.0000
                                           -0.0340  0.0389
    62. (0.00086) RY*( 3) C   3           s(  0.00%)p 1.00( 79.30%)d 0.26( 20.70%)
                                            0.0000 -0.0000 -0.0000 -0.0000 -0.0000
                                            0.0000  0.0000  0.0000 -0.0000  0.0000
                                            0.0000  0.0000  0.0000 -0.0209  0.8673
                                            0.1605  0.1208 -0.0000  0.4549 -0.0065
                                            0.0000  0.0000
    63. (0.00056) RY*( 4) C   3           s(  0.00%)p 1.00( 11.89%)d 7.41( 88.11%)
                                            0.0000  0.0000  0.0000  0.0000 -0.0000
                                           -0.0000 -0.0000 -0.0000 -0.0000  0.0000
                                           -0.0000 -0.0000 -0.0000 -0.0067 -0.3435
                                           -0.0285  0.0035  0.0000  0.6731  0.6543
                                           -0.0000 -0.0000
    64. (0.00053) RY*( 5) C   3           s( 94.30%)p 0.03(  2.39%)d 0.04(  3.31%)
                                            0.0000  0.0060  0.9651  0.1070  0.0077
                                           -0.0295 -0.0048 -0.0459  0.0252  0.0159
                                           -0.0670  0.0702 -0.1031 -0.0000  0.0000
                                            0.0000  0.0000  0.1106 -0.0000 -0.0000
                                           -0.1440 -0.0101
    65. (0.00025) RY*( 6) C   3           s( 13.40%)p 4.59( 61.50%)d 1.87( 25.10%)
                                            0.0000  0.0015 -0.1791  0.3192  0.0053
                                           -0.0156 -0.1376 -0.5925 -0.3454 -0.0114
                                           -0.0704 -0.0659 -0.3407  0.0000  0.0000
                                            0.0000  0.0000  0.1258 -0.0000 -0.0000
                                           -0.4843 -0.0240
    66. (0.00015) RY*( 7) C   3           s( 25.24%)p 1.25( 31.64%)d 1.71( 43.12%)
                                           -0.0000 -0.0069 -0.0896  0.4862 -0.0889
                                           -0.0008  0.0541  0.0052  0.4743 -0.0161
                                           -0.0963 -0.2285  0.1637  0.0000  0.0000
                                            0.0000  0.0000  0.5216  0.0000 -0.0000
                                            0.0779 -0.3912
    67. (0.00008) RY*( 8) C   3           s(  0.00%)p 1.00( 62.71%)d 0.59( 37.29%)
    68. (0.00008) RY*( 9) C   3           s(  3.61%)p17.17( 62.01%)d 9.52( 34.37%)
    69. (0.00004) RY*(10) C   3           s(  5.50%)p11.44( 62.92%)d 5.74( 31.58%)
    70. (0.00004) RY*(11) C   3           s(  4.90%)p10.19( 49.90%)d 9.23( 45.20%)
    71. (0.00000) RY*(12) C   3           s(  0.00%)p 1.00( 99.16%)d 0.01(  0.84%)
    72. (0.00001) RY*(13) C   3           s( 22.09%)p 2.09( 46.28%)d 1.43( 31.63%)
    73. (0.00000) RY*(14) C   3           s( 95.71%)p 0.03(  2.52%)d 0.02(  1.77%)
    74. (0.00000) RY*(15) C   3           s(  0.00%)p 1.00( 47.00%)d 1.13( 53.00%)
    75. (0.00001) RY*(16) C   3           s(  4.88%)p16.76( 81.78%)d 2.73( 13.34%)
    76. (0.00000) RY*(17) C   3           s( 29.74%)p 0.18(  5.31%)d 2.18( 64.94%)
    77. (0.00573) RY*( 1) C   4           s(  0.48%)p99.99( 94.46%)d10.48(  5.05%)
                                           -0.0000  0.0169 -0.0267  0.0617  0.0035
                                            0.0217 -0.4528  0.0465 -0.0378  0.0303
                                           -0.8546  0.0357 -0.0539  0.0000 -0.0000
                                            0.0000  0.0000  0.1892 -0.0000  0.0000
                                           -0.1186 -0.0261
    78. (0.00229) RY*( 2) C   4           s(  0.32%)p99.99( 98.86%)d 2.62(  0.83%)
                                           -0.0000  0.0010  0.0491  0.0272  0.0004
                                            0.0419  0.8400 -0.1466 -0.1887 -0.0215
                                           -0.4502  0.1173  0.0847  0.0000  0.0000
                                           -0.0000 -0.0000  0.0283  0.0000 -0.0000
                                            0.0864  0.0015
    79. (0.00079) RY*( 3) C   4           s(  0.00%)p 1.00( 48.18%)d 1.08( 51.82%)
                                            0.0000  0.0000  0.0000 -0.0000  0.0000
                                           -0.0000 -0.0000  0.0000 -0.0000  0.0000
                                            0.0000  0.0000 -0.0000 -0.0027  0.6545
                                            0.2086  0.0992  0.0000  0.4909 -0.5265
                                            0.0000  0.0000
    80. (0.00048) RY*( 4) C   4           s(  0.00%)p 1.00( 37.14%)d 1.69( 62.86%)
                                           -0.0000  0.0000  0.0000 -0.0000 -0.0000
                                            0.0000  0.0000  0.0000 -0.0000  0.0000
                                           -0.0000 -0.0000 -0.0000  0.0109 -0.5978
                                           -0.0857 -0.0813 -0.0000  0.7909 -0.0550
                                           -0.0000  0.0000
    81. (0.00038) RY*( 5) C   4           s( 91.11%)p 0.06(  5.18%)d 0.04(  3.71%)
                                           -0.0000  0.0043  0.9511 -0.0730 -0.0331
                                            0.0095 -0.0724  0.0416 -0.0760  0.0283
                                           -0.0067  0.0595 -0.1860 -0.0000  0.0000
                                           -0.0000  0.0000 -0.0409 -0.0000  0.0000
                                            0.1741 -0.0713
    82. (0.00025) RY*( 6) C   4           s(  1.27%)p60.05( 76.21%)d17.74( 22.52%)
                                            0.0000 -0.0024 -0.0397  0.0981  0.0385
                                           -0.0237 -0.1263 -0.7540  0.2582  0.0121
                                            0.0568  0.3167 -0.0825 -0.0000 -0.0000
                                           -0.0000 -0.0000  0.2973  0.0000  0.0000
                                            0.3686 -0.0300
    83. (0.00011) RY*( 7) C   4           s( 28.06%)p 0.37( 10.28%)d 2.20( 61.66%)
                                            0.0000 -0.0078 -0.1498  0.4984 -0.0984
                                           -0.0064 -0.0372  0.0392 -0.1148 -0.0124
                                           -0.0450  0.0382 -0.2882 -0.0000  0.0000
                                            0.0000  0.0000 -0.4958  0.0000 -0.0000
                                            0.2745 -0.5435
    84. (0.00007) RY*( 8) C   4           s(  6.56%)p 8.37( 54.93%)d 5.87( 38.51%)
    85. (0.00005) RY*( 9) C   4           s(  9.30%)p 6.19( 57.56%)d 3.56( 33.14%)
    86. (0.00001) RY*(10) C   4           s(  6.71%)p 2.21( 14.83%)d11.69( 78.46%)
    87. (0.00001) RY*(11) C   4           s(  0.00%)p 1.00( 99.43%)d 0.01(  0.57%)
    88. (0.00000) RY*(12) C   4           s(  0.00%)p 1.00( 99.65%)d 0.00(  0.35%)
    89. (0.00000) RY*(13) C   4           s( 94.98%)p 0.01(  1.22%)d 0.04(  3.79%)
    90. (0.00001) RY*(14) C   4           s( 47.61%)p 0.65( 30.71%)d 0.46( 21.67%)
    91. (0.00001) RY*(15) C   4           s(  0.00%)p 1.00( 15.65%)d 5.39( 84.35%)
    92. (0.00000) RY*(16) C   4           s(  8.48%)p 9.59( 81.32%)d 1.20( 10.20%)
    93. (0.00000) RY*(17) C   4           s(  5.10%)p14.63( 74.57%)d 3.99( 20.34%)
    94. (0.00609) RY*( 1) C   5           s(  1.33%)p70.03( 93.35%)d 3.99(  5.32%)
                                            0.0000 -0.0156  0.1127 -0.0161  0.0108
                                           -0.0334  0.9633 -0.0348  0.0565  0.0000
                                            0.0000  0.0000 -0.0000 -0.0000  0.0000
                                            0.0000  0.0000  0.0000 -0.0000 -0.0000
                                           -0.2291  0.0257
    95. (0.00216) RY*( 2) C   5           s(  0.00%)p 1.00( 99.34%)d 0.01(  0.66%)
                                           -0.0000  0.0000  0.0000 -0.0000 -0.0000
                                            0.0000 -0.0000 -0.0000 -0.0000  0.0471
                                            0.9446 -0.2442 -0.1982 -0.0000 -0.0000
                                            0.0000  0.0000  0.0812  0.0000 -0.0000
                                            0.0000 -0.0000
    96. (0.00080) RY*( 3) C   5           s(  0.00%)p 1.00( 84.69%)d 0.18( 15.31%)
                                           -0.0000  0.0000  0.0000  0.0000  0.0000
                                            0.0000 -0.0000 -0.0000 -0.0000  0.0000
                                            0.0000  0.0000 -0.0000 -0.0107  0.8973
                                            0.1634  0.1226 -0.0000 -0.3611  0.1507
                                            0.0000 -0.0000
    97. (0.00054) RY*( 4) C   5           s(  0.00%)p 1.00(  1.97%)d49.65( 98.03%)
                                            0.0000 -0.0000 -0.0000  0.0000 -0.0000
                                           -0.0000  0.0000  0.0000  0.0000 -0.0000
                                           -0.0000 -0.0000  0.0000  0.0107 -0.1366
                                           -0.0248 -0.0187 -0.0000  0.0552  0.9885
                                           -0.0000  0.0000
    98. (0.00036) RY*( 5) C   5           s(  0.00%)p 1.00( 84.72%)d 0.18( 15.28%)
                                           -0.0000  0.0000  0.0000 -0.0000 -0.0000
                                            0.0000 -0.0000  0.0000 -0.0000  0.0272
                                            0.1913  0.8516 -0.2910  0.0000 -0.0000
                                           -0.0000 -0.0000 -0.3910  0.0000  0.0000
                                           -0.0000 -0.0000
    99. (0.00025) RY*( 6) C   5           s( 91.28%)p 0.07(  6.32%)d 0.03(  2.40%)
                                           -0.0000  0.0034  0.9445 -0.1191 -0.0803
                                            0.0306 -0.1256 -0.0589 -0.2073 -0.0000
                                           -0.0000 -0.0000  0.0000  0.0000 -0.0000
                                           -0.0000 -0.0000  0.0000  0.0000  0.0000
                                           -0.1171 -0.1015
   100. (0.00011) RY*( 7) C   5           s( 37.12%)p 0.31( 11.57%)d 1.38( 51.31%)
                                            0.0000 -0.0120 -0.1241  0.5926 -0.0673
                                           -0.0113 -0.0323 -0.0970 -0.3243 -0.0000
                                            0.0000  0.0000 -0.0000  0.0000 -0.0000
                                           -0.0000 -0.0000  0.0000  0.0000 -0.0000
                                           -0.3731 -0.6114
   101. (0.00007) RY*( 8) C   5           s(  0.00%)p 1.00( 33.03%)d 2.03( 66.97%)
   102. (0.00004) RY*( 9) C   5           s( 12.13%)p 1.56( 18.97%)d 5.68( 68.90%)
   103. (0.00002) RY*(10) C   5           s( 12.88%)p 5.83( 75.15%)d 0.93( 11.97%)
   104. (0.00000) RY*(11) C   5           s(  0.00%)p 1.00( 99.62%)d 0.00(  0.38%)
   105. (0.00000) RY*(12) C   5           s(  0.00%)p 1.00( 99.79%)d 0.00(  0.21%)
   106. (0.00000) RY*(13) C   5           s(  8.69%)p10.08( 87.64%)d 0.42(  3.67%)
   107. (0.00000) RY*(14) C   5           s(  0.00%)p 1.00( 13.97%)d 6.16( 86.03%)
   108. (0.00000) RY*(15) C   5           s(  0.00%)p 1.00( 82.97%)d 0.21( 17.03%)
   109. (0.00000) RY*(16) C   5           s( 93.01%)p 0.06(  6.03%)d 0.01(  0.96%)
   110. (0.00001) RY*(17) C   5           s( 43.53%)p 0.02(  1.07%)d 1.27( 55.39%)
   111. (0.00573) RY*( 1) C   6           s(  0.48%)p99.99( 94.46%)d10.48(  5.05%)
                                           -0.0000  0.0169 -0.0267  0.0617  0.0035
                                            0.0217 -0.4528  0.0465 -0.0378 -0.0303
                                            0.8546 -0.0357  0.0539  0.0000 -0.0000
                                            0.0000 -0.0000 -0.1892 -0.0000 -0.0000
                                           -0.1186 -0.0261
   112. (0.00229) RY*( 2) C   6           s(  0.32%)p99.99( 98.86%)d 2.62(  0.83%)
                                           -0.0000  0.0010  0.0491  0.0272  0.0004
                                            0.0419  0.8400 -0.1466 -0.1887  0.0215
                                            0.4502 -0.1173 -0.0847  0.0000  0.0000
                                           -0.0000 -0.0000 -0.0283  0.0000  0.0000
                                            0.0864  0.0015
   113. (0.00071) RY*( 3) C   6           s(  0.00%)p 1.00( 42.51%)d 1.35( 57.49%)
                                           -0.0000  0.0000  0.0000 -0.0000  0.0000
                                           -0.0000 -0.0000  0.0000 -0.0000 -0.0000
                                           -0.0000 -0.0000  0.0000 -0.0195  0.6126
                                            0.2015  0.0939 -0.0000  0.5435  0.5287
                                            0.0000  0.0000
   114. (0.00053) RY*( 4) C   6           s(  0.00%)p 1.00( 42.88%)d 1.33( 57.12%)
                                           -0.0000  0.0000  0.0000 -0.0000 -0.0000
                                            0.0000  0.0000  0.0000 -0.0000  0.0000
                                            0.0000  0.0000 -0.0000  0.0002 -0.6412
                                           -0.0993 -0.0881  0.0000  0.7555  0.0198
                                           -0.0000  0.0000
   115. (0.00038) RY*( 5) C   6           s( 91.11%)p 0.06(  5.18%)d 0.04(  3.71%)
                                           -0.0000  0.0043  0.9511 -0.0730 -0.0331
                                            0.0095 -0.0724  0.0416 -0.0760 -0.0283
                                            0.0067 -0.0595  0.1860  0.0000 -0.0000
                                           -0.0000 -0.0000  0.0409 -0.0000 -0.0000
                                            0.1741 -0.0713
   116. (0.00025) RY*( 6) C   6           s(  1.27%)p60.05( 76.21%)d17.74( 22.52%)
                                            0.0000 -0.0024 -0.0397  0.0981  0.0385
                                           -0.0237 -0.1263 -0.7540  0.2582 -0.0121
                                           -0.0568 -0.3167  0.0825 -0.0000 -0.0000
                                           -0.0000 -0.0000 -0.2973  0.0000 -0.0000
                                            0.3686 -0.0300
   117. (0.00011) RY*( 7) C   6           s( 28.06%)p 0.37( 10.28%)d 2.20( 61.66%)
                                            0.0000 -0.0078 -0.1498  0.4984 -0.0984
                                           -0.0064 -0.0372  0.0392 -0.1148  0.0124
                                            0.0450 -0.0382  0.2882 -0.0000  0.0000
                                           -0.0000  0.0000  0.4958  0.0000  0.0000
                                            0.2745 -0.5435
   118. (0.00007) RY*( 8) C   6           s(  6.56%)p 8.37( 54.93%)d 5.87( 38.51%)
   119. (0.00005) RY*( 9) C   6           s(  9.30%)p 6.19( 57.56%)d 3.56( 33.14%)
   120. (0.00000) RY*(10) C   6           s(  4.28%)p17.28( 74.01%)d 5.07( 21.71%)
   121. (0.00001) RY*(11) C   6           s(  0.00%)p 1.00( 99.43%)d 0.01(  0.57%)
   122. (0.00000) RY*(12) C   6           s(  0.00%)p 1.00( 99.68%)d 0.00(  0.32%)
   123. (0.00001) RY*(13) C   6           s( 53.09%)p 0.52( 27.50%)d 0.37( 19.40%)
   124. (0.00000) RY*(14) C   6           s( 94.34%)p 0.01(  1.06%)d 0.05(  4.60%)
   125. (0.00001) RY*(15) C   6           s(  0.00%)p 1.00( 15.55%)d 5.43( 84.45%)
   126. (0.00000) RY*(16) C   6           s(  4.75%)p16.38( 77.80%)d 3.67( 17.45%)
   127. (0.00001) RY*(17) C   6           s(  6.42%)p 3.47( 22.28%)d11.11( 71.30%)
   128. (0.00522) RY*( 1) C   7           s(  0.40%)p99.99( 95.38%)d10.52(  4.22%)
                                            0.0000 -0.0150  0.0463 -0.0393  0.0096
                                           -0.0001 -0.7007 -0.0245  0.0322  0.0315
                                           -0.6727  0.0478 -0.0729  0.0000  0.0000
                                           -0.0000 -0.0000 -0.1893 -0.0000 -0.0000
                                            0.0684  0.0407
   129. (0.00271) RY*( 2) C   7           s(  0.22%)p99.99( 98.50%)d 5.79(  1.28%)
                                           -0.0000 -0.0052  0.0386  0.0256  0.0064
                                            0.0372  0.6907 -0.1269 -0.0923 -0.0175
                                           -0.6820  0.1282 -0.0036  0.0000 -0.0000
                                           -0.0000 -0.0000 -0.1008 -0.0000 -0.0000
                                           -0.0340  0.0389
   130. (0.00095) RY*( 3) C   7           s(  0.00%)p 1.00( 72.25%)d 0.38( 27.75%)
                                           -0.0000 -0.0000 -0.0000  0.0000 -0.0000
                                            0.0000  0.0000  0.0000 -0.0000 -0.0000
                                           -0.0000 -0.0000  0.0000 -0.0095  0.8274
                                            0.1519  0.1216  0.0000  0.5224 -0.0677
                                            0.0000  0.0000
   131. (0.00053) RY*( 4) C   7           s( 94.30%)p 0.03(  2.39%)d 0.04(  3.31%)
                                           -0.0000  0.0060  0.9651  0.1070  0.0077
                                           -0.0295 -0.0048 -0.0459  0.0252 -0.0159
                                            0.0670 -0.0702  0.1031  0.0000 -0.0001
                                           -0.0000  0.0000 -0.1106  0.0001 -0.0001
                                           -0.1440 -0.0101
   132. (0.00051) RY*( 5) C   7           s(  0.00%)p 1.00( 18.69%)d 4.35( 81.31%)
                                           -0.0000  0.0000  0.0001  0.0000  0.0000
                                           -0.0000  0.0000 -0.0000  0.0000 -0.0000
                                            0.0000 -0.0000  0.0000 -0.0099  0.4275
                                            0.0629  0.0052 -0.0000 -0.6108  0.6633
                                           -0.0000  0.0000
   133. (0.00025) RY*( 6) C   7           s( 13.40%)p 4.59( 61.50%)d 1.87( 25.10%)
                                            0.0000  0.0015 -0.1791  0.3192  0.0053
                                           -0.0156 -0.1376 -0.5925 -0.3454  0.0114
                                            0.0704  0.0659  0.3407 -0.0000  0.0000
                                            0.0000 -0.0000 -0.1258 -0.0000  0.0000
                                           -0.4843 -0.0240
   134. (0.00015) RY*( 7) C   7           s( 25.24%)p 1.25( 31.65%)d 1.71( 43.12%)
                                            0.0000 -0.0069 -0.0896  0.4862 -0.0889
                                           -0.0008  0.0541  0.0052  0.4743  0.0161
                                            0.0963  0.2285 -0.1637  0.0000  0.0000
                                            0.0000  0.0000 -0.5216  0.0000  0.0000
                                            0.0779 -0.3912
   135. (0.00008) RY*( 8) C   7           s(  3.61%)p17.17( 62.01%)d 9.52( 34.37%)
   136. (0.00008) RY*( 9) C   7           s(  0.00%)p 1.00( 62.95%)d 0.59( 37.05%)
   137. (0.00004) RY*(10) C   7           s(  5.54%)p11.40( 63.13%)d 5.66( 31.33%)
   138. (0.00004) RY*(11) C   7           s(  4.86%)p10.23( 49.69%)d 9.36( 45.45%)
   139. (0.00000) RY*(12) C   7           s(  0.00%)p 1.00( 98.79%)d 0.01(  1.21%)
   140. (0.00001) RY*(13) C   7           s( 21.91%)p 2.14( 46.82%)d 1.43( 31.27%)
   141. (0.00000) RY*(14) C   7           s( 95.73%)p 0.02(  2.27%)d 0.02(  2.00%)
   142. (0.00000) RY*(15) C   7           s(  0.00%)p 1.00( 47.36%)d 1.11( 52.64%)
   143. (0.00001) RY*(16) C   7           s(  4.68%)p17.45( 81.68%)d 2.91( 13.64%)
   144. (0.00000) RY*(17) C   7           s( 30.10%)p 0.17(  5.12%)d 2.15( 64.78%)
   145. (0.00088) RY*( 1) H   8           s( 98.74%)p 0.01(  1.26%)
                                           -0.0036  0.9936 -0.0055 -0.0010 -0.0868
                                            0.0715  0.0000
   146. (0.00019) RY*( 2) H   8           s( 89.85%)p 0.11( 10.15%)
                                            0.0059  0.0407  0.9468  0.0183  0.2034
                                           -0.2452  0.0000
   147. (0.00016) RY*( 3) H   8           s(  0.00%)p 1.00(100.00%)
                                            0.0000 -0.0000 -0.0000  0.0000  0.0000
                                            0.0000  1.0000
   148. (0.00010) RY*( 4) H   8           s( 55.06%)p 0.82( 44.94%)
                                            0.0013  0.0317 -0.0684  0.7382  0.6017
                                            0.2955 -0.0000
   149. (0.00006) RY*( 5) H   8           s( 45.93%)p 1.18( 54.07%)
   150. (0.00003) RY*( 6) H   8           s( 10.47%)p 8.55( 89.53%)
   151. (0.00073) RY*( 1) H   9           s( 98.26%)p 0.02(  1.74%)
                                           -0.0043  0.9912 -0.0095  0.0004  0.0474
                                            0.1230  0.0000
   152. (0.00021) RY*( 2) H   9           s( 90.06%)p 0.11(  9.94%)
                                            0.0053  0.0440  0.9479 -0.0106 -0.2580
                                           -0.1811  0.0000
   153. (0.00019) RY*( 3) H   9           s(  0.00%)p 1.00(100.00%)
                                            0.0000 -0.0000 -0.0000 -0.0000 -0.0000
                                            0.0000  1.0000
   154. (0.00011) RY*( 4) H   9           s(  2.99%)p32.46( 97.01%)
                                           -0.0004  0.0187  0.1449  0.0924  0.8639
                                           -0.4730  0.0000
   155. (0.00003) RY*( 5) H   9           s( 11.46%)p 7.72( 88.54%)
   156. (0.00002) RY*( 6) H   9           s( 97.27%)p 0.03(  2.73%)
   157. (0.00075) RY*( 1) H  10           s( 98.30%)p 0.02(  1.70%)
                                           -0.0042  0.9914 -0.0091 -0.0002  0.1303
                                            0.0000 -0.0000
   158. (0.00020) RY*( 2) H  10           s( 91.58%)p 0.09(  8.42%)
                                            0.0053  0.0469  0.9558 -0.0001 -0.2902
                                            0.0000  0.0000
   159. (0.00021) RY*( 3) H  10           s(  0.00%)p 1.00(100.00%)
                                           -0.0000  0.0000 -0.0000 -0.0000 -0.0000
                                            0.0000  1.0000
   160. (0.00011) RY*( 4) H  10           s(  0.00%)p 1.00(100.00%)
                                            0.0000 -0.0000 -0.0000 -0.0000  0.0000
                                            1.0000 -0.0000
   161. (0.00003) RY*( 5) H  10           s( 10.20%)p 8.80( 89.80%)
   162. (0.00002) RY*( 6) H  10           s( 99.97%)p 0.00(  0.03%)
   163. (0.00073) RY*( 1) H  11           s( 98.26%)p 0.02(  1.74%)
                                           -0.0043  0.9912 -0.0095  0.0004  0.0474
                                           -0.1230  0.0000
   164. (0.00021) RY*( 2) H  11           s( 90.06%)p 0.11(  9.94%)
                                            0.0053  0.0440  0.9479 -0.0106 -0.2580
                                            0.1811  0.0000
   165. (0.00019) RY*( 3) H  11           s(  0.00%)p 1.00(100.00%)
                                           -0.0000 -0.0000 -0.0000 -0.0000 -0.0000
                                           -0.0000  1.0000
   166. (0.00011) RY*( 4) H  11           s(  2.99%)p32.46( 97.01%)
                                           -0.0004  0.0187  0.1449  0.0924  0.8639
                                            0.4730  0.0000
   167. (0.00003) RY*( 5) H  11           s( 11.46%)p 7.72( 88.54%)
   168. (0.00002) RY*( 6) H  11           s( 97.27%)p 0.03(  2.73%)
   169. (0.00088) RY*( 1) H  12           s( 98.74%)p 0.01(  1.26%)
                                           -0.0036  0.9936 -0.0055 -0.0010 -0.0868
                                           -0.0715  0.0000
   170. (0.00019) RY*( 2) H  12           s( 89.85%)p 0.11( 10.15%)
                                            0.0059  0.0407  0.9468  0.0183  0.2034
                                            0.2452  0.0000
   171. (0.00016) RY*( 3) H  12           s(  0.00%)p 1.00(100.00%)
                                            0.0000 -0.0000 -0.0000  0.0000  0.0000
                                           -0.0000  1.0000
   172. (0.00010) RY*( 4) H  12           s( 55.06%)p 0.82( 44.94%)
                                            0.0013  0.0317 -0.0684  0.7382  0.6017
                                           -0.2955 -0.0000
   173. (0.00006) RY*( 5) H  12           s( 45.93%)p 1.18( 54.07%)
   174. (0.00003) RY*( 6) H  12           s( 10.47%)p 8.55( 89.53%)
   175. (0.03087) BD*( 1) F   1 - C   2  
                ( 27.36%)   0.5231* F   1 s( 31.18%)p 2.20( 68.74%)d 0.00(  0.08%)
                                            0.0000  0.5583  0.0091  0.0024 -0.0000
                                           -0.8290  0.0131  0.0040  0.0026 -0.0000
                                            0.0000 -0.0000  0.0000  0.0000 -0.0000
                                           -0.0000 -0.0000  0.0000 -0.0000 -0.0000
                                            0.0253 -0.0137
                ( 72.64%)  -0.8523* C   2 s( 22.40%)p 3.45( 77.26%)d 0.02(  0.34%)
                                           -0.0001  0.4727 -0.0225  0.0020 -0.0028
                                            0.8774 -0.0477 -0.0169 -0.0147 -0.0000
                                           -0.0000 -0.0000  0.0000 -0.0000  0.0000
                                            0.0000  0.0000  0.0000 -0.0000 -0.0000
                                            0.0525 -0.0261
   176. (0.02764) BD*( 1) C   2 - C   3  
                ( 49.99%)   0.7071* C   2 s( 38.67%)p 1.58( 61.29%)d 0.00(  0.04%)
                                           -0.0000 -0.6219 -0.0050  0.0006 -0.0006
                                            0.3354  0.0212 -0.0112  0.0031  0.7068
                                           -0.0144 -0.0053  0.0005 -0.0000  0.0000
                                            0.0000 -0.0000 -0.0127 -0.0000  0.0000
                                            0.0118  0.0076
                ( 50.01%)  -0.7071* C   3 s( 34.24%)p 1.92( 65.70%)d 0.00(  0.05%)
                                            0.0000 -0.5851  0.0051 -0.0030 -0.0010
                                           -0.4248  0.0400 -0.0013 -0.0005 -0.6891
                                           -0.0004  0.0105 -0.0024  0.0000  0.0000
                                           -0.0000  0.0000 -0.0164  0.0000  0.0000
                                            0.0104  0.0130
   177. (0.37269) BD*( 2) C   2 - C   3  
                ( 51.58%)   0.7182* C   2 s(  0.00%)p 1.00( 99.95%)d 0.00(  0.05%)
                                            0.0000  0.0000  0.0000  0.0000 -0.0000
                                            0.0000  0.0000  0.0000  0.0000 -0.0000
                                           -0.0000 -0.0000 -0.0000  0.9992  0.0267
                                            0.0197  0.0073 -0.0000 -0.0185 -0.0114
                                            0.0000  0.0000
                ( 48.42%)  -0.6959* C   3 s(  0.00%)p 1.00( 99.94%)d 0.00(  0.06%)
                                            0.0000  0.0000  0.0000 -0.0000 -0.0000
                                            0.0000 -0.0000 -0.0000 -0.0000  0.0000
                                            0.0000  0.0000  0.0000  0.9993  0.0220
                                            0.0165 -0.0014 -0.0000 -0.0012  0.0237
                                           -0.0000 -0.0000
   178. (0.02764) BD*( 1) C   2 - C   7  
                ( 49.99%)   0.7071* C   2 s( 38.67%)p 1.58( 61.29%)d 0.00(  0.04%)
                                           -0.0000 -0.6219 -0.0050  0.0006 -0.0006
                                            0.3354  0.0212 -0.0112  0.0031 -0.7068
                                            0.0144  0.0053 -0.0005 -0.0000  0.0000
                                            0.0000 -0.0000  0.0127  0.0000 -0.0000
                                            0.0118  0.0076
                ( 50.01%)  -0.7071* C   7 s( 34.24%)p 1.92( 65.70%)d 0.00(  0.05%)
                                            0.0000 -0.5851  0.0051 -0.0030 -0.0010
                                           -0.4248  0.0400 -0.0013 -0.0005  0.6891
                                            0.0004 -0.0105  0.0024  0.0000  0.0000
                                           -0.0000  0.0000  0.0164  0.0000 -0.0000
                                            0.0104  0.0130
   179. (0.01426) BD*( 1) C   3 - C   4  
                ( 49.48%)   0.7034* C   3 s( 36.66%)p 1.73( 63.30%)d 0.00(  0.04%)
                                            0.0002 -0.6051  0.0216  0.0016  0.0004
                                            0.7943 -0.0186 -0.0085  0.0012  0.0233
                                           -0.0335  0.0051  0.0008 -0.0000  0.0000
                                           -0.0000  0.0000  0.0043 -0.0000 -0.0000
                                           -0.0160  0.0119
                ( 50.52%)  -0.7108* C   4 s( 35.28%)p 1.83( 64.68%)d 0.00(  0.04%)
                                           -0.0001 -0.5938  0.0143  0.0013  0.0001
                                           -0.8024  0.0217  0.0121 -0.0012  0.0254
                                           -0.0409  0.0047 -0.0005 -0.0000  0.0000
                                           -0.0000 -0.0000 -0.0029 -0.0000  0.0000
                                           -0.0166  0.0125
   180. (0.01241) BD*( 1) C   3 - H   8  
                ( 38.98%)   0.6243* C   3 s( 29.11%)p 2.43( 70.85%)d 0.00(  0.04%)
                                           -0.0003  0.5391  0.0218 -0.0015 -0.0005
                                            0.4312  0.0087 -0.0009 -0.0011 -0.7228
                                           -0.0083  0.0020 -0.0008  0.0000 -0.0000
                                           -0.0000  0.0000 -0.0158  0.0000 -0.0000
                                           -0.0070 -0.0094
                ( 61.02%)  -0.7811* H   8 s( 99.95%)p 0.00(  0.05%)
                                            0.9998  0.0013  0.0010  0.0002 -0.0114
                                            0.0185 -0.0000
   181. (0.01573) BD*( 1) C   4 - C   5  
                ( 49.87%)   0.7062* C   4 s( 35.93%)p 1.78( 64.03%)d 0.00(  0.04%)
                                           -0.0001 -0.5992  0.0145 -0.0001  0.0001
                                            0.4211 -0.0426 -0.0016  0.0006 -0.6790
                                           -0.0017  0.0101 -0.0001  0.0000 -0.0000
                                           -0.0000  0.0000  0.0131 -0.0000  0.0000
                                            0.0107  0.0121
                ( 50.13%)  -0.7080* C   5 s( 35.71%)p 1.80( 64.24%)d 0.00(  0.04%)
                                           -0.0000 -0.5974  0.0140  0.0004  0.0000
                                           -0.3769 -0.0228  0.0086 -0.0002  0.7059
                                           -0.0381 -0.0064  0.0008 -0.0000 -0.0000
                                            0.0000 -0.0000  0.0160 -0.0000  0.0000
                                            0.0065  0.0123
   182. (0.33863) BD*( 2) C   4 - C   5  
                ( 50.94%)   0.7137* C   4 s(  0.00%)p 1.00( 99.96%)d 0.00(  0.04%)
                                            0.0000  0.0000 -0.0000 -0.0000 -0.0000
                                           -0.0000 -0.0000 -0.0000  0.0000  0.0000
                                            0.0000  0.0000  0.0000  0.9995  0.0157
                                            0.0148 -0.0021 -0.0000  0.0009  0.0208
                                           -0.0000 -0.0000
                ( 49.06%)  -0.7005* C   5 s(  0.00%)p 1.00( 99.96%)d 0.00(  0.04%)
                                           -0.0000  0.0000  0.0000  0.0000  0.0000
                                           -0.0000 -0.0000 -0.0000 -0.0000  0.0000
                                            0.0000  0.0000 -0.0000  0.9995  0.0184
                                            0.0148 -0.0020  0.0000  0.0183 -0.0089
                                           -0.0000  0.0000
   183. (0.01310) BD*( 1) C   4 - H   9  
                ( 39.47%)   0.6282* C   4 s( 28.81%)p 2.47( 71.15%)d 0.00(  0.04%)
                                           -0.0004  0.5362  0.0243  0.0011  0.0003
                                           -0.4189 -0.0084  0.0002 -0.0008 -0.7318
                                           -0.0169 -0.0010 -0.0016  0.0000 -0.0000
                                           -0.0000  0.0000  0.0163 -0.0000 -0.0000
                                           -0.0095 -0.0085
                ( 60.53%)  -0.7780* H   9 s( 99.95%)p 0.00(  0.05%)
                                            0.9998  0.0014  0.0010  0.0000  0.0108
                                            0.0192 -0.0000
   184. (0.01573) BD*( 1) C   5 - C   6  
                ( 50.13%)   0.7080* C   5 s( 35.71%)p 1.80( 64.24%)d 0.00(  0.04%)
                                            0.0000  0.5974 -0.0140 -0.0004 -0.0000
                                            0.3769  0.0228 -0.0086  0.0002  0.7059
                                           -0.0381 -0.0064  0.0008  0.0000  0.0000
                                           -0.0000  0.0000  0.0160  0.0000  0.0000
                                           -0.0065 -0.0123
                ( 49.87%)  -0.7062* C   6 s( 35.93%)p 1.78( 64.03%)d 0.00(  0.04%)
                                            0.0001  0.5992 -0.0145  0.0001 -0.0001
                                           -0.4211  0.0426  0.0016 -0.0006 -0.6790
                                           -0.0017  0.0101 -0.0001 -0.0000  0.0000
                                            0.0000 -0.0000  0.0131  0.0000  0.0000
                                           -0.0107 -0.0121
   185. (0.01335) BD*( 1) C   5 - H  10  
                ( 39.55%)   0.6289* C   5 s( 28.59%)p 2.50( 71.37%)d 0.00(  0.04%)
                                           -0.0004  0.5341  0.0241  0.0010  0.0002
                                           -0.8446 -0.0187 -0.0005 -0.0017  0.0000
                                            0.0000  0.0000 -0.0000 -0.0000 -0.0000
                                            0.0000 -0.0000 -0.0000  0.0000  0.0000
                                            0.0189 -0.0084
                ( 60.45%)  -0.7775* H  10 s( 99.95%)p 0.00(  0.05%)
                                            0.9998  0.0014  0.0010 -0.0001  0.0219
                                           -0.0000  0.0000
   186. (0.01426) BD*( 1) C   6 - C   7  
                ( 50.52%)   0.7108* C   6 s( 35.28%)p 1.83( 64.68%)d 0.00(  0.04%)
                                            0.0001  0.5938 -0.0143 -0.0013 -0.0001
                                            0.8024 -0.0217 -0.0121  0.0012  0.0254
                                           -0.0409  0.0047 -0.0005  0.0000 -0.0000
                                           -0.0000  0.0000 -0.0029  0.0000 -0.0000
                                            0.0166 -0.0125
                ( 49.48%)  -0.7034* C   7 s( 36.66%)p 1.73( 63.30%)d 0.00(  0.04%)
                                           -0.0002  0.6051 -0.0216 -0.0016 -0.0004
                                           -0.7943  0.0186  0.0085 -0.0012  0.0233
                                           -0.0335  0.0051  0.0008 -0.0000  0.0000
                                            0.0000 -0.0000  0.0043  0.0000  0.0000
                                            0.0160 -0.0119
   187. (0.34421) BD*( 2) C   6 - C   7  
                ( 51.69%)   0.7189* C   6 s(  0.00%)p 1.00( 99.95%)d 0.00(  0.05%)
                                           -0.0000 -0.0000  0.0000 -0.0000  0.0000
                                           -0.0000 -0.0000 -0.0000  0.0000 -0.0000
                                           -0.0000 -0.0000 -0.0000  0.9994  0.0194
                                            0.0174 -0.0015  0.0000  0.0186 -0.0112
                                           -0.0000  0.0000
                ( 48.31%)  -0.6951* C   7 s(  0.00%)p 1.00( 99.95%)d 0.00(  0.05%)
                                           -0.0000 -0.0000  0.0000 -0.0000  0.0000
                                           -0.0000 -0.0000 -0.0000  0.0000 -0.0000
                                           -0.0000 -0.0000 -0.0000  0.9995  0.0186
                                            0.0149 -0.0027  0.0000 -0.0166 -0.0137
                                            0.0000 -0.0000
   188. (0.01310) BD*( 1) C   6 - H  11  
                ( 39.47%)   0.6282* C   6 s( 28.81%)p 2.47( 71.15%)d 0.00(  0.04%)
                                            0.0004 -0.5362 -0.0243 -0.0011 -0.0003
                                            0.4189  0.0084 -0.0002  0.0008 -0.7318
                                           -0.0169 -0.0010 -0.0016 -0.0000  0.0000
                                           -0.0000  0.0000  0.0163  0.0000  0.0000
                                            0.0095  0.0085
                ( 60.53%)  -0.7780* H  11 s( 99.95%)p 0.00(  0.05%)
                                           -0.9998 -0.0014 -0.0010 -0.0000 -0.0108
                                            0.0192  0.0000
   189. (0.01241) BD*( 1) C   7 - H  12  
                ( 38.98%)   0.6243* C   7 s( 29.11%)p 2.43( 70.85%)d 0.00(  0.04%)
                                            0.0003 -0.5391 -0.0218  0.0015  0.0005
                                           -0.4312 -0.0087  0.0009  0.0011 -0.7228
                                           -0.0083  0.0020 -0.0008 -0.0000  0.0000
                                            0.0000 -0.0000 -0.0158 -0.0000 -0.0000
                                            0.0070  0.0094
                ( 61.02%)  -0.7811* H  12 s( 99.95%)p 0.00(  0.05%)
                                           -0.9998 -0.0013 -0.0010 -0.0002  0.0114
                                            0.0185  0.0000


 NHO Directionality and "Bond Bending" (deviations from line of nuclear centers)

         [Thresholds for printing:  angular deviation  >  1.0 degree]
                                    hybrid p-character > 25.0%
                                    orbital occupancy  >  0.10e

                                Line of Centers        Hybrid 1              Hybrid 2
                                ---------------  -------------------   ------------------
                NBO               Theta   Phi    Theta   Phi    Dev    Theta   Phi    Dev
 ========================================================================================
     2. BD (   1) C   2 - C   3    90.0  240.5    90.0  243.1   2.6      --     --    --
     3. BD (   2) C   2 - C   3    90.0  240.5     0.0    0.0  90.0      0.0    0.0  90.0
     4. BD (   1) C   2 - C   7    90.0  119.5    90.0  116.9   2.6      --     --    --
     8. BD (   2) C   4 - C   5    90.0  119.9     0.0    0.0  90.0      0.0    0.0  90.0
    13. BD (   2) C   6 - C   7    90.0    0.0     0.0    0.0  90.0      0.0    0.0  90.0
    23. LP (   1) F   1             --     --     90.0    0.0   --       --     --    --
    24. LP (   2) F   1             --     --     90.0   90.0   --       --     --    --
    25. LP (   3) F   1             --     --      0.0    0.0   --       --     --    --
   177. BD*(   2) C   2 - C   3    90.0  240.5     0.0    0.0  90.0      0.0    0.0  90.0
   182. BD*(   2) C   4 - C   5    90.0  119.9     0.0    0.0  90.0      0.0    0.0  90.0
   187. BD*(   2) C   6 - C   7    90.0    0.0     0.0    0.0  90.0      0.0    0.0  90.0


 Second Order Perturbation Theory Analysis of Fock Matrix in NBO Basis

     Threshold for printing:   0.50 kcal/mol
                                                                              E(2)  E(j)-E(i) F(i,j)
         Donor NBO (i)                     Acceptor NBO (j)                 kcal/mol   a.u.    a.u. 
 ===================================================================================================

 within unit  1
   1. BD (   1) F   1 - C   2        / 43. RY*(   1) C   2                    0.91    2.18    0.040
   1. BD (   1) F   1 - C   2        /179. BD*(   1) C   3 - C   4            1.10    1.61    0.038
   1. BD (   1) F   1 - C   2        /186. BD*(   1) C   6 - C   7            1.10    1.61    0.038
   2. BD (   1) C   2 - C   3        / 26. RY*(   1) F   1                    0.54    1.24    0.023
   2. BD (   1) C   2 - C   3        / 77. RY*(   1) C   4                    0.92    1.80    0.036
   2. BD (   1) C   2 - C   3        / 78. RY*(   2) C   4                    1.46    1.98    0.048
   2. BD (   1) C   2 - C   3        /128. RY*(   1) C   7                    1.51    1.89    0.048
   2. BD (   1) C   2 - C   3        /129. RY*(   2) C   7                    0.66    1.80    0.031
   2. BD (   1) C   2 - C   3        /178. BD*(   1) C   2 - C   7            4.06    1.27    0.064
   2. BD (   1) C   2 - C   3        /179. BD*(   1) C   3 - C   4            2.54    1.29    0.051
   2. BD (   1) C   2 - C   3        /180. BD*(   1) C   3 - H   8            0.93    1.15    0.029
   2. BD (   1) C   2 - C   3        /183. BD*(   1) C   4 - H   9            2.24    1.16    0.045
   2. BD (   1) C   2 - C   3        /189. BD*(   1) C   7 - H  12            2.05    1.15    0.043
   3. BD (   2) C   2 - C   3        / 27. RY*(   2) F   1                    0.95    0.99    0.030
   3. BD (   2) C   2 - C   3        / 80. RY*(   4) C   4                    1.14    1.44    0.040
   3. BD (   2) C   2 - C   3        /132. RY*(   5) C   7                    0.83    1.70    0.037
   3. BD (   2) C   2 - C   3        /182. BD*(   2) C   4 - C   5           20.75    0.30    0.070
   3. BD (   2) C   2 - C   3        /187. BD*(   2) C   6 - C   7           19.08    0.29    0.067
   4. BD (   1) C   2 - C   7        / 26. RY*(   1) F   1                    0.54    1.24    0.023
   4. BD (   1) C   2 - C   7        / 60. RY*(   1) C   3                    1.51    1.89    0.048
   4. BD (   1) C   2 - C   7        / 61. RY*(   2) C   3                    0.66    1.80    0.031
   4. BD (   1) C   2 - C   7        /111. RY*(   1) C   6                    0.92    1.80    0.036
   4. BD (   1) C   2 - C   7        /112. RY*(   2) C   6                    1.46    1.98    0.048
   4. BD (   1) C   2 - C   7        /176. BD*(   1) C   2 - C   3            4.06    1.27    0.064
   4. BD (   1) C   2 - C   7        /180. BD*(   1) C   3 - H   8            2.05    1.15    0.043
   4. BD (   1) C   2 - C   7        /186. BD*(   1) C   6 - C   7            2.54    1.29    0.051
   4. BD (   1) C   2 - C   7        /188. BD*(   1) C   6 - H  11            2.24    1.16    0.045
   4. BD (   1) C   2 - C   7        /189. BD*(   1) C   7 - H  12            0.93    1.15    0.029
   5. BD (   1) C   3 - C   4        / 44. RY*(   2) C   2                    1.35    2.23    0.049
   5. BD (   1) C   3 - C   4        / 46. RY*(   4) C   2                    0.90    2.58    0.043
   5. BD (   1) C   3 - C   4        / 94. RY*(   1) C   5                    1.05    1.80    0.039
   5. BD (   1) C   3 - C   4        / 95. RY*(   2) C   5                    1.39    1.96    0.047
   5. BD (   1) C   3 - C   4        /175. BD*(   1) F   1 - C   2            4.11    0.98    0.057
   5. BD (   1) C   3 - C   4        /176. BD*(   1) C   2 - C   3            2.37    1.26    0.049
   5. BD (   1) C   3 - C   4        /180. BD*(   1) C   3 - H   8            1.24    1.14    0.034
   5. BD (   1) C   3 - C   4        /181. BD*(   1) C   4 - C   5            2.54    1.28    0.051
   5. BD (   1) C   3 - C   4        /183. BD*(   1) C   4 - H   9            0.76    1.14    0.026
   5. BD (   1) C   3 - C   4        /185. BD*(   1) C   5 - H  10            2.33    1.15    0.046
   6. BD (   1) C   3 - H   8        / 43. RY*(   1) C   2                    1.07    1.66    0.038
   6. BD (   1) C   3 - H   8        / 77. RY*(   1) C   4                    1.34    1.60    0.042
   6. BD (   1) C   3 - H   8        /175. BD*(   1) F   1 - C   2            1.20    0.80    0.028
   6. BD (   1) C   3 - H   8        /178. BD*(   1) C   2 - C   7            3.78    1.08    0.057
   6. BD (   1) C   3 - H   8        /179. BD*(   1) C   3 - C   4            0.83    1.10    0.027
   6. BD (   1) C   3 - H   8        /181. BD*(   1) C   4 - C   5            3.61    1.10    0.056
   7. BD (   1) C   4 - C   5        / 60. RY*(   1) C   3                    0.55    1.87    0.029
   7. BD (   1) C   4 - C   5        / 61. RY*(   2) C   3                    2.04    1.78    0.054
   7. BD (   1) C   4 - C   5        /111. RY*(   1) C   6                    0.92    1.78    0.036
   7. BD (   1) C   4 - C   5        /112. RY*(   2) C   6                    1.49    1.96    0.048
   7. BD (   1) C   4 - C   5        /179. BD*(   1) C   3 - C   4            2.50    1.27    0.050
   7. BD (   1) C   4 - C   5        /180. BD*(   1) C   3 - H   8            2.48    1.13    0.047
   7. BD (   1) C   4 - C   5        /183. BD*(   1) C   4 - H   9            0.92    1.14    0.029
   7. BD (   1) C   4 - C   5        /184. BD*(   1) C   5 - C   6            2.62    1.27    0.052
   7. BD (   1) C   4 - C   5        /185. BD*(   1) C   5 - H  10            0.91    1.14    0.029
   7. BD (   1) C   4 - C   5        /188. BD*(   1) C   6 - H  11            2.34    1.14    0.046
   8. BD (   2) C   4 - C   5        / 62. RY*(   3) C   3                    1.93    0.88    0.040
   8. BD (   2) C   4 - C   5        /113. RY*(   3) C   6                    1.22    1.33    0.039
   8. BD (   2) C   4 - C   5        /177. BD*(   2) C   2 - C   3           19.76    0.27    0.066
   8. BD (   2) C   4 - C   5        /187. BD*(   2) C   6 - C   7           21.68    0.28    0.069
   9. BD (   1) C   4 - H   9        / 60. RY*(   1) C   3                    1.49    1.69    0.045
   9. BD (   1) C   4 - H   9        / 94. RY*(   1) C   5                    1.47    1.62    0.044
   9. BD (   1) C   4 - H   9        /176. BD*(   1) C   2 - C   3            3.26    1.08    0.053
   9. BD (   1) C   4 - H   9        /179. BD*(   1) C   3 - C   4            0.56    1.10    0.022
   9. BD (   1) C   4 - H   9        /181. BD*(   1) C   4 - C   5            0.59    1.10    0.023
   9. BD (   1) C   4 - H   9        /184. BD*(   1) C   5 - C   6            3.71    1.10    0.057
   9. BD (   1) C   4 - H   9        /185. BD*(   1) C   5 - H  10            0.50    0.96    0.020
  10. BD (   1) C   5 - C   6        / 77. RY*(   1) C   4                    0.92    1.78    0.036
  10. BD (   1) C   5 - C   6        / 78. RY*(   2) C   4                    1.49    1.96    0.048
  10. BD (   1) C   5 - C   6        /128. RY*(   1) C   7                    0.55    1.87    0.029
  10. BD (   1) C   5 - C   6        /129. RY*(   2) C   7                    2.04    1.78    0.054
  10. BD (   1) C   5 - C   6        /181. BD*(   1) C   4 - C   5            2.62    1.27    0.052
  10. BD (   1) C   5 - C   6        /183. BD*(   1) C   4 - H   9            2.34    1.14    0.046
  10. BD (   1) C   5 - C   6        /185. BD*(   1) C   5 - H  10            0.91    1.14    0.029
  10. BD (   1) C   5 - C   6        /186. BD*(   1) C   6 - C   7            2.50    1.27    0.050
  10. BD (   1) C   5 - C   6        /188. BD*(   1) C   6 - H  11            0.92    1.14    0.029
  10. BD (   1) C   5 - C   6        /189. BD*(   1) C   7 - H  12            2.48    1.13    0.047
  11. BD (   1) C   5 - H  10        / 77. RY*(   1) C   4                    1.42    1.60    0.043
  11. BD (   1) C   5 - H  10        /111. RY*(   1) C   6                    1.42    1.60    0.043
  11. BD (   1) C   5 - H  10        /179. BD*(   1) C   3 - C   4            3.74    1.09    0.057
  11. BD (   1) C   5 - H  10        /181. BD*(   1) C   4 - C   5            0.56    1.09    0.022
  11. BD (   1) C   5 - H  10        /184. BD*(   1) C   5 - C   6            0.56    1.09    0.022
  11. BD (   1) C   5 - H  10        /186. BD*(   1) C   6 - C   7            3.74    1.09    0.057
  12. BD (   1) C   6 - C   7        / 44. RY*(   2) C   2                    1.35    2.23    0.049
  12. BD (   1) C   6 - C   7        / 46. RY*(   4) C   2                    0.90    2.58    0.043
  12. BD (   1) C   6 - C   7        / 94. RY*(   1) C   5                    1.05    1.80    0.039
  12. BD (   1) C   6 - C   7        / 95. RY*(   2) C   5                    1.39    1.96    0.047
  12. BD (   1) C   6 - C   7        /175. BD*(   1) F   1 - C   2            4.11    0.98    0.057
  12. BD (   1) C   6 - C   7        /178. BD*(   1) C   2 - C   7            2.37    1.26    0.049
  12. BD (   1) C   6 - C   7        /184. BD*(   1) C   5 - C   6            2.54    1.28    0.051
  12. BD (   1) C   6 - C   7        /185. BD*(   1) C   5 - H  10            2.33    1.15    0.046
  12. BD (   1) C   6 - C   7        /188. BD*(   1) C   6 - H  11            0.76    1.14    0.026
  12. BD (   1) C   6 - C   7        /189. BD*(   1) C   7 - H  12            1.24    1.14    0.034
  13. BD (   2) C   6 - C   7        / 96. RY*(   3) C   5                    1.01    0.78    0.027
  13. BD (   2) C   6 - C   7        /177. BD*(   2) C   2 - C   3           22.38    0.27    0.071
  13. BD (   2) C   6 - C   7        /182. BD*(   2) C   4 - C   5           18.65    0.28    0.065
  14. BD (   1) C   6 - H  11        / 94. RY*(   1) C   5                    1.47    1.62    0.044
  14. BD (   1) C   6 - H  11        /128. RY*(   1) C   7                    1.49    1.69    0.045
  14. BD (   1) C   6 - H  11        /178. BD*(   1) C   2 - C   7            3.26    1.08    0.053
  14. BD (   1) C   6 - H  11        /181. BD*(   1) C   4 - C   5            3.71    1.10    0.057
  14. BD (   1) C   6 - H  11        /184. BD*(   1) C   5 - C   6            0.59    1.10    0.023
  14. BD (   1) C   6 - H  11        /185. BD*(   1) C   5 - H  10            0.50    0.96    0.020
  14. BD (   1) C   6 - H  11        /186. BD*(   1) C   6 - C   7            0.56    1.10    0.022
  15. BD (   1) C   7 - H  12        / 43. RY*(   1) C   2                    1.07    1.66    0.038
  15. BD (   1) C   7 - H  12        /111. RY*(   1) C   6                    1.34    1.60    0.042
  15. BD (   1) C   7 - H  12        /175. BD*(   1) F   1 - C   2            1.20    0.80    0.028
  15. BD (   1) C   7 - H  12        /176. BD*(   1) C   2 - C   3            3.78    1.08    0.057
  15. BD (   1) C   7 - H  12        /184. BD*(   1) C   5 - C   6            3.61    1.10    0.056
  15. BD (   1) C   7 - H  12        /186. BD*(   1) C   6 - C   7            0.83    1.10    0.027
  16. CR (   1) F   1                / 43. RY*(   1) C   2                    2.64   25.57    0.232
  17. CR (   1) C   2                / 61. RY*(   2) C   3                    1.63   11.22    0.121
  17. CR (   1) C   2                /129. RY*(   2) C   7                    1.63   11.22    0.121
  17. CR (   1) C   2                /175. BD*(   1) F   1 - C   2            3.01   10.42    0.159
  17. CR (   1) C   2                /176. BD*(   1) C   2 - C   3            1.08   10.69    0.097
  17. CR (   1) C   2                /178. BD*(   1) C   2 - C   7            1.08   10.69    0.097
  17. CR (   1) C   2                /179. BD*(   1) C   3 - C   4            0.61   10.71    0.072
  17. CR (   1) C   2                /186. BD*(   1) C   6 - C   7            0.61   10.71    0.072
  18. CR (   1) C   3                / 44. RY*(   2) C   2                    1.90   11.56    0.132
  18. CR (   1) C   3                / 78. RY*(   2) C   4                    1.65   11.30    0.122
  18. CR (   1) C   3                /175. BD*(   1) F   1 - C   2            0.63   10.32    0.073
  18. CR (   1) C   3                /178. BD*(   1) C   2 - C   7            0.89   10.59    0.087
  18. CR (   1) C   3                /181. BD*(   1) C   4 - C   5            0.70   10.61    0.077
  19. CR (   1) C   4                / 60. RY*(   1) C   3                    0.60   11.21    0.073
  19. CR (   1) C   4                / 61. RY*(   2) C   3                    1.00   11.13    0.094
  19. CR (   1) C   4                / 95. RY*(   2) C   5                    1.54   11.29    0.118
  19. CR (   1) C   4                /176. BD*(   1) C   2 - C   3            0.58   10.60    0.070
  19. CR (   1) C   4                /184. BD*(   1) C   5 - C   6            0.70   10.62    0.077
  20. CR (   1) C   5                / 78. RY*(   2) C   4                    1.41   11.29    0.113
  20. CR (   1) C   5                /112. RY*(   2) C   6                    1.41   11.29    0.113
  20. CR (   1) C   5                /179. BD*(   1) C   3 - C   4            0.68   10.61    0.076
  20. CR (   1) C   5                /186. BD*(   1) C   6 - C   7            0.68   10.61    0.076
  21. CR (   1) C   6                / 95. RY*(   2) C   5                    1.54   11.29    0.118
  21. CR (   1) C   6                /128. RY*(   1) C   7                    0.60   11.21    0.073
  21. CR (   1) C   6                /129. RY*(   2) C   7                    1.00   11.13    0.094
  21. CR (   1) C   6                /178. BD*(   1) C   2 - C   7            0.58   10.60    0.070
  21. CR (   1) C   6                /181. BD*(   1) C   4 - C   5            0.70   10.62    0.077
  22. CR (   1) C   7                / 44. RY*(   2) C   2                    1.90   11.56    0.132
  22. CR (   1) C   7                /112. RY*(   2) C   6                    1.65   11.30    0.122
  22. CR (   1) C   7                /175. BD*(   1) F   1 - C   2            0.63   10.32    0.073
  22. CR (   1) C   7                /176. BD*(   1) C   2 - C   3            0.89   10.59    0.087
  22. CR (   1) C   7                /184. BD*(   1) C   5 - C   6            0.70   10.61    0.077
  23. LP (   1) F   1                / 43. RY*(   1) C   2                    8.58    2.17    0.122
  23. LP (   1) F   1                /176. BD*(   1) C   2 - C   3            1.14    1.59    0.038
  23. LP (   1) F   1                /178. BD*(   1) C   2 - C   7            1.14    1.59    0.038
  24. LP (   2) F   1                / 44. RY*(   2) C   2                    0.54    1.94    0.029
  24. LP (   2) F   1                / 46. RY*(   4) C   2                    1.02    2.29    0.044
  24. LP (   2) F   1                /176. BD*(   1) C   2 - C   3            6.38    0.97    0.070
  24. LP (   2) F   1                /178. BD*(   1) C   2 - C   7            6.38    0.97    0.070
  25. LP (   3) F   1                / 45. RY*(   3) C   2                    1.88    1.90    0.054
  25. LP (   3) F   1                /177. BD*(   2) C   2 - C   3           19.20    0.44    0.088
 177. BD*(   2) C   2 - C   3        / 45. RY*(   3) C   2                    0.61    1.46    0.061
 177. BD*(   2) C   2 - C   3        / 50. RY*(   8) C   2                    0.64    0.58    0.040
 177. BD*(   2) C   2 - C   3        / 62. RY*(   3) C   3                    0.94    0.61    0.050
 177. BD*(   2) C   2 - C   3        / 63. RY*(   4) C   3                    0.86    1.50    0.075
 182. BD*(   2) C   4 - C   5        / 62. RY*(   3) C   3                    0.67    0.60    0.044
 182. BD*(   2) C   4 - C   5        / 79. RY*(   3) C   4                    1.50    0.97    0.083
 182. BD*(   2) C   4 - C   5        / 87. RY*(  11) C   4                    0.71    0.39    0.036
 182. BD*(   2) C   4 - C   5        / 96. RY*(   3) C   5                    2.88    0.50    0.082
 182. BD*(   2) C   4 - C   5        /104. RY*(  11) C   5                    0.60    0.35    0.032
 187. BD*(   2) C   6 - C   7        /114. RY*(   4) C   6                    1.56    1.07    0.088
 187. BD*(   2) C   6 - C   7        /130. RY*(   3) C   7                    2.43    0.70    0.088


 Natural Bond Orbitals (Summary):

                                                            Principal Delocalizations
           NBO                        Occupancy    Energy   (geminal,vicinal,remote)
 ====================================================================================
 Molecular unit  1  (C6H5F)
     1. BD (   1) F   1 - C   2          1.99611    -1.04353  179(v),186(v),43(g)
     2. BD (   1) C   2 - C   3          1.98068    -0.72425  178(g),179(g),183(v),189(v)
                                                    128(v),78(v),180(g),77(v)
                                                    129(v),26(v)
     3. BD (   2) C   2 - C   3          1.65808    -0.27507  182(v),187(v),80(v),27(v)
                                                    132(v)
     4. BD (   1) C   2 - C   7          1.98068    -0.72425  176(g),186(g),188(v),180(v)
                                                    60(v),112(v),189(g),111(v)
                                                    61(v),26(v)
     5. BD (   1) C   3 - C   4          1.97537    -0.71125  175(v),181(g),176(g),185(v)
                                                    95(v),44(v),180(g),94(v)
                                                    46(v),183(g)
     6. BD (   1) C   3 - H   8          1.97762    -0.53109  178(v),181(v),77(v),175(v)
                                                    43(v),179(g)
     7. BD (   1) C   4 - C   5          1.98012    -0.70670  184(g),179(g),180(v),188(v)
                                                    61(v),112(v),111(v),183(g)
                                                    185(g),60(v)
     8. BD (   2) C   4 - C   5          1.66723    -0.26014  187(v),177(v),62(v),113(v)
     9. BD (   1) C   4 - H   9          1.98031    -0.52802  184(v),176(v),60(v),94(v)
                                                    181(g),179(g)
    10. BD (   1) C   5 - C   6          1.98012    -0.70670  181(g),186(g),189(v),183(v)
                                                    129(v),78(v),77(v),188(g)
                                                    185(g),128(v)
    11. BD (   1) C   5 - H  10          1.98016    -0.52283  179(v),186(v),77(v),111(v)
                                                    181(g),184(g)
    12. BD (   1) C   6 - C   7          1.97537    -0.71125  175(v),184(g),178(g),185(v)
                                                    95(v),44(v),189(g),94(v)
                                                    46(v),188(g)
    13. BD (   2) C   6 - C   7          1.68194    -0.26436  177(v),182(v),96(v)
    14. BD (   1) C   6 - H  11          1.98031    -0.52802  181(v),178(v),128(v),94(v)
                                                    184(g),186(g)
    15. BD (   1) C   7 - H  12          1.97762    -0.53109  176(v),184(v),111(v),175(v)
                                                    43(v),186(g)
    16. CR (   1) F   1                  1.99992   -24.43208  43(v)
    17. CR (   1) C   2                  1.99849   -10.14297  175(g),61(v),129(v),176(g)
                                                    178(g),179(v),186(v)
    18. CR (   1) C   3                  1.99906   -10.04527  44(v),78(v),178(v),181(v)
                                                    175(v)
    19. CR (   1) C   4                  1.99917   -10.04794  95(v),61(v),184(v),60(v)
                                                    176(v)
    20. CR (   1) C   5                  1.99916   -10.04126  78(v),112(v),179(v),186(v)
    21. CR (   1) C   6                  1.99917   -10.04794  95(v),129(v),181(v),128(v)
                                                    178(v)
    22. CR (   1) C   7                  1.99906   -10.04527  44(v),112(v),176(v),184(v)
                                                    175(v)
    23. LP (   1) F   1                  1.98929    -1.03589  43(v),176(v),178(v)
    24. LP (   2) F   1                  1.97064    -0.42573  176(v),178(v),46(v),44(v)
    25. LP (   3) F   1                  1.92448    -0.42500  177(v),45(v)
    26. RY*(   1) F   1                  0.00263     0.51640   
    27. RY*(   2) F   1                  0.00141     0.71334   
    28. RY*(   3) F   1                  0.00047     0.51625   
    29. RY*(   4) F   1                  0.00014     1.84520   
    30. RY*(   5) F   1                  0.00003     2.50061   
    31. RY*(   6) F   1                  0.00002     1.44981   
    32. RY*(   7) F   1                  0.00001     3.89128   
    33. RY*(   8) F   1                  0.00001     1.46395   
    34. RY*(   9) F   1                  0.00000     6.30550   
    35. RY*(  10) F   1                  0.00001     1.60490   
    36. RY*(  11) F   1                  0.00000     4.89768   
    37. RY*(  12) F   1                  0.00000     6.24979   
    38. RY*(  13) F   1                  0.00000    66.55756   
    39. RY*(  14) F   1                  0.00000     3.35618   
    40. RY*(  15) F   1                  0.00000     3.76788   
    41. RY*(  16) F   1                  0.00000     3.92256   
    42. RY*(  17) F   1                  0.00000     3.77573   
    43. RY*(   1) C   2                  0.00838     1.13324   
    44. RY*(   2) C   2                  0.00417     1.51903   
    45. RY*(   3) C   2                  0.00249     1.47146   
    46. RY*(   4) C   2                  0.00208     1.86631   
    47. RY*(   5) C   2                  0.00181     1.62054   
    48. RY*(   6) C   2                  0.00078     1.63118   
    49. RY*(   7) C   2                  0.00024     1.42229   
    50. RY*(   8) C   2                  0.00020     0.58863   
    51. RY*(   9) C   2                  0.00013     3.74573   
    52. RY*(  10) C   2                  0.00007     2.49475   
    53. RY*(  11) C   2                  0.00004     1.99036   
    54. RY*(  12) C   2                  0.00000     2.66986   
    55. RY*(  13) C   2                  0.00001     0.84288   
    56. RY*(  14) C   2                  0.00000    20.04679   
    57. RY*(  15) C   2                  0.00000     1.05822   
    58. RY*(  16) C   2                  0.00001     2.21074   
    59. RY*(  17) C   2                  0.00000     0.34487   
    60. RY*(   1) C   3                  0.00522     1.16295   
    61. RY*(   2) C   3                  0.00271     1.07727   
    62. RY*(   3) C   3                  0.00086     0.61945   
    63. RY*(   4) C   3                  0.00056     1.51442   
    64. RY*(   5) C   3                  0.00053     0.78712   
    65. RY*(   6) C   3                  0.00025     2.13256   
    66. RY*(   7) C   3                  0.00015     2.31345   
    67. RY*(   8) C   3                  0.00008     0.92541   
    68. RY*(   9) C   3                  0.00008     1.49357   
    69. RY*(  10) C   3                  0.00004     3.55383   
    70. RY*(  11) C   3                  0.00004     1.38447   
    71. RY*(  12) C   3                  0.00000     2.74988   
    72. RY*(  13) C   3                  0.00001     2.16457   
    73. RY*(  14) C   3                  0.00000    21.60758   
    74. RY*(  15) C   3                  0.00000     0.94708   
    75. RY*(  16) C   3                  0.00001     1.31007   
    76. RY*(  17) C   3                  0.00000     1.78739   
    77. RY*(   1) C   4                  0.00573     1.07326   
    78. RY*(   2) C   4                  0.00229     1.25211   
    79. RY*(   3) C   4                  0.00079     0.99252   
    80. RY*(   4) C   4                  0.00048     1.16312   
    81. RY*(   5) C   4                  0.00038     1.06629   
    82. RY*(   6) C   4                  0.00025     1.02260   
    83. RY*(   7) C   4                  0.00011     2.91868   
    84. RY*(   8) C   4                  0.00007     1.86733   
    85. RY*(   9) C   4                  0.00005     2.54076   
    86. RY*(  10) C   4                  0.00001     2.59119   
    87. RY*(  11) C   4                  0.00001     0.40903   
    88. RY*(  12) C   4                  0.00000     2.73625   
    89. RY*(  13) C   4                  0.00000    20.99874   
    90. RY*(  14) C   4                  0.00001     1.04538   
    91. RY*(  15) C   4                  0.00001     1.43599   
    92. RY*(  16) C   4                  0.00000     2.61736   
    93. RY*(  17) C   4                  0.00000     1.54096   
    94. RY*(   1) C   5                  0.00609     1.08700   
    95. RY*(   2) C   5                  0.00216     1.24642   
    96. RY*(   3) C   5                  0.00080     0.52042   
    97. RY*(   4) C   5                  0.00054     1.63843   
    98. RY*(   5) C   5                  0.00036     0.86035   
    99. RY*(   6) C   5                  0.00025     1.20300   
   100. RY*(   7) C   5                  0.00011     2.56408   
   101. RY*(   8) C   5                  0.00007     2.97955   
   102. RY*(   9) C   5                  0.00004     1.98925   
   103. RY*(  10) C   5                  0.00002     1.59091   
   104. RY*(  11) C   5                  0.00000     0.37347   
   105. RY*(  12) C   5                  0.00000     2.74263   
   106. RY*(  13) C   5                  0.00000     2.70629   
   107. RY*(  14) C   5                  0.00000     1.47194   
   108. RY*(  15) C   5                  0.00000     1.68512   
   109. RY*(  16) C   5                  0.00000    20.90118   
   110. RY*(  17) C   5                  0.00001     1.68739   
   111. RY*(   1) C   6                  0.00573     1.07326   
   112. RY*(   2) C   6                  0.00229     1.25211   
   113. RY*(   3) C   6                  0.00071     1.07142   
   114. RY*(   4) C   6                  0.00053     1.08403   
   115. RY*(   5) C   6                  0.00038     1.06629   
   116. RY*(   6) C   6                  0.00025     1.02260   
   117. RY*(   7) C   6                  0.00011     2.91868   
   118. RY*(   8) C   6                  0.00007     1.86733   
   119. RY*(   9) C   6                  0.00005     2.54076   
   120. RY*(  10) C   6                  0.00000     1.62840   
   121. RY*(  11) C   6                  0.00001     0.40717   
   122. RY*(  12) C   6                  0.00000     2.73746   
   123. RY*(  13) C   6                  0.00001     1.20305   
   124. RY*(  14) C   6                  0.00000    20.73717   
   125. RY*(  15) C   6                  0.00001     1.43714   
   126. RY*(  16) C   6                  0.00000     2.24816   
   127. RY*(  17) C   6                  0.00001     2.97685   
   128. RY*(   1) C   7                  0.00522     1.16295   
   129. RY*(   2) C   7                  0.00271     1.07727   
   130. RY*(   3) C   7                  0.00095     0.71322   
   131. RY*(   4) C   7                  0.00053     0.78712   
   132. RY*(   5) C   7                  0.00051     1.42197   
   133. RY*(   6) C   7                  0.00025     2.13256   
   134. RY*(   7) C   7                  0.00015     2.31345   
   135. RY*(   8) C   7                  0.00008     1.49357   
   136. RY*(   9) C   7                  0.00008     0.92377   
   137. RY*(  10) C   7                  0.00004     3.54365   
   138. RY*(  11) C   7                  0.00004     1.39465   
   139. RY*(  12) C   7                  0.00000     2.74179   
   140. RY*(  13) C   7                  0.00001     2.19246   
   141. RY*(  14) C   7                  0.00000    21.54583   
   142. RY*(  15) C   7                  0.00000     0.95518   
   143. RY*(  16) C   7                  0.00001     1.33790   
   144. RY*(  17) C   7                  0.00000     1.79343   
   145. RY*(   1) H   8                  0.00088     0.71025   
   146. RY*(   2) H   8                  0.00019     2.25975   
   147. RY*(   3) H   8                  0.00016     1.59096   
   148. RY*(   4) H   8                  0.00010     1.02667   
   149. RY*(   5) H   8                  0.00006     1.19892   
   150. RY*(   6) H   8                  0.00003     2.46437   
   151. RY*(   1) H   9                  0.00073     0.64156   
   152. RY*(   2) H   9                  0.00021     2.27863   
   153. RY*(   3) H   9                  0.00019     1.58258   
   154. RY*(   4) H   9                  0.00011     1.95670   
   155. RY*(   5) H   9                  0.00003     2.43758   
   156. RY*(   6) H   9                  0.00002     0.26654   
   157. RY*(   1) H  10                  0.00075     0.69847   
   158. RY*(   2) H  10                  0.00020     2.25089   
   159. RY*(   3) H  10                  0.00021     1.58573   
   160. RY*(   4) H  10                  0.00011     1.96019   
   161. RY*(   5) H  10                  0.00003     2.43904   
   162. RY*(   6) H  10                  0.00002     0.25418   
   163. RY*(   1) H  11                  0.00073     0.64156   
   164. RY*(   2) H  11                  0.00021     2.27863   
   165. RY*(   3) H  11                  0.00019     1.58258   
   166. RY*(   4) H  11                  0.00011     1.95670   
   167. RY*(   5) H  11                  0.00003     2.43758   
   168. RY*(   6) H  11                  0.00002     0.26654   
   169. RY*(   1) H  12                  0.00088     0.71025   
   170. RY*(   2) H  12                  0.00019     2.25975   
   171. RY*(   3) H  12                  0.00016     1.59096   
   172. RY*(   4) H  12                  0.00010     1.02666   
   173. RY*(   5) H  12                  0.00006     1.19892   
   174. RY*(   6) H  12                  0.00003     2.46437   
   175. BD*(   1) F   1 - C   2          0.03087     0.27239   
   176. BD*(   1) C   2 - C   3          0.02764     0.54920   
   177. BD*(   2) C   2 - C   3          0.37269     0.01027  187(v),182(v),62(g),63(g)
                                                    50(g),45(g)
   178. BD*(   1) C   2 - C   7          0.02764     0.54920   
   179. BD*(   1) C   3 - C   4          0.01426     0.56714   
   180. BD*(   1) C   3 - H   8          0.01241     0.42594   
   181. BD*(   1) C   4 - C   5          0.01573     0.56747   
   182. BD*(   2) C   4 - C   5          0.33863     0.02012  187(v),177(v),96(g),79(g)
                                                    87(g),62(v),104(g)
   183. BD*(   1) C   4 - H   9          0.01310     0.43254   
   184. BD*(   1) C   5 - C   6          0.01573     0.56747   
   185. BD*(   1) C   5 - H  10          0.01335     0.43442   
   186. BD*(   1) C   6 - C   7          0.01426     0.56714   
   187. BD*(   2) C   6 - C   7          0.34421     0.01671  182(v),177(v),130(g),114(g)
   188. BD*(   1) C   6 - H  11          0.01310     0.43254   
   189. BD*(   1) C   7 - H  12          0.01241     0.42594   
       -------------------------------
              Total Lewis   48.65016  ( 97.3003%)
        Valence non-Lewis    1.26604  (  2.5321%)
        Rydberg non-Lewis    0.08381  (  0.1676%)
       -------------------------------
            Total unit  1   50.00000  (100.0000%)
           Charge unit  1    0.00000
 Calling FoFJK, ICntrl=      2127 FMM=F ISym2X=0 I1Cent= 0 IOpClX= 0 NMat=1 NMatS=1 NMatT=0.
 ***** Axes restored to original set *****
 -------------------------------------------------------------------
 Center     Atomic                   Forces (Hartrees/Bohr)
 Number     Number              X              Y              Z
 -------------------------------------------------------------------
      1        9           0.006225860   -0.007727192   -0.000086253
      2        6          -0.012534227    0.015556747    0.000174219
      3        6          -0.001017033   -0.005568315   -0.000100112
      4        6           0.003271123    0.003156547    0.000075055
      5        6          -0.002177982    0.002703176    0.000030438
      6        6          -0.003780942   -0.002523745   -0.000068241
      7        6           0.005657988   -0.000191724    0.000035524
      8        1           0.001198130    0.000528645    0.000016995
      9        1           0.002480852   -0.000448684    0.000009394
     10        1           0.001537524   -0.001908303   -0.000021103
     11        1          -0.000089672   -0.002519138   -0.000042783
     12        1          -0.000771622   -0.001058016   -0.000023132
 -------------------------------------------------------------------
 Cartesian Forces:  Max     0.015556747 RMS     0.004207363

 GradGradGradGradGradGradGradGradGradGradGradGradGradGradGradGradGradGrad
 Berny optimization.
 FormGI is forming the generalized inverse of G from B-inverse, IUseBI=4.
 Internal  Forces:  Max     0.009923622 RMS     0.002061199
 Search for a local minimum.
 Step number   1 out of a maximum of   64
 All quantities printed in internal units (Hartrees-Bohrs-Radians)
 Mixed Optimization -- RFO/linear search
 Second derivative matrix not updated -- first step.
 ITU=  0
     Eigenvalues ---    0.02131   0.02138   0.02145   0.02147   0.02165
     Eigenvalues ---    0.02182   0.02187   0.02201   0.02212   0.16000
     Eigenvalues ---    0.16000   0.16000   0.16000   0.16000   0.22000
     Eigenvalues ---    0.22000   0.23495   0.25000   0.35101   0.35166
     Eigenvalues ---    0.35166   0.35391   0.35391   0.42230   0.42389
     Eigenvalues ---    0.46228   0.46524   0.46726   0.47093   0.57294
 RFO step:  Lambda=-6.60927321D-04 EMin= 2.13100596D-02
 Linear search not attempted -- first point.
 Iteration  1 RMS(Cart)=  0.00559867 RMS(Int)=  0.00002777
 Iteration  2 RMS(Cart)=  0.00004088 RMS(Int)=  0.00000692
 Iteration  3 RMS(Cart)=  0.00000000 RMS(Int)=  0.00000692
 Variable       Old X    -DE/DX   Delta X   Delta X   Delta X     New X
                                 (Linear)    (Quad)   (Total)
    R1        2.53149   0.00992   0.00000   0.01730   0.01730   2.54879
    R2        2.62803  -0.00304   0.00000  -0.00640  -0.00639   2.62164
    R3        2.62803  -0.00304   0.00000  -0.00640  -0.00639   2.62164
    R4        2.63545  -0.00099   0.00000  -0.00212  -0.00212   2.63333
    R5        2.05044  -0.00091   0.00000  -0.00257  -0.00257   2.04787
    R6        2.63958  -0.00192   0.00000  -0.00419  -0.00420   2.63538
    R7        2.05405  -0.00238   0.00000  -0.00676  -0.00676   2.04729
    R8        2.63958  -0.00192   0.00000  -0.00419  -0.00420   2.63538
    R9        2.05511  -0.00245   0.00000  -0.00697  -0.00697   2.04814
   R10        2.63545  -0.00099   0.00000  -0.00212  -0.00212   2.63333
   R11        2.05405  -0.00238   0.00000  -0.00676  -0.00676   2.04729
   R12        2.05044  -0.00091   0.00000  -0.00257  -0.00257   2.04787
    A1        2.08544  -0.00221   0.00000  -0.00908  -0.00909   2.07635
    A2        2.08544  -0.00221   0.00000  -0.00908  -0.00909   2.07635
    A3        2.11230   0.00442   0.00000   0.01816   0.01818   2.13048
    A4        2.08567  -0.00333   0.00000  -0.01457  -0.01456   2.07111
    A5        2.08888   0.00070   0.00000   0.00129   0.00128   2.09016
    A6        2.10863   0.00263   0.00000   0.01328   0.01328   2.12191
    A7        2.09245   0.00192   0.00000   0.00904   0.00903   2.10148
    A8        2.09524  -0.00181   0.00000  -0.00978  -0.00978   2.08546
    A9        2.09549  -0.00012   0.00000   0.00075   0.00075   2.09625
   A10        2.09783  -0.00162   0.00000  -0.00709  -0.00711   2.09071
   A11        2.09268   0.00081   0.00000   0.00355   0.00356   2.09624
   A12        2.09268   0.00081   0.00000   0.00355   0.00356   2.09624
   A13        2.09245   0.00192   0.00000   0.00904   0.00903   2.10148
   A14        2.09549  -0.00012   0.00000   0.00075   0.00075   2.09625
   A15        2.09524  -0.00181   0.00000  -0.00978  -0.00978   2.08546
   A16        2.08567  -0.00333   0.00000  -0.01457  -0.01456   2.07111
   A17        2.08888   0.00070   0.00000   0.00129   0.00128   2.09016
   A18        2.10863   0.00263   0.00000   0.01328   0.01328   2.12191
    D1       -3.14158  -0.00000   0.00000  -0.00001  -0.00001  -3.14159
    D2        0.00001  -0.00000   0.00000  -0.00001  -0.00001   0.00000
    D3        0.00001  -0.00000   0.00000  -0.00001  -0.00001   0.00000
    D4       -3.14159  -0.00000   0.00000  -0.00000  -0.00000  -3.14159
    D5        3.14158   0.00000   0.00000   0.00001   0.00001  -3.14159
    D6       -0.00001   0.00000   0.00000   0.00001   0.00001  -0.00000
    D7       -0.00001   0.00000   0.00000   0.00001   0.00001  -0.00000
    D8        3.14159   0.00000   0.00000   0.00000   0.00000   3.14159
    D9        0.00000  -0.00000   0.00000  -0.00000  -0.00000  -0.00000
   D10       -3.14159   0.00000   0.00000   0.00000   0.00000  -3.14159
   D11       -3.14159  -0.00000   0.00000  -0.00000  -0.00000   3.14159
   D12        0.00000  -0.00000   0.00000  -0.00000  -0.00000   0.00000
   D13       -0.00001   0.00000   0.00000   0.00001   0.00001   0.00000
   D14        3.14158   0.00000   0.00000   0.00001   0.00001   3.14159
   D15        3.14159   0.00000   0.00000   0.00001   0.00001   3.14159
   D16       -0.00001   0.00000   0.00000   0.00000   0.00000  -0.00000
   D17        0.00001  -0.00000   0.00000  -0.00001  -0.00001  -0.00000
   D18       -3.14159  -0.00000   0.00000  -0.00000  -0.00000  -3.14159
   D19       -3.14159  -0.00000   0.00000  -0.00001  -0.00001  -3.14159
   D20        0.00001  -0.00000   0.00000  -0.00000  -0.00000   0.00000
   D21        0.00000  -0.00000   0.00000  -0.00000  -0.00000   0.00000
   D22       -3.14159   0.00000   0.00000   0.00000   0.00000  -3.14159
   D23       -3.14159  -0.00000   0.00000  -0.00000  -0.00000   3.14159
   D24        0.00000  -0.00000   0.00000  -0.00000  -0.00000   0.00000
         Item               Value     Threshold  Converged?
 Maximum Force            0.009924     0.000450     NO 
 RMS     Force            0.002061     0.000300     NO 
 Maximum Displacement     0.020206     0.001800     NO 
 RMS     Displacement     0.005610     0.001200     NO 
 Predicted change in Energy=-3.312156D-04
 GradGradGradGradGradGradGradGradGradGradGradGradGradGradGradGradGradGrad

                          Input orientation:                          
 ---------------------------------------------------------------------
 Center     Atomic      Atomic             Coordinates (Angstroms)
 Number     Number       Type             X           Y           Z
 ---------------------------------------------------------------------
      1          9           0        1.691306   -2.099153   -0.023503
      2          6           0        0.845124   -1.048919   -0.011745
      3          6           0       -0.521532   -1.287052   -0.025102
      4          6           0       -1.390080   -0.197415   -0.012838
      5          6           0       -0.889489    1.103983    0.012360
      6          6           0        0.488822    1.316005    0.025361
      7          6           0        1.368750    0.235534    0.013328
      8          1           0       -0.889779   -2.306064   -0.044667
      9          1           0       -2.459890   -0.368045   -0.023028
     10          1           0       -1.569460    1.947924    0.021808
     11          1           0        0.883294    2.324827    0.044939
     12          1           0        2.442935    0.378375    0.023087
 ---------------------------------------------------------------------
                    Distance matrix (angstroms):
                    1          2          3          4          5
     1  F    0.000000
     2  C    1.348760   0.000000
     3  C    2.357152   1.387312   0.000000
     4  C    3.621003   2.391903   1.393498   0.000000
     5  C    4.113620   2.764860   2.419472   1.394584   0.000000
     6  C    3.621003   2.391903   2.792718   2.412918   1.394584
     7  C    2.357152   1.387312   2.427532   2.792718   2.419472
     8  H    2.589452   2.142752   1.083685   2.167421   3.410524
     9  H    4.497685   3.374439   2.145183   1.083380   2.152738
    10  H    5.197450   3.848690   3.400798   2.153105   1.083830
    11  H    4.497685   3.374439   3.876095   3.396067   2.152738
    12  H    2.589452   2.142752   3.400594   3.876188   3.410524
                    6          7          8          9         10
     6  C    0.000000
     7  C    1.393498   0.000000
     8  H    3.876188   3.400594   0.000000
     9  H    3.396067   3.876095   2.494321   0.000000
    10  H    2.153105   3.400798   4.308457   2.481651   0.000000
    11  H    1.083380   2.145183   4.959533   4.293374   2.481651
    12  H    2.167421   1.083685   4.279929   4.959533   4.308457
                   11         12
    11  H    0.000000
    12  H    2.494321   0.000000
 Stoichiometry    C6H5F
 Framework group  C1[X(C6H5F)]
 Deg. of freedom    30
 Full point group                 C1      NOp   1
 Largest Abelian subgroup         C1      NOp   1
 Largest concise Abelian subgroup C1      NOp   1
                         Standard orientation:                         
 ---------------------------------------------------------------------
 Center     Atomic      Atomic             Coordinates (Angstroms)
 Number     Number       Type             X           Y           Z
 ---------------------------------------------------------------------
      1          9           0        2.280184    0.000000   -0.000000
      2          6           0        0.931425    0.000000   -0.000000
      3          6           0        0.259557   -1.213766    0.000000
      4          6           0       -1.133921   -1.206459   -0.000000
      5          6           0       -1.833436   -0.000000    0.000000
      6          6           0       -1.133922    1.206459   -0.000000
      7          6           0        0.259557    1.213766    0.000000
      8          1           0        0.822167   -2.139964    0.000002
      9          1           0       -1.672144   -2.146687    0.000001
     10          1           0       -2.917265   -0.000000   -0.000001
     11          1           0       -1.672144    2.146687    0.000001
     12          1           0        0.822167    2.139964    0.000002
 ---------------------------------------------------------------------
 Rotational constants (GHZ):           5.6905817           2.5642428           1.7676976
 Standard basis: 6-311++G(d,p) (5D, 7F)
 There are   196 symmetry adapted cartesian basis functions of A   symmetry.
 There are   189 symmetry adapted basis functions of A   symmetry.
   189 basis functions,   297 primitive gaussians,   196 cartesian basis functions
    25 alpha electrons       25 beta electrons
       nuclear repulsion energy       269.3630100701 Hartrees.
 NAtoms=   12 NActive=   12 NUniq=   12 SFac= 1.00D+00 NAtFMM=   60 NAOKFM=F Big=F
 Integral buffers will be    131072 words long.
 Raffenetti 2 integral format.
 Two-electron integral symmetry is turned on.
 One-electron integrals computed using PRISM.
 NBasis=   189 RedAO= T EigKep=  1.63D-06  NBF=   189
 NBsUse=   189 1.00D-06 EigRej= -1.00D+00 NBFU=   189
 Initial guess from the checkpoint file:  "Fc1ccccc1.chk"
 B after Tr=     0.000000    0.000000   -0.000000
         Rot=    1.000000    0.000000   -0.000000   -0.000000 Ang=   0.00 deg.
 ExpMin= 3.60D-02 ExpMax= 1.14D+04 ExpMxC= 1.72D+03 IAcc=3 IRadAn=         5 AccDes= 0.00D+00
 Harris functional with IExCor=  402 and IRadAn=       5 diagonalized for initial guess.
 HarFok:  IExCor=  402 AccDes= 0.00D+00 IRadAn=         5 IDoV= 1 UseB2=F ITyADJ=14
 ICtDFT=  3500011 ScaDFX=  1.000000  1.000000  1.000000  1.000000
 FoFCou: FMM=F IPFlag=           0 FMFlag=      100000 FMFlg1=           0
         NFxFlg=           0 DoJE=T BraDBF=F KetDBF=T FulRan=T
         wScrn=  0.000000 ICntrl=       500 IOpCl=  0 I1Cent=   200000004 NGrid=           0
         NMat0=    1 NMatS0=      1 NMatT0=    0 NMatD0=    1 NMtDS0=    0 NMtDT0=    0
 Petite list used in FoFCou.
 Keep R1 ints in memory in canonical form, NReq=169410400.
 Requested convergence on RMS density matrix=1.00D-08 within 128 cycles.
 Requested convergence on MAX density matrix=1.00D-06.
 Requested convergence on             energy=1.00D-06.
 No special actions if energy rises.
 SCF Done:  E(RB3LYP) =  -331.580134475     A.U. after    9 cycles
            NFock=  9  Conv=0.76D-08     -V/T= 2.0039
 Calling FoFJK, ICntrl=      2127 FMM=F ISym2X=0 I1Cent= 0 IOpClX= 0 NMat=1 NMatS=1 NMatT=0.
 ***** Axes restored to original set *****
 -------------------------------------------------------------------
 Center     Atomic                   Forces (Hartrees/Bohr)
 Number     Number              X              Y              Z
 -------------------------------------------------------------------
      1        9           0.003173190   -0.003938380   -0.000044090
      2        6          -0.004586923    0.005693023    0.000063804
      3        6          -0.000076107   -0.002116800   -0.000035946
      4        6           0.000524731    0.000965491    0.000019910
      5        6          -0.000187166    0.000232308    0.000002414
      6        6          -0.001055184   -0.000307123   -0.000012294
      7        6           0.002084769   -0.000376227    0.000008067
      8        1           0.000394489    0.000277666    0.000007295
      9        1          -0.000305075   -0.000193579   -0.000005388
     10        1           0.000134489   -0.000166920   -0.000001805
     11        1           0.000254100    0.000256837    0.000006005
     12        1          -0.000355312   -0.000326297   -0.000007973
 -------------------------------------------------------------------
 Cartesian Forces:  Max     0.005693023 RMS     0.001592427

 GradGradGradGradGradGradGradGradGradGradGradGradGradGradGradGradGradGrad
 Berny optimization.
 Using GEDIIS/GDIIS optimizer.
 FormGI is forming the generalized inverse of G from B-inverse, IUseBI=4.
 Internal  Forces:  Max     0.005057857 RMS     0.000767604
 Search for a local minimum.
 Step number   2 out of a maximum of   64
 All quantities printed in internal units (Hartrees-Bohrs-Radians)
 Mixed Optimization -- En-DIIS/RFO-DIIS
 Update second derivatives using D2CorX and points    1    2
 DE= -4.16D-04 DEPred=-3.31D-04 R= 1.26D+00
 TightC=F SS=  1.41D+00  RLast= 4.78D-02 DXNew= 5.0454D-01 1.4341D-01
 Trust test= 1.26D+00 RLast= 4.78D-02 DXMaxT set to 3.00D-01
 ITU=  1  0
 Use linear search instead of GDIIS.
     Eigenvalues ---    0.02131   0.02138   0.02145   0.02147   0.02164
     Eigenvalues ---    0.02182   0.02187   0.02201   0.02212   0.15313
     Eigenvalues ---    0.16000   0.16000   0.16000   0.16015   0.19584
     Eigenvalues ---    0.22000   0.22626   0.25000   0.34906   0.35166
     Eigenvalues ---    0.35259   0.35391   0.36349   0.42161   0.42235
     Eigenvalues ---    0.45281   0.46229   0.47096   0.47280   0.51552
 RFO step:  Lambda=-4.49242974D-05 EMin= 2.13100596D-02
 Quartic linear search produced a step of  0.35334.
 Iteration  1 RMS(Cart)=  0.00211179 RMS(Int)=  0.00000677
 Iteration  2 RMS(Cart)=  0.00000795 RMS(Int)=  0.00000411
 Iteration  3 RMS(Cart)=  0.00000000 RMS(Int)=  0.00000411
 Variable       Old X    -DE/DX   Delta X   Delta X   Delta X     New X
                                 (Linear)    (Quad)   (Total)
    R1        2.54879   0.00506   0.00611   0.00701   0.01313   2.56191
    R2        2.62164  -0.00037  -0.00226   0.00076  -0.00149   2.62015
    R3        2.62164  -0.00037  -0.00226   0.00076  -0.00149   2.62015
    R4        2.63333   0.00051  -0.00075   0.00209   0.00134   2.63466
    R5        2.04787  -0.00040  -0.00091  -0.00078  -0.00169   2.04618
    R6        2.63538   0.00006  -0.00148   0.00138  -0.00011   2.63527
    R7        2.04729   0.00033  -0.00239   0.00320   0.00081   2.04811
    R8        2.63538   0.00006  -0.00148   0.00138  -0.00011   2.63527
    R9        2.04814  -0.00021  -0.00246   0.00116  -0.00130   2.04684
   R10        2.63333   0.00051  -0.00075   0.00209   0.00134   2.63466
   R11        2.04729   0.00033  -0.00239   0.00320   0.00081   2.04811
   R12        2.04787  -0.00040  -0.00091  -0.00078  -0.00169   2.04618
    A1        2.07635  -0.00064  -0.00321  -0.00095  -0.00417   2.07218
    A2        2.07635  -0.00064  -0.00321  -0.00095  -0.00417   2.07218
    A3        2.13048   0.00128   0.00642   0.00190   0.00834   2.13882
    A4        2.07111  -0.00080  -0.00514  -0.00061  -0.00575   2.06536
    A5        2.09016   0.00012   0.00045  -0.00038   0.00007   2.09023
    A6        2.12191   0.00068   0.00469   0.00099   0.00568   2.12760
    A7        2.10148   0.00015   0.00319  -0.00152   0.00167   2.10315
    A8        2.08546  -0.00022  -0.00346   0.00102  -0.00243   2.08303
    A9        2.09625   0.00007   0.00027   0.00050   0.00077   2.09701
   A10        2.09071   0.00003  -0.00251   0.00236  -0.00017   2.09054
   A11        2.09624  -0.00001   0.00126  -0.00118   0.00009   2.09632
   A12        2.09624  -0.00001   0.00126  -0.00118   0.00009   2.09632
   A13        2.10148   0.00015   0.00319  -0.00152   0.00167   2.10315
   A14        2.09625   0.00007   0.00027   0.00050   0.00077   2.09701
   A15        2.08546  -0.00022  -0.00346   0.00102  -0.00243   2.08303
   A16        2.07111  -0.00080  -0.00514  -0.00061  -0.00575   2.06536
   A17        2.09016   0.00012   0.00045  -0.00038   0.00007   2.09023
   A18        2.12191   0.00068   0.00469   0.00099   0.00568   2.12760
    D1       -3.14159   0.00000  -0.00000   0.00000  -0.00000   3.14159
    D2        0.00000  -0.00000  -0.00000   0.00000  -0.00000  -0.00000
    D3        0.00000  -0.00000  -0.00000   0.00000  -0.00000  -0.00000
    D4       -3.14159  -0.00000  -0.00000  -0.00000  -0.00000   3.14159
    D5       -3.14159  -0.00000   0.00000  -0.00000  -0.00000   3.14159
    D6       -0.00000   0.00000   0.00000  -0.00000   0.00000   0.00000
    D7       -0.00000   0.00000   0.00000  -0.00000   0.00000   0.00000
    D8        3.14159   0.00000   0.00000   0.00000   0.00000  -3.14159
    D9       -0.00000   0.00000  -0.00000   0.00000   0.00000   0.00000
   D10       -3.14159  -0.00000   0.00000  -0.00000  -0.00000   3.14159
   D11        3.14159   0.00000  -0.00000   0.00000   0.00000  -3.14159
   D12        0.00000  -0.00000  -0.00000  -0.00000  -0.00000  -0.00000
   D13        0.00000  -0.00000   0.00000  -0.00000  -0.00000  -0.00000
   D14        3.14159   0.00000   0.00000  -0.00000   0.00000   3.14159
   D15        3.14159   0.00000   0.00000   0.00000   0.00000  -3.14159
   D16       -0.00000   0.00000   0.00000   0.00000   0.00000   0.00000
   D17       -0.00000   0.00000  -0.00000   0.00000   0.00000  -0.00000
   D18       -3.14159  -0.00000  -0.00000   0.00000  -0.00000   3.14159
   D19       -3.14159  -0.00000  -0.00000   0.00000  -0.00000   3.14159
   D20        0.00000  -0.00000  -0.00000  -0.00000  -0.00000  -0.00000
   D21        0.00000  -0.00000  -0.00000  -0.00000  -0.00000  -0.00000
   D22       -3.14159  -0.00000   0.00000  -0.00000  -0.00000   3.14159
   D23        3.14159   0.00000  -0.00000   0.00000   0.00000  -3.14159
   D24        0.00000  -0.00000  -0.00000  -0.00000  -0.00000  -0.00000
         Item               Value     Threshold  Converged?
 Maximum Force            0.005058     0.000450     NO 
 RMS     Force            0.000768     0.000300     NO 
 Maximum Displacement     0.008044     0.001800     NO 
 RMS     Displacement     0.002111     0.001200     NO 
 Predicted change in Energy=-5.269591D-05
 GradGradGradGradGradGradGradGradGradGradGradGradGradGradGradGradGradGrad

                          Input orientation:                          
 ---------------------------------------------------------------------
 Center     Atomic      Atomic             Coordinates (Angstroms)
 Number     Number       Type             X           Y           Z
 ---------------------------------------------------------------------
      1          9           0        1.692235   -2.100305   -0.023515
      2          6           0        0.841694   -1.044663   -0.011696
      3          6           0       -0.523182   -1.288353   -0.025134
      4          6           0       -1.390444   -0.196789   -0.012829
      5          6           0       -0.889985    1.104598    0.012367
      6          6           0        0.488288    1.316494    0.025366
      7          6           0        1.370372    0.236869    0.013362
      8          1           0       -0.886946   -2.308026   -0.044682
      9          1           0       -2.460534   -0.368399   -0.023040
     10          1           0       -1.569523    1.948003    0.021810
     11          1           0        0.883776    2.325381    0.044950
     12          1           0        2.444249    0.375190    0.023041
 ---------------------------------------------------------------------
                    Distance matrix (angstroms):
                    1          2          3          4          5
     1  F    0.000000
     2  C    1.355706   0.000000
     3  C    2.359521   1.386525   0.000000
     4  C    3.623036   2.387746   1.394204   0.000000
     5  C    4.115890   2.760183   2.421191   1.394526   0.000000
     6  C    3.623036   2.387746   2.794789   2.412699   1.394526
     7  C    2.359521   1.386525   2.431734   2.794789   2.421191
     8  H    2.587619   2.141348   1.082793   2.170678   3.413102
     9  H    4.499443   3.370782   2.144680   1.083811   2.153508
    10  H    5.199030   3.843324   3.401622   2.152534   1.083140
    11  H    4.499443   3.370782   3.878596   3.396580   2.153508
    12  H    2.587619   2.141348   3.402256   3.877283   3.413102
                    6          7          8          9         10
     6  C    0.000000
     7  C    1.394204   0.000000
     8  H    3.877283   3.402256   0.000000
     9  H    3.396580   3.878596   2.497759   0.000000
    10  H    2.152534   3.401622   4.310929   2.482263   0.000000
    11  H    1.083811   2.144680   4.961043   4.294820   2.482263
    12  H    2.170678   1.082793   4.277978   4.961043   4.310929
                   11         12
    11  H    0.000000
    12  H    2.497759   0.000000
 Stoichiometry    C6H5F
 Framework group  C1[X(C6H5F)]
 Deg. of freedom    30
 Full point group                 C1      NOp   1
 Largest Abelian subgroup         C1      NOp   1
 Largest concise Abelian subgroup C1      NOp   1
                         Standard orientation:                         
 ---------------------------------------------------------------------
 Center     Atomic      Atomic             Coordinates (Angstroms)
 Number     Number       Type             X           Y           Z
 ---------------------------------------------------------------------
      1          9           0        2.282201    0.000000    0.000000
      2          6           0        0.926494    0.000000    0.000000
      3          6           0        0.260071   -1.215867   -0.000000
      4          6           0       -1.134101   -1.206350    0.000000
      5          6           0       -1.833689    0.000000    0.000000
      6          6           0       -1.134101    1.206350    0.000000
      7          6           0        0.260071    1.215867   -0.000000
      8          1           0        0.826008   -2.138989   -0.000001
      9          1           0       -1.671736   -2.147410   -0.000000
     10          1           0       -2.916829   -0.000000    0.000000
     11          1           0       -1.671736    2.147410   -0.000000
     12          1           0        0.826008    2.138989   -0.000001
 ---------------------------------------------------------------------
 Rotational constants (GHZ):           5.6832855           2.5629350           1.7663718
 Standard basis: 6-311++G(d,p) (5D, 7F)
 There are   196 symmetry adapted cartesian basis functions of A   symmetry.
 There are   189 symmetry adapted basis functions of A   symmetry.
   189 basis functions,   297 primitive gaussians,   196 cartesian basis functions
    25 alpha electrons       25 beta electrons
       nuclear repulsion energy       269.2271092411 Hartrees.
 NAtoms=   12 NActive=   12 NUniq=   12 SFac= 1.00D+00 NAtFMM=   60 NAOKFM=F Big=F
 Integral buffers will be    131072 words long.
 Raffenetti 2 integral format.
 Two-electron integral symmetry is turned on.
 One-electron integrals computed using PRISM.
 NBasis=   189 RedAO= T EigKep=  1.62D-06  NBF=   189
 NBsUse=   189 1.00D-06 EigRej= -1.00D+00 NBFU=   189
 Initial guess from the checkpoint file:  "Fc1ccccc1.chk"
 B after Tr=    -0.000000   -0.000000    0.000000
         Rot=    1.000000   -0.000000   -0.000000    0.000000 Ang=   0.00 deg.
 Keep R1 ints in memory in canonical form, NReq=169410400.
 Requested convergence on RMS density matrix=1.00D-08 within 128 cycles.
 Requested convergence on MAX density matrix=1.00D-06.
 Requested convergence on             energy=1.00D-06.
 No special actions if energy rises.
 SCF Done:  E(RB3LYP) =  -331.580192103     A.U. after    9 cycles
            NFock=  9  Conv=0.85D-08     -V/T= 2.0040
 Calling FoFJK, ICntrl=      2127 FMM=F ISym2X=0 I1Cent= 0 IOpClX= 0 NMat=1 NMatS=1 NMatT=0.
 ***** Axes restored to original set *****
 -------------------------------------------------------------------
 Center     Atomic                   Forces (Hartrees/Bohr)
 Number     Number              X              Y              Z
 -------------------------------------------------------------------
      1        9           0.000535529   -0.000664668   -0.000007438
      2        6          -0.000627829    0.000779238    0.000008675
      3        6           0.000327370    0.000039813    0.000002939
      4        6          -0.000257157   -0.000055409   -0.000002743
      5        6           0.000303283   -0.000376431   -0.000004184
      6        6           0.000108900    0.000239428    0.000004736
      7        6          -0.000108604   -0.000311344   -0.000005953
      8        1          -0.000035935   -0.000033172   -0.000000785
      9        1          -0.000109642    0.000070470    0.000000444
     10        1          -0.000130456    0.000161917    0.000001806
     11        1          -0.000045523    0.000122114    0.000001737
     12        1           0.000040064    0.000028045    0.000000766
 -------------------------------------------------------------------
 Cartesian Forces:  Max     0.000779238 RMS     0.000258292

 GradGradGradGradGradGradGradGradGradGradGradGradGradGradGradGradGradGrad
 Berny optimization.
 Using GEDIIS/GDIIS optimizer.
 FormGI is forming the generalized inverse of G from B-inverse, IUseBI=4.
 Internal  Forces:  Max     0.000853598 RMS     0.000138148
 Search for a local minimum.
 Step number   3 out of a maximum of   64
 All quantities printed in internal units (Hartrees-Bohrs-Radians)
 Mixed Optimization -- En-DIIS/RFO-DIIS
 Swapping is turned off.
 Update second derivatives using D2CorX and points    1    2    3
 DE= -5.76D-05 DEPred=-5.27D-05 R= 1.09D+00
 TightC=F SS=  1.41D+00  RLast= 2.10D-02 DXNew= 5.0454D-01 6.3125D-02
 Trust test= 1.09D+00 RLast= 2.10D-02 DXMaxT set to 3.00D-01
 ITU=  1  1  0
     Eigenvalues ---    0.02131   0.02138   0.02145   0.02147   0.02164
     Eigenvalues ---    0.02182   0.02187   0.02201   0.02212   0.15556
     Eigenvalues ---    0.16000   0.16000   0.16000   0.16117   0.19150
     Eigenvalues ---    0.22000   0.23070   0.25000   0.35150   0.35166
     Eigenvalues ---    0.35228   0.35391   0.36520   0.41014   0.42248
     Eigenvalues ---    0.43427   0.46229   0.47098   0.47135   0.50042
 En-DIIS/RFO-DIIS/Sim-DIIS IScMMF=       -3 using points:     3    2
 RFO step:  Lambda=-2.98324120D-06.
 DidBck=F Rises=F RFO-DIIS coefs:    1.08278   -0.08278
 Iteration  1 RMS(Cart)=  0.00040408 RMS(Int)=  0.00000017
 Iteration  2 RMS(Cart)=  0.00000016 RMS(Int)=  0.00000014
 Variable       Old X    -DE/DX   Delta X   Delta X   Delta X     New X
                                 (Linear)    (Quad)   (Total)
    R1        2.56191   0.00085   0.00109   0.00111   0.00219   2.56411
    R2        2.62015  -0.00010  -0.00012  -0.00025  -0.00037   2.61978
    R3        2.62015  -0.00010  -0.00012  -0.00025  -0.00037   2.61978
    R4        2.63466   0.00010   0.00011   0.00013   0.00024   2.63490
    R5        2.04618   0.00004  -0.00014   0.00019   0.00005   2.04624
    R6        2.63527   0.00003  -0.00001   0.00002   0.00001   2.63529
    R7        2.04811   0.00010   0.00007   0.00014   0.00021   2.04831
    R8        2.63527   0.00003  -0.00001   0.00002   0.00001   2.63529
    R9        2.04684   0.00021  -0.00011   0.00061   0.00050   2.04734
   R10        2.63466   0.00010   0.00011   0.00013   0.00024   2.63490
   R11        2.04811   0.00010   0.00007   0.00014   0.00021   2.04831
   R12        2.04618   0.00004  -0.00014   0.00019   0.00005   2.04624
    A1        2.07218  -0.00004  -0.00035  -0.00004  -0.00038   2.07180
    A2        2.07218  -0.00004  -0.00035  -0.00004  -0.00038   2.07180
    A3        2.13882   0.00007   0.00069   0.00007   0.00077   2.13958
    A4        2.06536   0.00004  -0.00048   0.00027  -0.00021   2.06515
    A5        2.09023   0.00000   0.00001   0.00010   0.00010   2.09033
    A6        2.12760  -0.00004   0.00047  -0.00037   0.00010   2.12770
    A7        2.10315  -0.00017   0.00014  -0.00078  -0.00064   2.10251
    A8        2.08303   0.00018  -0.00020   0.00100   0.00080   2.08383
    A9        2.09701  -0.00000   0.00006  -0.00023  -0.00017   2.09685
   A10        2.09054   0.00020  -0.00001   0.00093   0.00092   2.09146
   A11        2.09632  -0.00010   0.00001  -0.00047  -0.00046   2.09586
   A12        2.09632  -0.00010   0.00001  -0.00047  -0.00046   2.09586
   A13        2.10315  -0.00017   0.00014  -0.00078  -0.00064   2.10251
   A14        2.09701  -0.00000   0.00006  -0.00023  -0.00017   2.09685
   A15        2.08303   0.00018  -0.00020   0.00100   0.00080   2.08383
   A16        2.06536   0.00004  -0.00048   0.00027  -0.00021   2.06515
   A17        2.09023   0.00000   0.00001   0.00010   0.00010   2.09033
   A18        2.12760  -0.00004   0.00047  -0.00037   0.00010   2.12770
    D1        3.14159  -0.00000  -0.00000  -0.00000  -0.00000   3.14159
    D2       -0.00000  -0.00000  -0.00000  -0.00000  -0.00000  -0.00000
    D3       -0.00000   0.00000  -0.00000   0.00000   0.00000  -0.00000
    D4        3.14159   0.00000  -0.00000   0.00000   0.00000   3.14159
    D5        3.14159   0.00000  -0.00000   0.00000   0.00000  -3.14159
    D6        0.00000  -0.00000   0.00000  -0.00000   0.00000   0.00000
    D7        0.00000  -0.00000   0.00000  -0.00000  -0.00000   0.00000
    D8       -3.14159  -0.00000   0.00000  -0.00000  -0.00000  -3.14159
    D9        0.00000  -0.00000   0.00000  -0.00000  -0.00000  -0.00000
   D10        3.14159   0.00000  -0.00000   0.00000   0.00000   3.14159
   D11       -3.14159  -0.00000   0.00000  -0.00000  -0.00000   3.14159
   D12       -0.00000   0.00000  -0.00000   0.00000   0.00000   0.00000
   D13       -0.00000   0.00000  -0.00000   0.00000   0.00000   0.00000
   D14        3.14159   0.00000   0.00000   0.00000   0.00000  -3.14159
   D15       -3.14159  -0.00000   0.00000  -0.00000  -0.00000  -3.14159
   D16        0.00000  -0.00000   0.00000  -0.00000  -0.00000   0.00000
   D17       -0.00000  -0.00000   0.00000  -0.00000  -0.00000  -0.00000
   D18        3.14159   0.00000  -0.00000   0.00000   0.00000   3.14159
   D19        3.14159  -0.00000  -0.00000  -0.00000  -0.00000   3.14159
   D20       -0.00000   0.00000  -0.00000   0.00000   0.00000  -0.00000
   D21       -0.00000   0.00000  -0.00000   0.00000   0.00000  -0.00000
   D22        3.14159   0.00000  -0.00000   0.00000   0.00000   3.14159
   D23       -3.14159  -0.00000   0.00000  -0.00000  -0.00000   3.14159
   D24       -0.00000   0.00000  -0.00000   0.00000   0.00000  -0.00000
         Item               Value     Threshold  Converged?
 Maximum Force            0.000854     0.000450     NO 
 RMS     Force            0.000138     0.000300     YES
 Maximum Displacement     0.001161     0.001800     YES
 RMS     Displacement     0.000404     0.001200     YES
 Predicted change in Energy=-1.491634D-06
 GradGradGradGradGradGradGradGradGradGradGradGradGradGradGradGradGradGrad

                          Input orientation:                          
 ---------------------------------------------------------------------
 Center     Atomic      Atomic             Coordinates (Angstroms)
 Number     Number       Type             X           Y           Z
 ---------------------------------------------------------------------
      1          9           0        1.692644   -2.100813   -0.023521
      2          6           0        0.841375   -1.044267   -0.011692
      3          6           0       -0.523213   -1.288444   -0.025136
      4          6           0       -1.390746   -0.196937   -0.012834
      5          6           0       -0.889686    1.104227    0.012363
      6          6           0        0.488496    1.316758    0.025371
      7          6           0        1.370468    0.236880    0.013363
      8          1           0       -0.886700   -2.308247   -0.044684
      9          1           0       -2.461052   -0.367893   -0.023035
     10          1           0       -1.569391    1.947839    0.021809
     11          1           0        0.883393    2.325995    0.044958
     12          1           0        2.444413    0.374902    0.023038
 ---------------------------------------------------------------------
                    Distance matrix (angstroms):
                    1          2          3          4          5
     1  F    0.000000
     2  C    1.356867   0.000000
     3  C    2.360078   1.386328   0.000000
     4  C    3.623832   2.387538   1.394329   0.000000
     5  C    4.116066   2.759199   2.420864   1.394534   0.000000
     6  C    3.623832   2.387538   2.795208   2.413355   1.394534
     7  C    2.360078   1.386328   2.431897   2.795208   2.420864
     8  H    2.587758   2.141256   1.082821   2.170877   3.412952
     9  H    4.500690   3.371000   2.145376   1.083921   2.153505
    10  H    5.199473   3.842605   3.401503   2.152482   1.083407
    11  H    4.500690   3.371000   3.879126   3.397091   2.153505
    12  H    2.587758   2.141256   3.402329   3.877723   3.412952
                    6          7          8          9         10
     6  C    0.000000
     7  C    1.394329   0.000000
     8  H    3.877723   3.402330   0.000000
     9  H    3.397091   3.879126   2.498805   0.000000
    10  H    2.152482   3.401503   4.311004   2.481872   0.000000
    11  H    1.083921   2.145376   4.961598   4.294993   2.481872
    12  H    2.170877   1.082821   4.277872   4.961598   4.311004
                   11         12
    11  H    0.000000
    12  H    2.498805   0.000000
 Stoichiometry    C6H5F
 Framework group  C1[X(C6H5F)]
 Deg. of freedom    30
 Full point group                 C1      NOp   1
 Largest Abelian subgroup         C1      NOp   1
 Largest concise Abelian subgroup C1      NOp   1
                         Standard orientation:                         
 ---------------------------------------------------------------------
 Center     Atomic      Atomic             Coordinates (Angstroms)
 Number     Number       Type             X           Y           Z
 ---------------------------------------------------------------------
      1          9           0        2.282757    0.000000    0.000000
      2          6           0        0.925889    0.000000   -0.000000
      3          6           0        0.260026   -1.215949   -0.000000
      4          6           0       -1.134272   -1.206678   -0.000000
      5          6           0       -1.833309    0.000000    0.000000
      6          6           0       -1.134272    1.206678    0.000000
      7          6           0        0.260026    1.215949   -0.000000
      8          1           0        0.826239   -2.138936   -0.000000
      9          1           0       -1.672552   -2.147497   -0.000000
     10          1           0       -2.916716    0.000000    0.000001
     11          1           0       -1.672552    2.147497    0.000000
     12          1           0        0.826239    2.138936   -0.000000
 ---------------------------------------------------------------------
 Rotational constants (GHZ):           5.6817487           2.5625162           1.7660244
 Standard basis: 6-311++G(d,p) (5D, 7F)
 There are   196 symmetry adapted cartesian basis functions of A   symmetry.
 There are   189 symmetry adapted basis functions of A   symmetry.
   189 basis functions,   297 primitive gaussians,   196 cartesian basis functions
    25 alpha electrons       25 beta electrons
       nuclear repulsion energy       269.1981235312 Hartrees.
 NAtoms=   12 NActive=   12 NUniq=   12 SFac= 1.00D+00 NAtFMM=   60 NAOKFM=F Big=F
 Integral buffers will be    131072 words long.
 Raffenetti 2 integral format.
 Two-electron integral symmetry is turned on.
 One-electron integrals computed using PRISM.
 NBasis=   189 RedAO= T EigKep=  1.62D-06  NBF=   189
 NBsUse=   189 1.00D-06 EigRej= -1.00D+00 NBFU=   189
 Initial guess from the checkpoint file:  "Fc1ccccc1.chk"
 B after Tr=     0.000000    0.000000   -0.000000
         Rot=    1.000000    0.000000    0.000000    0.000000 Ang=   0.00 deg.
 Keep R1 ints in memory in canonical form, NReq=169410400.
 Requested convergence on RMS density matrix=1.00D-08 within 128 cycles.
 Requested convergence on MAX density matrix=1.00D-06.
 Requested convergence on             energy=1.00D-06.
 No special actions if energy rises.
 SCF Done:  E(RB3LYP) =  -331.580193854     A.U. after    8 cycles
            NFock=  8  Conv=0.56D-08     -V/T= 2.0040
 Calling FoFJK, ICntrl=      2127 FMM=F ISym2X=0 I1Cent= 0 IOpClX= 0 NMat=1 NMatS=1 NMatT=0.
 ***** Axes restored to original set *****
 -------------------------------------------------------------------
 Center     Atomic                   Forces (Hartrees/Bohr)
 Number     Number              X              Y              Z
 -------------------------------------------------------------------
      1        9           0.000068391   -0.000084883   -0.000000968
      2        6          -0.000069720    0.000086531    0.000000996
      3        6           0.000107193    0.000043018    0.000001442
      4        6          -0.000110045   -0.000061694   -0.000001777
      5        6           0.000063019   -0.000078214   -0.000000875
      6        6           0.000083714    0.000094374    0.000002152
      7        6          -0.000064858   -0.000095562   -0.000002047
      8        1          -0.000021453   -0.000011609   -0.000000340
      9        1          -0.000010131    0.000034882    0.000000516
     10        1          -0.000030091    0.000037347    0.000000407
     11        1          -0.000031931    0.000017322    0.000000072
     12        1           0.000015911    0.000018488    0.000000422
 -------------------------------------------------------------------
 Cartesian Forces:  Max     0.000110045 RMS     0.000052434

 GradGradGradGradGradGradGradGradGradGradGradGradGradGradGradGradGradGrad
 Berny optimization.
 Using GEDIIS/GDIIS optimizer.
 FormGI is forming the generalized inverse of G from B-inverse, IUseBI=4.
 Internal  Forces:  Max     0.000109011 RMS     0.000027046
 Search for a local minimum.
 Step number   4 out of a maximum of   64
 All quantities printed in internal units (Hartrees-Bohrs-Radians)
 Mixed Optimization -- En-DIIS/RFO-DIIS
 Swapping is turned off.
 Update second derivatives using D2CorX and points    1    2    3    4
 DE= -1.75D-06 DEPred=-1.49D-06 R= 1.17D+00
 TightC=F SS=  1.41D+00  RLast= 3.16D-03 DXNew= 5.0454D-01 9.4791D-03
 Trust test= 1.17D+00 RLast= 3.16D-03 DXMaxT set to 3.00D-01
 ITU=  1  1  1  0
     Eigenvalues ---    0.02131   0.02138   0.02145   0.02147   0.02164
     Eigenvalues ---    0.02182   0.02187   0.02201   0.02212   0.15295
     Eigenvalues ---    0.15757   0.16000   0.16000   0.16000   0.19207
     Eigenvalues ---    0.21378   0.22000   0.25000   0.34878   0.35166
     Eigenvalues ---    0.35253   0.35391   0.36392   0.38630   0.42250
     Eigenvalues ---    0.43630   0.46229   0.47098   0.47247   0.49233
 En-DIIS/RFO-DIIS/Sim-DIIS IScMMF=       -3 using points:     4    3    2
 RFO step:  Lambda=-1.72729017D-07.
 DidBck=F Rises=F RFO-DIIS coefs:    1.36227   -0.39535    0.03308
 Iteration  1 RMS(Cart)=  0.00013599 RMS(Int)=  0.00000007
 Iteration  2 RMS(Cart)=  0.00000002 RMS(Int)=  0.00000007
 Variable       Old X    -DE/DX   Delta X   Delta X   Delta X     New X
                                 (Linear)    (Quad)   (Total)
    R1        2.56411   0.00011   0.00036  -0.00004   0.00032   2.56443
    R2        2.61978  -0.00002  -0.00009   0.00000  -0.00009   2.61969
    R3        2.61978  -0.00002  -0.00009   0.00000  -0.00009   2.61969
    R4        2.63490   0.00003   0.00004   0.00003   0.00007   2.63497
    R5        2.04624   0.00002   0.00008  -0.00002   0.00006   2.04630
    R6        2.63529   0.00003   0.00001   0.00006   0.00007   2.63535
    R7        2.04831   0.00000   0.00005  -0.00006  -0.00001   2.04830
    R8        2.63529   0.00003   0.00001   0.00006   0.00007   2.63535
    R9        2.04734   0.00005   0.00023  -0.00007   0.00016   2.04750
   R10        2.63490   0.00003   0.00004   0.00003   0.00007   2.63497
   R11        2.04831   0.00000   0.00005  -0.00006  -0.00001   2.04830
   R12        2.04624   0.00002   0.00008  -0.00002   0.00006   2.04630
    A1        2.07180  -0.00000  -0.00000  -0.00002  -0.00002   2.07178
    A2        2.07180  -0.00000  -0.00000  -0.00002  -0.00002   2.07178
    A3        2.13958   0.00000   0.00000   0.00004   0.00004   2.13963
    A4        2.06515   0.00003   0.00012  -0.00002   0.00010   2.06525
    A5        2.09033   0.00000   0.00003   0.00004   0.00007   2.09040
    A6        2.12770  -0.00003  -0.00015  -0.00002  -0.00017   2.12753
    A7        2.10251  -0.00005  -0.00029   0.00001  -0.00028   2.10223
    A8        2.08383   0.00006   0.00037   0.00006   0.00043   2.08426
    A9        2.09685  -0.00001  -0.00009  -0.00007  -0.00015   2.09669
   A10        2.09146   0.00005   0.00034  -0.00002   0.00032   2.09178
   A11        2.09586  -0.00003  -0.00017   0.00001  -0.00016   2.09570
   A12        2.09586  -0.00003  -0.00017   0.00001  -0.00016   2.09570
   A13        2.10251  -0.00005  -0.00029   0.00001  -0.00028   2.10223
   A14        2.09685  -0.00001  -0.00009  -0.00007  -0.00015   2.09669
   A15        2.08383   0.00006   0.00037   0.00006   0.00043   2.08426
   A16        2.06515   0.00003   0.00012  -0.00002   0.00010   2.06525
   A17        2.09033   0.00000   0.00003   0.00004   0.00007   2.09040
   A18        2.12770  -0.00003  -0.00015  -0.00002  -0.00017   2.12753
    D1        3.14159   0.00000  -0.00000   0.00000   0.00000  -3.14159
    D2       -0.00000   0.00000  -0.00000   0.00000   0.00000   0.00000
    D3       -0.00000  -0.00000   0.00000  -0.00000  -0.00000  -0.00000
    D4        3.14159  -0.00000   0.00000  -0.00000  -0.00000   3.14159
    D5       -3.14159  -0.00000   0.00000  -0.00000  -0.00000   3.14159
    D6        0.00000  -0.00000  -0.00000  -0.00000  -0.00000  -0.00000
    D7        0.00000  -0.00000  -0.00000   0.00000  -0.00000   0.00000
    D8       -3.14159   0.00000  -0.00000   0.00000   0.00000  -3.14159
    D9       -0.00000   0.00000  -0.00000   0.00000   0.00000   0.00000
   D10        3.14159   0.00000   0.00000  -0.00000   0.00000   3.14159
   D11        3.14159   0.00000  -0.00000   0.00000   0.00000  -3.14159
   D12       -0.00000   0.00000   0.00000  -0.00000   0.00000   0.00000
   D13        0.00000  -0.00000   0.00000  -0.00000  -0.00000  -0.00000
   D14       -3.14159  -0.00000   0.00000  -0.00000  -0.00000   3.14159
   D15       -3.14159  -0.00000  -0.00000   0.00000  -0.00000  -3.14159
   D16        0.00000  -0.00000  -0.00000   0.00000  -0.00000   0.00000
   D17       -0.00000   0.00000  -0.00000   0.00000   0.00000  -0.00000
   D18        3.14159   0.00000   0.00000  -0.00000   0.00000   3.14159
   D19        3.14159   0.00000  -0.00000   0.00000   0.00000  -3.14159
   D20       -0.00000   0.00000   0.00000   0.00000   0.00000  -0.00000
   D21       -0.00000   0.00000   0.00000  -0.00000   0.00000   0.00000
   D22        3.14159  -0.00000   0.00000  -0.00000  -0.00000   3.14159
   D23        3.14159   0.00000  -0.00000   0.00000   0.00000  -3.14159
   D24       -0.00000   0.00000   0.00000  -0.00000  -0.00000  -0.00000
         Item               Value     Threshold  Converged?
 Maximum Force            0.000109     0.000450     YES
 RMS     Force            0.000027     0.000300     YES
 Maximum Displacement     0.000457     0.001800     YES
 RMS     Displacement     0.000136     0.001200     YES
 Predicted change in Energy=-8.590517D-08
 Optimization completed.
    -- Stationary point found.
                           ----------------------------
                           !   Optimized Parameters   !
                           ! (Angstroms and Degrees)  !
 --------------------------                            --------------------------
 ! Name  Definition              Value          Derivative Info.                !
 --------------------------------------------------------------------------------
 ! R1    R(1,2)                  1.3569         -DE/DX =    0.0001              !
 ! R2    R(2,3)                  1.3863         -DE/DX =    0.0                 !
 ! R3    R(2,7)                  1.3863         -DE/DX =    0.0                 !
 ! R4    R(3,4)                  1.3943         -DE/DX =    0.0                 !
 ! R5    R(3,8)                  1.0828         -DE/DX =    0.0                 !
 ! R6    R(4,5)                  1.3945         -DE/DX =    0.0                 !
 ! R7    R(4,9)                  1.0839         -DE/DX =    0.0                 !
 ! R8    R(5,6)                  1.3945         -DE/DX =    0.0                 !
 ! R9    R(5,10)                 1.0834         -DE/DX =    0.0                 !
 ! R10   R(6,7)                  1.3943         -DE/DX =    0.0                 !
 ! R11   R(6,11)                 1.0839         -DE/DX =    0.0                 !
 ! R12   R(7,12)                 1.0828         -DE/DX =    0.0                 !
 ! A1    A(1,2,3)              118.7055         -DE/DX =    0.0                 !
 ! A2    A(1,2,7)              118.7055         -DE/DX =    0.0                 !
 ! A3    A(3,2,7)              122.5891         -DE/DX =    0.0                 !
 ! A4    A(2,3,4)              118.3245         -DE/DX =    0.0                 !
 ! A5    A(2,3,8)              119.7672         -DE/DX =    0.0                 !
 ! A6    A(4,3,8)              121.9083         -DE/DX =    0.0                 !
 ! A7    A(3,4,5)              120.465          -DE/DX =   -0.0001              !
 ! A8    A(3,4,9)              119.3946         -DE/DX =    0.0001              !
 ! A9    A(5,4,9)              120.1404         -DE/DX =    0.0                 !
 ! A10   A(4,5,6)              119.832          -DE/DX =    0.0001              !
 ! A11   A(4,5,10)             120.084          -DE/DX =    0.0                 !
 ! A12   A(6,5,10)             120.084          -DE/DX =    0.0                 !
 ! A13   A(5,6,7)              120.465          -DE/DX =   -0.0001              !
 ! A14   A(5,6,11)             120.1404         -DE/DX =    0.0                 !
 ! A15   A(7,6,11)             119.3946         -DE/DX =    0.0001              !
 ! A16   A(2,7,6)              118.3245         -DE/DX =    0.0                 !
 ! A17   A(2,7,12)             119.7672         -DE/DX =    0.0                 !
 ! A18   A(6,7,12)             121.9083         -DE/DX =    0.0                 !
 ! D1    D(1,2,3,4)           -180.0            -DE/DX =    0.0                 !
 ! D2    D(1,2,3,8)              0.0            -DE/DX =    0.0                 !
 ! D3    D(7,2,3,4)              0.0            -DE/DX =    0.0                 !
 ! D4    D(7,2,3,8)            180.0            -DE/DX =    0.0                 !
 ! D5    D(1,2,7,6)            180.0            -DE/DX =    0.0                 !
 ! D6    D(1,2,7,12)             0.0            -DE/DX =    0.0                 !
 ! D7    D(3,2,7,6)              0.0            -DE/DX =    0.0                 !
 ! D8    D(3,2,7,12)          -180.0            -DE/DX =    0.0                 !
 ! D9    D(2,3,4,5)              0.0            -DE/DX =    0.0                 !
 ! D10   D(2,3,4,9)            180.0            -DE/DX =    0.0                 !
 ! D11   D(8,3,4,5)           -180.0            -DE/DX =    0.0                 !
 ! D12   D(8,3,4,9)              0.0            -DE/DX =    0.0                 !
 ! D13   D(3,4,5,6)              0.0            -DE/DX =    0.0                 !
 ! D14   D(3,4,5,10)           180.0            -DE/DX =    0.0                 !
 ! D15   D(9,4,5,6)           -180.0            -DE/DX =    0.0                 !
 ! D16   D(9,4,5,10)             0.0            -DE/DX =    0.0                 !
 ! D17   D(4,5,6,7)              0.0            -DE/DX =    0.0                 !
 ! D18   D(4,5,6,11)           180.0            -DE/DX =    0.0                 !
 ! D19   D(10,5,6,7)          -180.0            -DE/DX =    0.0                 !
 ! D20   D(10,5,6,11)            0.0            -DE/DX =    0.0                 !
 ! D21   D(5,6,7,2)              0.0            -DE/DX =    0.0                 !
 ! D22   D(5,6,7,12)           180.0            -DE/DX =    0.0                 !
 ! D23   D(11,6,7,2)          -180.0            -DE/DX =    0.0                 !
 ! D24   D(11,6,7,12)            0.0            -DE/DX =    0.0                 !
 --------------------------------------------------------------------------------
 GradGradGradGradGradGradGradGradGradGradGradGradGradGradGradGradGradGrad

                          Input orientation:                          
 ---------------------------------------------------------------------
 Center     Atomic      Atomic             Coordinates (Angstroms)
 Number     Number       Type             X           Y           Z
 ---------------------------------------------------------------------
      1          9           0        1.692644   -2.100813   -0.023521
      2          6           0        0.841375   -1.044267   -0.011692
      3          6           0       -0.523213   -1.288444   -0.025136
      4          6           0       -1.390746   -0.196937   -0.012834
      5          6           0       -0.889686    1.104227    0.012363
      6          6           0        0.488496    1.316758    0.025371
      7          6           0        1.370468    0.236880    0.013363
      8          1           0       -0.886700   -2.308247   -0.044684
      9          1           0       -2.461052   -0.367893   -0.023035
     10          1           0       -1.569391    1.947839    0.021809
     11          1           0        0.883393    2.325995    0.044958
     12          1           0        2.444413    0.374902    0.023038
 ---------------------------------------------------------------------
                    Distance matrix (angstroms):
                    1          2          3          4          5
     1  F    0.000000
     2  C    1.356867   0.000000
     3  C    2.360078   1.386328   0.000000
     4  C    3.623832   2.387538   1.394329   0.000000
     5  C    4.116066   2.759199   2.420864   1.394534   0.000000
     6  C    3.623832   2.387538   2.795208   2.413355   1.394534
     7  C    2.360078   1.386328   2.431897   2.795208   2.420864
     8  H    2.587758   2.141256   1.082821   2.170877   3.412952
     9  H    4.500690   3.371000   2.145376   1.083921   2.153505
    10  H    5.199473   3.842605   3.401503   2.152482   1.083407
    11  H    4.500690   3.371000   3.879126   3.397091   2.153505
    12  H    2.587758   2.141256   3.402329   3.877723   3.412952
                    6          7          8          9         10
     6  C    0.000000
     7  C    1.394329   0.000000
     8  H    3.877723   3.402330   0.000000
     9  H    3.397091   3.879126   2.498805   0.000000
    10  H    2.152482   3.401503   4.311004   2.481872   0.000000
    11  H    1.083921   2.145376   4.961598   4.294993   2.481872
    12  H    2.170877   1.082821   4.277872   4.961598   4.311004
                   11         12
    11  H    0.000000
    12  H    2.498805   0.000000
 Stoichiometry    C6H5F
 Framework group  C1[X(C6H5F)]
 Deg. of freedom    30
 Full point group                 C1      NOp   1
 Largest Abelian subgroup         C1      NOp   1
 Largest concise Abelian subgroup C1      NOp   1
                         Standard orientation:                         
 ---------------------------------------------------------------------
 Center     Atomic      Atomic             Coordinates (Angstroms)
 Number     Number       Type             X           Y           Z
 ---------------------------------------------------------------------
      1          9           0        2.282757    0.000000    0.000000
      2          6           0        0.925889    0.000000   -0.000000
      3          6           0        0.260026   -1.215949   -0.000000
      4          6           0       -1.134272   -1.206678   -0.000000
      5          6           0       -1.833309    0.000000    0.000000
      6          6           0       -1.134272    1.206678    0.000000
      7          6           0        0.260026    1.215949   -0.000000
      8          1           0        0.826239   -2.138936   -0.000000
      9          1           0       -1.672552   -2.147497   -0.000000
     10          1           0       -2.916716    0.000000    0.000001
     11          1           0       -1.672552    2.147497    0.000000
     12          1           0        0.826239    2.138936   -0.000000
 ---------------------------------------------------------------------
 Rotational constants (GHZ):           5.6817487           2.5625162           1.7660244

 **********************************************************************

            Population analysis using the SCF Density.

 **********************************************************************

 Orbital symmetries:
       Occupied  (A) (A) (A) (A) (A) (A) (A) (A) (A) (A) (A) (A)
                 (A) (A) (A) (A) (A) (A) (A) (A) (A) (A) (A) (A)
                 (A)
       Virtual   (A) (A) (A) (A) (A) (A) (A) (A) (A) (A) (A) (A)
                 (A) (A) (A) (A) (A) (A) (A) (A) (A) (A) (A) (A)
                 (A) (A) (A) (A) (A) (A) (A) (A) (A) (A) (A) (A)
                 (A) (A) (A) (A) (A) (A) (A) (A) (A) (A) (A) (A)
                 (A) (A) (A) (A) (A) (A) (A) (A) (A) (A) (A) (A)
                 (A) (A) (A) (A) (A) (A) (A) (A) (A) (A) (A) (A)
                 (A) (A) (A) (A) (A) (A) (A) (A) (A) (A) (A) (A)
                 (A) (A) (A) (A) (A) (A) (A) (A) (A) (A) (A) (A)
                 (A) (A) (A) (A) (A) (A) (A) (A) (A) (A) (A) (A)
                 (A) (A) (A) (A) (A) (A) (A) (A) (A) (A) (A) (A)
                 (A) (A) (A) (A) (A) (A) (A) (A) (A) (A) (A) (A)
                 (A) (A) (A) (A) (A) (A) (A) (A) (A) (A) (A) (A)
                 (A) (A) (A) (A) (A) (A) (A) (A) (A) (A) (A) (A)
                 (A) (A) (A) (A) (A) (A) (A) (A)
 The electronic state is 1-A.
 Alpha  occ. eigenvalues --  -24.69199 -10.26685 -10.19317 -10.19316 -10.19038
 Alpha  occ. eigenvalues --  -10.19037 -10.18642  -1.23032  -0.87508  -0.76946
 Alpha  occ. eigenvalues --   -0.76022  -0.63520  -0.62324  -0.55646  -0.50748
 Alpha  occ. eigenvalues --   -0.49868  -0.47359  -0.45821  -0.44453  -0.41017
 Alpha  occ. eigenvalues --   -0.38436  -0.37461  -0.35993  -0.27406  -0.26028
 Alpha virt. eigenvalues --   -0.03075  -0.01920  -0.00828   0.00733   0.01312
 Alpha virt. eigenvalues --    0.03131   0.03335   0.05665   0.05799   0.07797
 Alpha virt. eigenvalues --    0.08524   0.08827   0.09779   0.10798   0.11662
 Alpha virt. eigenvalues --    0.11940   0.12319   0.12757   0.12831   0.13292
 Alpha virt. eigenvalues --    0.13671   0.13781   0.13857   0.15150   0.15234
 Alpha virt. eigenvalues --    0.16945   0.19178   0.19850   0.19859   0.21323
 Alpha virt. eigenvalues --    0.21600   0.24523   0.26117   0.26765   0.27285
 Alpha virt. eigenvalues --    0.27744   0.30059   0.30141   0.31126   0.33285
 Alpha virt. eigenvalues --    0.34478   0.34484   0.36759   0.39003   0.39388
 Alpha virt. eigenvalues --    0.43576   0.47605   0.49230   0.51612   0.52699
 Alpha virt. eigenvalues --    0.53912   0.54951   0.56223   0.56377   0.56655
 Alpha virt. eigenvalues --    0.59196   0.59564   0.60757   0.61102   0.66838
 Alpha virt. eigenvalues --    0.66845   0.71619   0.73202   0.75784   0.77574
 Alpha virt. eigenvalues --    0.78628   0.83503   0.84084   0.84966   0.86525
 Alpha virt. eigenvalues --    0.87247   0.88306   0.91066   0.93045   0.96444
 Alpha virt. eigenvalues --    0.99187   1.01231   1.01287   1.06234   1.09123
 Alpha virt. eigenvalues --    1.12096   1.17737   1.27817   1.33756   1.42133
 Alpha virt. eigenvalues --    1.43707   1.44387   1.49422   1.51417   1.52808
 Alpha virt. eigenvalues --    1.55346   1.55445   1.55583   1.60339   1.63082
 Alpha virt. eigenvalues --    1.63781   1.65883   1.72685   1.73187   1.75972
 Alpha virt. eigenvalues --    1.81462   1.85780   1.90587   1.90944   1.92401
 Alpha virt. eigenvalues --    1.94223   1.94325   1.98042   2.00056   2.02244
 Alpha virt. eigenvalues --    2.04045   2.07010   2.07573   2.26912   2.28546
 Alpha virt. eigenvalues --    2.32457   2.39637   2.41193   2.42806   2.48691
 Alpha virt. eigenvalues --    2.60392   2.62424   2.63748   2.68937   2.70355
 Alpha virt. eigenvalues --    2.72174   2.73719   2.75048   2.76006   2.77767
 Alpha virt. eigenvalues --    2.82652   2.82925   2.86165   2.87343   2.93483
 Alpha virt. eigenvalues --    3.06184   3.10739   3.15280   3.32414   3.33880
 Alpha virt. eigenvalues --    3.46828   3.48249   3.61548   3.71035   3.78655
 Alpha virt. eigenvalues --    3.84874   3.97990   3.98234   4.03718   4.11013
 Alpha virt. eigenvalues --    4.14440   4.14558   4.82918   4.86653   6.31206
 Alpha virt. eigenvalues --    6.44161   6.73303  23.55528  23.91293  23.96676
 Alpha virt. eigenvalues --   24.07115  24.08554  24.18590  66.80071
          Condensed to atoms (all electrons):
               1          2          3          4          5          6
     1  F    9.152885   0.702549  -0.359748   0.067765  -0.051899   0.067765
     2  C    0.702549   7.793895  -1.338507   1.041804  -1.144631   1.041804
     3  C   -0.359748  -1.338507   8.454619  -0.933799   0.960243  -0.605185
     4  C    0.067765   1.041804  -0.933799   6.060773  -0.468209   0.686581
     5  C   -0.051899  -1.144631   0.960243  -0.468209   6.119309  -0.468209
     6  C    0.067765   1.041804  -0.605185   0.686581  -0.468209   6.060773
     7  C   -0.359748  -1.338506  -0.791294  -0.605185   0.960242  -0.933799
     8  H   -0.025274  -0.144257   0.538215  -0.038126   0.027198   0.010243
     9  H    0.001128   0.049719  -0.116994   0.432768  -0.080587   0.007340
    10  H   -0.000224  -0.000413   0.005604  -0.042715   0.398393  -0.042715
    11  H    0.001128   0.049719   0.018117   0.007340  -0.080587   0.432768
    12  H   -0.025274  -0.144257  -0.078074   0.010243   0.027198  -0.038126
               7          8          9         10         11         12
     1  F   -0.359748  -0.025274   0.001128  -0.000224   0.001128  -0.025274
     2  C   -1.338506  -0.144257   0.049719  -0.000413   0.049719  -0.144257
     3  C   -0.791294   0.538215  -0.116994   0.005604   0.018117  -0.078074
     4  C   -0.605185  -0.038126   0.432768  -0.042715   0.007340   0.010243
     5  C    0.960242   0.027198  -0.080587   0.398393  -0.080587   0.027198
     6  C   -0.933799   0.010243   0.007340  -0.042715   0.432768  -0.038126
     7  C    8.454618  -0.078074   0.018117   0.005604  -0.116994   0.538215
     8  H   -0.078074   0.529344  -0.013041   0.000419   0.001436  -0.002408
     9  H    0.018117  -0.013041   0.540092  -0.008042  -0.000750   0.001436
    10  H    0.005604   0.000419  -0.008042   0.534684  -0.008042   0.000419
    11  H   -0.116994   0.001436  -0.000750  -0.008042   0.540092  -0.013041
    12  H    0.538215  -0.002408   0.001436   0.000419  -0.013041   0.529344
 Mulliken charges:
               1
     1  F   -0.171050
     2  C   -0.568920
     3  C    0.246804
     4  C   -0.219240
     5  C   -0.198462
     6  C   -0.219240
     7  C    0.246804
     8  H    0.194324
     9  H    0.168814
    10  H    0.157029
    11  H    0.168814
    12  H    0.194324
 Sum of Mulliken charges =  -0.00000
 Mulliken charges with hydrogens summed into heavy atoms:
               1
     1  F   -0.171050
     2  C   -0.568920
     3  C    0.441128
     4  C   -0.050427
     5  C   -0.041433
     6  C   -0.050427
     7  C    0.441128
 Electronic spatial extent (au):  <R**2>=            651.4388
 Charge=             -0.0000 electrons
 Dipole moment (field-independent basis, Debye):
    X=             -1.7511    Y=              0.0000    Z=              0.0000  Tot=              1.7511
 Quadrupole moment (field-independent basis, Debye-Ang):
   XX=            -41.3820   YY=            -34.5810   ZZ=            -43.6675
   XY=              0.0000   XZ=             -0.0000   YZ=              0.0000
 Traceless Quadrupole moment (field-independent basis, Debye-Ang):
   XX=             -1.5051   YY=              5.2958   ZZ=             -3.7907
   XY=              0.0000   XZ=             -0.0000   YZ=              0.0000
 Octapole moment (field-independent basis, Debye-Ang**2):
  XXX=             -3.1171  YYY=              0.0000  ZZZ=              0.0000  XYY=              4.8013
  XXY=             -0.0000  XXZ=              0.0000  XZZ=              8.8874  YZZ=             -0.0000
  YYZ=             -0.0000  XYZ=             -0.0000
 Hexadecapole moment (field-independent basis, Debye-Ang**3):
 XXXX=           -485.2747 YYYY=           -268.4979 ZZZZ=            -50.0406 XXXY=              0.0000
 XXXZ=             -0.0000 YYYX=             -0.0000 YYYZ=              0.0000 ZZZX=              0.0000
 ZZZY=              0.0000 XXYY=           -118.4041 XXZZ=            -94.5742 YYZZ=            -65.0864
 XXYZ=              0.0000 YYXZ=             -0.0000 ZZXY=             -0.0000
 N-N= 2.691981235312D+02 E-N=-1.314086732684D+03  KE= 3.302649754926D+02
 ******************************Gaussian NBO Version 3.1******************************
             N A T U R A L   A T O M I C   O R B I T A L   A N D
          N A T U R A L   B O N D   O R B I T A L   A N A L Y S I S
 ******************************Gaussian NBO Version 3.1******************************
       /RESON  / : Allow strongly delocalized NBO set

 Analyzing the SCF density

 Job title: Fc1ccccc1                                                       

 Storage needed:    108039 in NPA,    143617 in NBO (1258290384 available)
 GSVD:  LWork=        7881 too small for GESVD, short by       46755 words or       46755 for optimal perf.


 NATURAL POPULATIONS:  Natural atomic orbital occupancies 
                                                          
   NAO  Atom  No  lang   Type(AO)    Occupancy      Energy
 ----------------------------------------------------------
     1    F    1  S      Cor( 1S)     1.99993     -24.43066
     2    F    1  S      Val( 2S)     1.83078      -1.27310
     3    F    1  S      Ryd( 3S)     0.00031       0.93332
     4    F    1  S      Ryd( 4S)     0.00008       1.84042
     5    F    1  S      Ryd( 5S)     0.00000      66.52140
     6    F    1  px     Val( 2p)     1.61756      -0.43109
     7    F    1  px     Ryd( 3p)     0.00067       0.49141
     8    F    1  px     Ryd( 4p)     0.00009       1.28607
     9    F    1  px     Ryd( 5p)     0.00005       6.41703
    10    F    1  py     Val( 2p)     1.97232      -0.42034
    11    F    1  py     Ryd( 3p)     0.00250       0.53405
    12    F    1  py     Ryd( 4p)     0.00005       1.36752
    13    F    1  py     Ryd( 5p)     0.00000       6.32875
    14    F    1  pz     Val( 2p)     1.92790      -0.41960
    15    F    1  pz     Ryd( 3p)     0.00130       0.44122
    16    F    1  pz     Ryd( 4p)     0.00006       1.19165
    17    F    1  pz     Ryd( 5p)     0.00000       6.27166
    18    F    1  dxy    Ryd( 3d)     0.00056       3.94383
    19    F    1  dxz    Ryd( 3d)     0.00053       3.86574
    20    F    1  dyz    Ryd( 3d)     0.00000       3.77329
    21    F    1  dx2y2  Ryd( 3d)     0.00098       4.20083
    22    F    1  dz2    Ryd( 3d)     0.00029       3.91577
 
    23    C    2  S      Cor( 1S)     1.99847     -10.14119
    24    C    2  S      Val( 2S)     0.83899      -0.15871
    25    C    2  S      Ryd( 4S)     0.00125       1.01295
    26    C    2  S      Ryd( 3S)     0.00006       0.74471
    27    C    2  S      Ryd( 5S)     0.00002      22.42533
    28    C    2  px     Val( 2p)     0.64291      -0.06165
    29    C    2  px     Ryd( 4p)     0.01045       1.09837
    30    C    2  px     Ryd( 3p)     0.00047       0.49107
    31    C    2  px     Ryd( 5p)     0.00021       2.74879
    32    C    2  py     Val( 2p)     1.08784      -0.07515
    33    C    2  py     Ryd( 4p)     0.00394       1.29750
    34    C    2  py     Ryd( 3p)     0.00057       0.43728
    35    C    2  py     Ryd( 5p)     0.00022       2.64224
    36    C    2  pz     Val( 2p)     0.99479      -0.13641
    37    C    2  pz     Ryd( 4p)     0.00118       0.67398
    38    C    2  pz     Ryd( 3p)     0.00047       0.31944
    39    C    2  pz     Ryd( 5p)     0.00006       2.52513
    40    C    2  dxy    Ryd( 3d)     0.00191       2.60505
    41    C    2  dxz    Ryd( 3d)     0.00222       1.54564
    42    C    2  dyz    Ryd( 3d)     0.00067       1.64218
    43    C    2  dx2y2  Ryd( 3d)     0.00229       2.48348
    44    C    2  dz2    Ryd( 3d)     0.00062       2.02794
 
    45    C    3  S      Cor( 1S)     1.99904     -10.04409
    46    C    3  S      Val( 2S)     0.96251      -0.18059
    47    C    3  S      Ryd( 3S)     0.00157       0.78523
    48    C    3  S      Ryd( 4S)     0.00010       0.79673
    49    C    3  S      Ryd( 5S)     0.00001      23.04994
    50    C    3  px     Val( 2p)     1.10623      -0.06930
    51    C    3  px     Ryd( 4p)     0.00572       0.93220
    52    C    3  px     Ryd( 3p)     0.00025       0.56460
    53    C    3  px     Ryd( 5p)     0.00010       2.94177
    54    C    3  py     Val( 2p)     1.14868      -0.07651
    55    C    3  py     Ryd( 4p)     0.00468       1.05934
    56    C    3  py     Ryd( 3p)     0.00022       0.54841
    57    C    3  py     Ryd( 5p)     0.00010       2.89014
    58    C    3  pz     Val( 2p)     1.03317      -0.12565
    59    C    3  pz     Ryd( 4p)     0.00134       0.52068
    60    C    3  pz     Ryd( 3p)     0.00032       0.33985
    61    C    3  pz     Ryd( 5p)     0.00002       2.62341
    62    C    3  dxy    Ryd( 3d)     0.00085       2.53226
    63    C    3  dxz    Ryd( 3d)     0.00046       1.64331
    64    C    3  dyz    Ryd( 3d)     0.00058       1.62775
    65    C    3  dx2y2  Ryd( 3d)     0.00059       2.58793
    66    C    3  dz2    Ryd( 3d)     0.00042       2.10399
 
    67    C    4  S      Cor( 1S)     1.99917     -10.04759
    68    C    4  S      Val( 2S)     0.95373      -0.17739
    69    C    4  S      Ryd( 3S)     0.00143       0.79607
    70    C    4  S      Ryd( 4S)     0.00007       1.33007
    71    C    4  S      Ryd( 5S)     0.00001      22.45699
    72    C    4  px     Val( 2p)     1.07778      -0.05761
    73    C    4  px     Ryd( 4p)     0.00486       0.86611
    74    C    4  px     Ryd( 3p)     0.00036       0.38858
    75    C    4  px     Ryd( 5p)     0.00013       3.07900
    76    C    4  py     Val( 2p)     1.14893      -0.06130
    77    C    4  py     Ryd( 4p)     0.00620       0.98725
    78    C    4  py     Ryd( 3p)     0.00021       0.44052
    79    C    4  py     Ryd( 5p)     0.00007       3.10521
    80    C    4  pz     Val( 2p)     0.98765      -0.12105
    81    C    4  pz     Ryd( 4p)     0.00089       0.51488
    82    C    4  pz     Ryd( 3p)     0.00032       0.29311
    83    C    4  pz     Ryd( 5p)     0.00001       2.66802
    84    C    4  dxy    Ryd( 3d)     0.00075       2.49963
    85    C    4  dxz    Ryd( 3d)     0.00051       1.64630
    86    C    4  dyz    Ryd( 3d)     0.00041       1.61410
    87    C    4  dx2y2  Ryd( 3d)     0.00069       2.55468
    88    C    4  dz2    Ryd( 3d)     0.00041       2.04467
 
    89    C    5  S      Cor( 1S)     1.99915     -10.04030
    90    C    5  S      Val( 2S)     0.95152      -0.17187
    91    C    5  S      Ryd( 3S)     0.00141       0.77742
    92    C    5  S      Ryd( 4S)     0.00005       1.29634
    93    C    5  S      Ryd( 5S)     0.00000      22.51096
    94    C    5  px     Val( 2p)     1.17428      -0.05960
    95    C    5  px     Ryd( 4p)     0.00659       1.05197
    96    C    5  px     Ryd( 3p)     0.00016       0.51982
    97    C    5  px     Ryd( 5p)     0.00005       3.05709
    98    C    5  py     Val( 2p)     1.06116      -0.05752
    99    C    5  py     Ryd( 4p)     0.00462       0.76498
   100    C    5  py     Ryd( 3p)     0.00049       0.38093
   101    C    5  py     Ryd( 5p)     0.00014       3.06123
   102    C    5  pz     Val( 2p)     1.01625      -0.11864
   103    C    5  pz     Ryd( 4p)     0.00116       0.50462
   104    C    5  pz     Ryd( 3p)     0.00026       0.29758
   105    C    5  pz     Ryd( 5p)     0.00001       2.67810
   106    C    5  dxy    Ryd( 3d)     0.00066       2.58314
   107    C    5  dxz    Ryd( 3d)     0.00039       1.60212
   108    C    5  dyz    Ryd( 3d)     0.00046       1.66470
   109    C    5  dx2y2  Ryd( 3d)     0.00083       2.47865
   110    C    5  dz2    Ryd( 3d)     0.00040       2.06338
 
   111    C    6  S      Cor( 1S)     1.99917     -10.04759
   112    C    6  S      Val( 2S)     0.95373      -0.17739
   113    C    6  S      Ryd( 3S)     0.00143       0.79607
   114    C    6  S      Ryd( 4S)     0.00007       1.33006
   115    C    6  S      Ryd( 5S)     0.00001      22.45699
   116    C    6  px     Val( 2p)     1.07778      -0.05761
   117    C    6  px     Ryd( 4p)     0.00486       0.86611
   118    C    6  px     Ryd( 3p)     0.00036       0.38858
   119    C    6  px     Ryd( 5p)     0.00013       3.07900
   120    C    6  py     Val( 2p)     1.14893      -0.06130
   121    C    6  py     Ryd( 4p)     0.00620       0.98725
   122    C    6  py     Ryd( 3p)     0.00021       0.44052
   123    C    6  py     Ryd( 5p)     0.00007       3.10521
   124    C    6  pz     Val( 2p)     0.98765      -0.12105
   125    C    6  pz     Ryd( 4p)     0.00089       0.51488
   126    C    6  pz     Ryd( 3p)     0.00032       0.29311
   127    C    6  pz     Ryd( 5p)     0.00001       2.66802
   128    C    6  dxy    Ryd( 3d)     0.00075       2.49963
   129    C    6  dxz    Ryd( 3d)     0.00051       1.64630
   130    C    6  dyz    Ryd( 3d)     0.00041       1.61410
   131    C    6  dx2y2  Ryd( 3d)     0.00069       2.55468
   132    C    6  dz2    Ryd( 3d)     0.00041       2.04467
 
   133    C    7  S      Cor( 1S)     1.99904     -10.04409
   134    C    7  S      Val( 2S)     0.96251      -0.18059
   135    C    7  S      Ryd( 3S)     0.00157       0.78523
   136    C    7  S      Ryd( 4S)     0.00010       0.79673
   137    C    7  S      Ryd( 5S)     0.00001      23.04994
   138    C    7  px     Val( 2p)     1.10623      -0.06930
   139    C    7  px     Ryd( 4p)     0.00572       0.93220
   140    C    7  px     Ryd( 3p)     0.00025       0.56460
   141    C    7  px     Ryd( 5p)     0.00010       2.94177
   142    C    7  py     Val( 2p)     1.14868      -0.07651
   143    C    7  py     Ryd( 4p)     0.00468       1.05934
   144    C    7  py     Ryd( 3p)     0.00022       0.54841
   145    C    7  py     Ryd( 5p)     0.00010       2.89014
   146    C    7  pz     Val( 2p)     1.03317      -0.12565
   147    C    7  pz     Ryd( 4p)     0.00134       0.52068
   148    C    7  pz     Ryd( 3p)     0.00032       0.33985
   149    C    7  pz     Ryd( 5p)     0.00002       2.62341
   150    C    7  dxy    Ryd( 3d)     0.00085       2.53226
   151    C    7  dxz    Ryd( 3d)     0.00046       1.64331
   152    C    7  dyz    Ryd( 3d)     0.00058       1.62775
   153    C    7  dx2y2  Ryd( 3d)     0.00059       2.58793
   154    C    7  dz2    Ryd( 3d)     0.00042       2.10399
 
   155    H    8  S      Val( 1S)     0.77565       0.04034
   156    H    8  S      Ryd( 3S)     0.00085       0.69908
   157    H    8  S      Ryd( 4S)     0.00018       2.00822
   158    H    8  S      Ryd( 2S)     0.00008       0.26126
   159    H    8  px     Ryd( 2p)     0.00020       2.17887
   160    H    8  py     Ryd( 2p)     0.00033       2.51705
   161    H    8  pz     Ryd( 2p)     0.00016       1.59176
 
   162    H    9  S      Val( 1S)     0.79054       0.04392
   163    H    9  S      Ryd( 3S)     0.00073       0.60355
   164    H    9  S      Ryd( 4S)     0.00019       2.10011
   165    H    9  S      Ryd( 2S)     0.00002       0.23712
   166    H    9  px     Ryd( 2p)     0.00020       2.13933
   167    H    9  py     Ryd( 2p)     0.00038       2.50918
   168    H    9  pz     Ryd( 2p)     0.00019       1.58371
 
   169    H   10  S      Val( 1S)     0.79012       0.04629
   170    H   10  S      Ryd( 3S)     0.00073       0.67989
   171    H   10  S      Ryd( 4S)     0.00019       2.03000
   172    H   10  S      Ryd( 2S)     0.00002       0.24048
   173    H   10  px     Ryd( 2p)     0.00045       2.69899
   174    H   10  py     Ryd( 2p)     0.00012       1.96438
   175    H   10  pz     Ryd( 2p)     0.00021       1.58760
 
   176    H   11  S      Val( 1S)     0.79054       0.04392
   177    H   11  S      Ryd( 3S)     0.00073       0.60355
   178    H   11  S      Ryd( 4S)     0.00019       2.10011
   179    H   11  S      Ryd( 2S)     0.00002       0.23712
   180    H   11  px     Ryd( 2p)     0.00020       2.13933
   181    H   11  py     Ryd( 2p)     0.00038       2.50918
   182    H   11  pz     Ryd( 2p)     0.00019       1.58371
 
   183    H   12  S      Val( 1S)     0.77565       0.04034
   184    H   12  S      Ryd( 3S)     0.00085       0.69908
   185    H   12  S      Ryd( 4S)     0.00018       2.00822
   186    H   12  S      Ryd( 2S)     0.00008       0.26126
   187    H   12  px     Ryd( 2p)     0.00020       2.17887
   188    H   12  py     Ryd( 2p)     0.00033       2.51705
   189    H   12  pz     Ryd( 2p)     0.00016       1.59176

 WARNING:  1 low occupancy (<1.9990e) core orbital  found on  C    2

 WARNING:  Population inversion found on atom  C    2
           Population inversion found on atom  C    3
           Population inversion found on atom  C    4
           Population inversion found on atom  C    5
           Population inversion found on atom  C    6
           Population inversion found on atom  C    7
           Population inversion found on atom  H    8
           Population inversion found on atom  H    9
           Population inversion found on atom  H   10
           Population inversion found on atom  H   11
           Population inversion found on atom  H   12


 Summary of Natural Population Analysis:                  
                                                          
                                       Natural Population 
                Natural  -----------------------------------------------
    Atom  No    Charge         Core      Valence    Rydberg      Total
 -----------------------------------------------------------------------
      F    1   -0.35597      1.99993     7.34856    0.00749     9.35597
      C    2    0.41037      1.99847     3.56453    0.02664     5.58963
      C    3   -0.26696      1.99904     4.25059    0.01733     6.26696
      C    4   -0.18459      1.99917     4.16809    0.01733     6.18459
      C    5   -0.22007      1.99915     4.20321    0.01771     6.22007
      C    6   -0.18459      1.99917     4.16809    0.01733     6.18459
      C    7   -0.26696      1.99904     4.25059    0.01733     6.26696
      H    8    0.22255      0.00000     0.77565    0.00180     0.77745
      H    9    0.20775      0.00000     0.79054    0.00171     0.79225
      H   10    0.20817      0.00000     0.79012    0.00171     0.79183
      H   11    0.20775      0.00000     0.79054    0.00171     0.79225
      H   12    0.22255      0.00000     0.77565    0.00180     0.77745
 =======================================================================
   * Total *   -0.00000     13.99397    35.87616    0.12987    50.00000

                                 Natural Population      
 --------------------------------------------------------
   Core                      13.99397 ( 99.9569% of  14)
   Valence                   35.87616 ( 99.6560% of  36)
   Natural Minimal Basis     49.87013 ( 99.7403% of  50)
   Natural Rydberg Basis      0.12987 (  0.2597% of  50)
 --------------------------------------------------------

    Atom  No          Natural Electron Configuration
 ----------------------------------------------------------------------------
      F    1      [core]2S( 1.83)2p( 5.52)
      C    2      [core]2S( 0.84)2p( 2.73)3d( 0.01)4p( 0.02)
      C    3      [core]2S( 0.96)2p( 3.29)4p( 0.01)
      C    4      [core]2S( 0.95)2p( 3.21)4p( 0.01)
      C    5      [core]2S( 0.95)2p( 3.25)4p( 0.01)
      C    6      [core]2S( 0.95)2p( 3.21)4p( 0.01)
      C    7      [core]2S( 0.96)2p( 3.29)4p( 0.01)
      H    8            1S( 0.78)
      H    9            1S( 0.79)
      H   10            1S( 0.79)
      H   11            1S( 0.79)
      H   12            1S( 0.78)


 NATURAL BOND ORBITAL ANALYSIS:

                       Occupancies       Lewis Structure    Low   High
           Occ.    -------------------  -----------------   occ   occ
  Cycle   Thresh.   Lewis   Non-Lewis     CR  BD  3C  LP    (L)   (NL)   Dev
 =============================================================================
   1(1)    1.90    46.73230   3.26770      7  12   0   6     3      3    0.44
   2(2)    1.90    46.73230   3.26770      7  12   0   6     3      3    0.44
   3(1)    1.80    46.73230   3.26770      7  12   0   6     3      3    0.44
   4(2)    1.80    46.73230   3.26770      7  12   0   6     3      3    0.44
   5(1)    1.70    46.73230   3.26770      7  12   0   6     3      3    0.44
   6(2)    1.70    46.73230   3.26770      7  12   0   6     3      3    0.44
   7(1)    1.60    48.65267   1.34733      7  15   0   3     0      3    0.44
   8(2)    1.60    48.65267   1.34733      7  15   0   3     0      3    0.44
   9(1)    1.50    48.65267   1.34733      7  15   0   3     0      3    0.44
  10(2)    1.50    48.65267   1.34733      7  15   0   3     0      3    0.44
  11(1)    1.60    48.65267   1.34733      7  15   0   3     0      3    0.44
 -----------------------------------------------------------------------------

 Structure accepted: RESONANCE keyword permits strongly delocalized structure

 WARNING:  1 low occupancy (<1.9990e) core orbital  found on  C    2

 --------------------------------------------------------
   Core                     13.99399 ( 99.957% of  14)
   Valence Lewis            34.65868 ( 96.274% of  36)
  ==================       ============================
   Total Lewis              48.65267 ( 97.305% of  50)
  -----------------------------------------------------
   Valence non-Lewis         1.26424 (  2.528% of  50)
   Rydberg non-Lewis         0.08309 (  0.166% of  50)
  ==================       ============================
   Total non-Lewis           1.34733 (  2.695% of  50)
 --------------------------------------------------------


       (Occupancy)   Bond orbital/ Coefficients/ Hybrids
 ---------------------------------------------------------------------------------
     1. (1.99574) BD ( 1) F   1 - C   2  
                ( 72.73%)   0.8528* F   1 s( 30.04%)p 2.33( 69.88%)d 0.00(  0.08%)
                                           -0.0000 -0.5480 -0.0099 -0.0021  0.0000
                                            0.8359 -0.0127 -0.0032 -0.0026  0.0000
                                           -0.0000  0.0000 -0.0000  0.0000 -0.0000
                                           -0.0000 -0.0000 -0.0000 -0.0000 -0.0000
                                           -0.0246  0.0133
                ( 27.27%)   0.5222* C   2 s( 21.72%)p 3.59( 77.94%)d 0.02(  0.34%)
                                            0.0001 -0.4656  0.0208 -0.0025  0.0028
                                           -0.8814  0.0447  0.0171  0.0153  0.0000
                                           -0.0000  0.0000  0.0000 -0.0000  0.0000
                                            0.0000  0.0000  0.0000 -0.0000 -0.0000
                                           -0.0524  0.0260
     2. (1.98066) BD ( 1) C   2 - C   3  
                ( 49.98%)   0.7070* C   2 s( 39.02%)p 1.56( 60.95%)d 0.00(  0.04%)
                                            0.0000  0.6246  0.0045 -0.0007  0.0006
                                           -0.3302 -0.0211  0.0111 -0.0033 -0.7068
                                            0.0142  0.0054 -0.0008  0.0000 -0.0000
                                            0.0000 -0.0000  0.0127 -0.0000 -0.0000
                                           -0.0123 -0.0076
                ( 50.02%)   0.7073* C   3 s( 34.02%)p 1.94( 65.92%)d 0.00(  0.06%)
                                            0.0000  0.5832 -0.0056  0.0031  0.0009
                                            0.4190 -0.0405  0.0015  0.0006  0.6942
                                           -0.0003 -0.0102  0.0024 -0.0000  0.0000
                                            0.0000  0.0000  0.0161 -0.0000 -0.0000
                                           -0.0110 -0.0131
     3. (1.98066) BD ( 1) C   2 - C   7  
                ( 49.98%)   0.7070* C   2 s( 39.02%)p 1.56( 60.95%)d 0.00(  0.04%)
                                            0.0000  0.6246  0.0045 -0.0007  0.0006
                                           -0.3302 -0.0211  0.0111 -0.0033  0.7068
                                           -0.0142 -0.0054  0.0008 -0.0000  0.0000
                                            0.0000 -0.0000 -0.0127 -0.0000 -0.0000
                                           -0.0123 -0.0076
                ( 50.02%)   0.7073* C   7 s( 34.02%)p 1.94( 65.92%)d 0.00(  0.06%)
                                            0.0000  0.5832 -0.0056  0.0031  0.0009
                                            0.4190 -0.0405  0.0015  0.0006 -0.6942
                                            0.0003  0.0102 -0.0024 -0.0000  0.0000
                                           -0.0000  0.0000 -0.0161 -0.0000 -0.0000
                                           -0.0110 -0.0131
     4. (1.65975) BD ( 2) C   2 - C   7  
                ( 48.51%)   0.6965* C   2 s(  0.00%)p 1.00( 99.95%)d 0.00(  0.05%)
                                           -0.0000 -0.0000 -0.0000  0.0000 -0.0000
                                           -0.0000 -0.0000  0.0000  0.0000  0.0000
                                           -0.0000 -0.0000 -0.0000  0.9992  0.0256
                                            0.0196  0.0069 -0.0000 -0.0188  0.0115
                                           -0.0000 -0.0000
                ( 51.49%)   0.7176* C   7 s(  0.00%)p 1.00( 99.94%)d 0.00(  0.06%)
                                           -0.0000  0.0000 -0.0000 -0.0000  0.0000
                                            0.0000 -0.0000  0.0000  0.0000  0.0000
                                            0.0000  0.0000 -0.0000  0.9993  0.0217
                                            0.0164 -0.0015  0.0000 -0.0014 -0.0242
                                           -0.0000  0.0000
     5. (1.97453) BD ( 1) C   3 - C   4  
                ( 50.55%)   0.7110* C   3 s( 36.39%)p 1.75( 63.57%)d 0.00(  0.04%)
                                           -0.0002  0.6028 -0.0215 -0.0016 -0.0004
                                           -0.7959  0.0183  0.0087 -0.0012 -0.0251
                                            0.0344 -0.0054 -0.0009 -0.0000 -0.0000
                                           -0.0000  0.0000 -0.0048  0.0000 -0.0000
                                            0.0159 -0.0118
                ( 49.45%)   0.7032* C   4 s( 35.28%)p 1.83( 64.68%)d 0.00(  0.04%)
                                            0.0001  0.5938 -0.0137 -0.0015 -0.0001
                                            0.8023 -0.0210 -0.0122  0.0011 -0.0286
                                            0.0406 -0.0045  0.0007 -0.0000 -0.0000
                                           -0.0000  0.0000  0.0025 -0.0000  0.0000
                                            0.0166 -0.0126
     6. (1.67921) BD ( 2) C   3 - C   4  
                ( 51.72%)   0.7191* C   3 s(  0.00%)p 1.00( 99.95%)d 0.00(  0.05%)
                                            0.0000  0.0000 -0.0000 -0.0000  0.0000
                                           -0.0000 -0.0000  0.0000 -0.0000 -0.0000
                                            0.0000 -0.0000  0.0000  0.9995  0.0191
                                            0.0149 -0.0026  0.0000 -0.0167  0.0143
                                           -0.0000 -0.0000
                ( 48.28%)   0.6949* C   4 s(  0.00%)p 1.00( 99.95%)d 0.00(  0.05%)
                                           -0.0000  0.0000 -0.0000  0.0000 -0.0000
                                            0.0000 -0.0000  0.0000 -0.0000 -0.0000
                                           -0.0000 -0.0000 -0.0000  0.9994  0.0193
                                            0.0174 -0.0015  0.0000  0.0187  0.0111
                                            0.0000  0.0000
     7. (1.97733) BD ( 1) C   3 - H   8  
                ( 61.13%)   0.7819* C   3 s( 29.61%)p 2.38( 70.36%)d 0.00(  0.04%)
                                            0.0003 -0.5437 -0.0219  0.0016  0.0005
                                           -0.4338 -0.0090  0.0011  0.0013  0.7178
                                            0.0083 -0.0019  0.0009  0.0000  0.0000
                                            0.0000  0.0000  0.0159  0.0000 -0.0000
                                            0.0063  0.0093
                ( 38.87%)   0.6234* H   8 s( 99.95%)p 0.00(  0.05%)
                                           -0.9998 -0.0013 -0.0010 -0.0002  0.0118
                                           -0.0183 -0.0000
     8. (1.97996) BD ( 1) C   4 - C   5  
                ( 50.13%)   0.7080* C   4 s( 36.18%)p 1.76( 63.78%)d 0.00(  0.04%)
                                            0.0000  0.6013 -0.0146  0.0002 -0.0001
                                           -0.4201  0.0425  0.0016 -0.0006  0.6778
                                            0.0021 -0.0102  0.0001  0.0000 -0.0000
                                           -0.0000  0.0000 -0.0132 -0.0000  0.0000
                                           -0.0105 -0.0120
                ( 49.87%)   0.7062* C   5 s( 35.59%)p 1.81( 64.36%)d 0.00(  0.05%)
                                            0.0000  0.5964 -0.0140 -0.0004 -0.0000
                                            0.3786  0.0227 -0.0086  0.0002 -0.7059
                                            0.0381  0.0064 -0.0008 -0.0000 -0.0000
                                            0.0000  0.0000 -0.0162 -0.0000  0.0000
                                           -0.0063 -0.0123
     9. (1.98025) BD ( 1) C   4 - H   9  
                ( 60.46%)   0.7776* C   4 s( 28.55%)p 2.50( 71.40%)d 0.00(  0.04%)
                                            0.0004 -0.5338 -0.0241 -0.0012 -0.0002
                                            0.4201  0.0080 -0.0002  0.0010  0.7329
                                            0.0166  0.0011  0.0017 -0.0000 -0.0000
                                           -0.0000 -0.0000 -0.0163  0.0000  0.0000
                                            0.0097  0.0086
                ( 39.54%)   0.6288* H   9 s( 99.95%)p 0.00(  0.05%)
                                           -0.9998 -0.0014 -0.0010 -0.0000 -0.0106
                                           -0.0192 -0.0000
    10. (1.97996) BD ( 1) C   5 - C   6  
                ( 49.87%)   0.7062* C   5 s( 35.59%)p 1.81( 64.36%)d 0.00(  0.05%)
                                            0.0000  0.5964 -0.0140 -0.0004 -0.0000
                                            0.3786  0.0227 -0.0086  0.0002  0.7059
                                           -0.0381 -0.0064  0.0008 -0.0000 -0.0000
                                            0.0000  0.0000  0.0162 -0.0000 -0.0000
                                           -0.0063 -0.0123
                ( 50.13%)   0.7080* C   6 s( 36.18%)p 1.76( 63.78%)d 0.00(  0.04%)
                                            0.0000  0.6013 -0.0146  0.0002 -0.0001
                                           -0.4201  0.0425  0.0016 -0.0006 -0.6778
                                           -0.0021  0.0102 -0.0001  0.0000 -0.0000
                                           -0.0000  0.0000  0.0132 -0.0000 -0.0000
                                           -0.0105 -0.0120
    11. (1.66769) BD ( 2) C   5 - C   6  
                ( 51.08%)   0.7147* C   5 s(  0.00%)p 1.00( 99.96%)d 0.00(  0.04%)
                                           -0.0000 -0.0000 -0.0000 -0.0000 -0.0000
                                            0.0000  0.0000  0.0000  0.0000 -0.0000
                                            0.0000 -0.0000  0.0000  0.9995  0.0187
                                            0.0148 -0.0020  0.0000  0.0184  0.0088
                                            0.0000 -0.0000
                ( 48.92%)   0.6994* C   6 s(  0.00%)p 1.00( 99.96%)d 0.00(  0.04%)
                                           -0.0000  0.0000 -0.0000 -0.0000 -0.0000
                                            0.0000  0.0000  0.0000 -0.0000  0.0000
                                            0.0000  0.0000  0.0000  0.9996  0.0154
                                            0.0148 -0.0022 -0.0000  0.0008 -0.0208
                                           -0.0000  0.0000
    12. (1.97990) BD ( 1) C   5 - H  10  
                ( 60.48%)   0.7777* C   5 s( 28.84%)p 2.47( 71.12%)d 0.00(  0.04%)
                                            0.0004 -0.5365 -0.0240 -0.0009 -0.0002
                                            0.8431  0.0183  0.0005  0.0017 -0.0000
                                            0.0000  0.0000 -0.0000 -0.0000 -0.0000
                                            0.0000 -0.0000 -0.0000  0.0000  0.0000
                                           -0.0189  0.0084
                ( 39.52%)   0.6287* H  10 s( 99.95%)p 0.00(  0.05%)
                                           -0.9998 -0.0013 -0.0011  0.0001 -0.0218
                                           -0.0000  0.0000
    13. (1.97453) BD ( 1) C   6 - C   7  
                ( 49.45%)   0.7032* C   6 s( 35.28%)p 1.83( 64.68%)d 0.00(  0.04%)
                                            0.0001  0.5938 -0.0137 -0.0015 -0.0001
                                            0.8023 -0.0210 -0.0122  0.0011  0.0286
                                           -0.0406  0.0045 -0.0007 -0.0000  0.0000
                                            0.0000 -0.0000 -0.0025 -0.0000  0.0000
                                            0.0166 -0.0126
                ( 50.55%)   0.7110* C   7 s( 36.39%)p 1.75( 63.57%)d 0.00(  0.04%)
                                           -0.0002  0.6028 -0.0215 -0.0016 -0.0004
                                           -0.7959  0.0183  0.0087 -0.0012  0.0251
                                           -0.0344  0.0054  0.0009  0.0000 -0.0000
                                           -0.0000  0.0000  0.0048 -0.0000  0.0000
                                            0.0159 -0.0118
    14. (1.98025) BD ( 1) C   6 - H  11  
                ( 60.46%)   0.7776* C   6 s( 28.55%)p 2.50( 71.40%)d 0.00(  0.04%)
                                           -0.0004  0.5338  0.0241  0.0012  0.0002
                                           -0.4201 -0.0080  0.0002 -0.0010  0.7329
                                            0.0166  0.0011  0.0017  0.0000  0.0000
                                            0.0000  0.0000 -0.0163 -0.0000  0.0000
                                           -0.0097 -0.0086
                ( 39.54%)   0.6288* H  11 s( 99.95%)p 0.00(  0.05%)
                                            0.9998  0.0014  0.0010  0.0000  0.0106
                                           -0.0192 -0.0000
    15. (1.97733) BD ( 1) C   7 - H  12  
                ( 61.13%)   0.7819* C   7 s( 29.61%)p 2.38( 70.36%)d 0.00(  0.04%)
                                           -0.0003  0.5437  0.0219 -0.0016 -0.0005
                                            0.4338  0.0090 -0.0011 -0.0013  0.7178
                                            0.0083 -0.0019  0.0009 -0.0000  0.0000
                                            0.0000 -0.0000  0.0159 -0.0000 -0.0000
                                           -0.0063 -0.0093
                ( 38.87%)   0.6234* H  12 s( 99.95%)p 0.00(  0.05%)
                                            0.9998  0.0013  0.0010  0.0002 -0.0118
                                           -0.0183  0.0000
    16. (1.99993) CR ( 1) F   1           s(100.00%)p 0.00(  0.00%)
                                            1.0000  0.0001 -0.0000 -0.0000  0.0000
                                            0.0001 -0.0000 -0.0000  0.0000  0.0000
                                            0.0000  0.0000 -0.0000  0.0000 -0.0000
                                           -0.0000  0.0000 -0.0000 -0.0000 -0.0000
                                           -0.0000  0.0000
    17. (1.99848) CR ( 1) C   2           s(100.00%)p 0.00(  0.00%)
                                            1.0000  0.0000 -0.0000  0.0000 -0.0000
                                            0.0002 -0.0000 -0.0000 -0.0000 -0.0000
                                            0.0000 -0.0000 -0.0000  0.0000  0.0000
                                            0.0000  0.0000 -0.0000  0.0000  0.0000
                                            0.0000 -0.0000
    18. (1.99904) CR ( 1) C   3           s(100.00%)p 0.00(  0.00%)
                                            1.0000  0.0003  0.0000 -0.0000 -0.0000
                                           -0.0000  0.0000  0.0000 -0.0000 -0.0002
                                            0.0000 -0.0000 -0.0000 -0.0000 -0.0000
                                           -0.0000  0.0000 -0.0000  0.0000 -0.0000
                                            0.0000 -0.0000
    19. (1.99918) CR ( 1) C   4           s(100.00%)p 0.00(  0.00%)
                                            1.0000  0.0001  0.0000  0.0000  0.0000
                                           -0.0002 -0.0000  0.0000 -0.0000 -0.0003
                                           -0.0000  0.0000 -0.0000  0.0000  0.0000
                                            0.0000 -0.0000  0.0000  0.0000  0.0000
                                           -0.0000 -0.0000
    20. (1.99915) CR ( 1) C   5           s(100.00%)p 0.00(  0.00%)
                                            1.0000  0.0002  0.0000  0.0000  0.0000
                                           -0.0004 -0.0000  0.0000 -0.0000  0.0000
                                           -0.0000 -0.0000  0.0000  0.0000  0.0000
                                            0.0000 -0.0000  0.0000  0.0000  0.0000
                                            0.0000 -0.0000
    21. (1.99918) CR ( 1) C   6           s(100.00%)p 0.00(  0.00%)
                                            1.0000  0.0001  0.0000  0.0000  0.0000
                                           -0.0002 -0.0000  0.0000 -0.0000  0.0003
                                            0.0000 -0.0000  0.0000  0.0000  0.0000
                                            0.0000 -0.0000 -0.0000  0.0000 -0.0000
                                           -0.0000 -0.0000
    22. (1.99904) CR ( 1) C   7           s(100.00%)p 0.00(  0.00%)
                                            1.0000  0.0003  0.0000 -0.0000 -0.0000
                                           -0.0000  0.0000  0.0000 -0.0000  0.0002
                                           -0.0000  0.0000  0.0000  0.0000  0.0000
                                            0.0000 -0.0000  0.0000 -0.0000 -0.0000
                                            0.0000 -0.0000
    23. (1.98962) LP ( 1) F   1           s( 69.96%)p 0.43( 30.03%)d 0.00(  0.01%)
                                           -0.0002  0.8364 -0.0050 -0.0009  0.0000
                                            0.5480 -0.0051 -0.0035  0.0035 -0.0000
                                           -0.0000 -0.0000 -0.0000  0.0000 -0.0000
                                           -0.0000  0.0000  0.0000 -0.0000 -0.0000
                                           -0.0063  0.0035
    24. (1.97290) LP ( 2) F   1           s(  0.00%)p 1.00( 99.98%)d 0.00(  0.02%)
                                           -0.0000  0.0000  0.0000 -0.0000  0.0000
                                            0.0000  0.0000 -0.0000  0.0000  0.9999
                                            0.0061  0.0032 -0.0003 -0.0000 -0.0000
                                           -0.0000  0.0000 -0.0157  0.0000 -0.0000
                                           -0.0000  0.0000
    25. (1.92842) LP ( 3) F   1           s(  0.00%)p 1.00( 99.98%)d 0.00(  0.02%)
                                           -0.0000  0.0000 -0.0000  0.0000 -0.0000
                                           -0.0000 -0.0000  0.0000  0.0000  0.0000
                                            0.0000  0.0000  0.0000  0.9999  0.0046
                                            0.0007  0.0002 -0.0000 -0.0157 -0.0000
                                            0.0000 -0.0000
    26. (0.00251) RY*( 1) F   1           s(  0.00%)p 1.00( 97.74%)d 0.02(  2.26%)
                                            0.0000 -0.0000 -0.0000  0.0000 -0.0000
                                            0.0000 -0.0000 -0.0000  0.0000 -0.0033
                                            0.9838 -0.0968 -0.0068  0.0000 -0.0000
                                           -0.0000 -0.0000  0.1504 -0.0000  0.0000
                                           -0.0000 -0.0000
    27. (0.00135) RY*( 2) F   1           s(  0.00%)p 1.00( 96.18%)d 0.04(  3.82%)
                                            0.0000  0.0000 -0.0000  0.0000 -0.0000
                                           -0.0000 -0.0000  0.0000  0.0000  0.0000
                                            0.0000  0.0000  0.0000 -0.0015  0.9642
                                            0.1776  0.0241  0.0000  0.1955 -0.0000
                                           -0.0000  0.0000
    28. (0.00048) RY*( 3) F   1           s(  7.61%)p11.94( 90.84%)d 0.20(  1.56%)
                                           -0.0000  0.0031  0.2585  0.0957  0.0088
                                           -0.0108 -0.9037  0.2917  0.0810  0.0000
                                           -0.0000 -0.0000  0.0000 -0.0000 -0.0000
                                           -0.0000 -0.0000  0.0000 -0.0000  0.0000
                                           -0.0775  0.0978
    29. (0.00013) RY*( 4) F   1           s( 86.41%)p 0.11(  9.69%)d 0.05(  3.90%)
                                            0.0000 -0.0032  0.6645 -0.6501 -0.0004
                                            0.0105  0.1240 -0.0499  0.2809 -0.0000
                                            0.0000 -0.0000  0.0000  0.0000  0.0000
                                            0.0000  0.0000  0.0000  0.0000 -0.0000
                                            0.1784  0.0844
    30. (0.00002) RY*( 5) F   1           s( 77.92%)p 0.18( 14.09%)d 0.10(  7.99%)
    31. (0.00001) RY*( 6) F   1           s(  0.44%)p99.99( 97.20%)d 5.35(  2.36%)
    32. (0.00002) RY*( 7) F   1           s(  0.00%)p 1.00( 80.26%)d 0.25( 19.74%)
    33. (0.00001) RY*( 8) F   1           s(  0.00%)p 1.00(100.00%)
    34. (0.00001) RY*( 9) F   1           s(  0.00%)p 1.00(  2.64%)d36.84( 97.36%)
    35. (0.00000) RY*(10) F   1           s( 17.13%)p 4.77( 81.74%)d 0.07(  1.14%)
    36. (0.00000) RY*(11) F   1           s( 99.98%)p 0.00(  0.02%)d 0.00(  0.00%)
    37. (0.00000) RY*(12) F   1           s(  0.00%)p 1.00( 99.96%)d 0.00(  0.04%)
    38. (0.00000) RY*(13) F   1           s(  0.00%)p 1.00( 99.65%)d 0.00(  0.35%)
    39. (0.00000) RY*(14) F   1           s(  0.00%)p 1.00( 23.63%)d 3.23( 76.37%)
    40. (0.00000) RY*(15) F   1           s(  0.00%)p 0.00(  0.00%)d 1.00(100.00%)
    41. (0.00000) RY*(16) F   1           s(  5.96%)p 0.38(  2.24%)d15.42( 91.81%)
    42. (0.00000) RY*(17) F   1           s(  4.56%)p 0.94(  4.27%)d20.00( 91.17%)
    43. (0.00823) RY*( 1) C   2           s(  1.45%)p66.42( 96.59%)d 1.34(  1.96%)
                                            0.0000  0.0449  0.1081 -0.0223 -0.0188
                                            0.0175  0.9798 -0.0685 -0.0284 -0.0000
                                           -0.0000  0.0000 -0.0000  0.0000  0.0000
                                           -0.0000 -0.0000 -0.0000 -0.0000  0.0000
                                            0.1341 -0.0395
    44. (0.00414) RY*( 2) C   2           s(  0.00%)p 1.00( 90.51%)d 0.10(  9.49%)
                                           -0.0000 -0.0000 -0.0000 -0.0000  0.0000
                                           -0.0000  0.0000 -0.0000  0.0000  0.0246
                                            0.9338  0.0025 -0.1802  0.0000 -0.0000
                                            0.0000  0.0000  0.3080 -0.0000  0.0000
                                            0.0000 -0.0000
    45. (0.00240) RY*( 3) C   2           s(  0.00%)p 1.00(  9.97%)d 9.03( 90.03%)
                                            0.0000  0.0000  0.0000 -0.0000 -0.0000
                                            0.0000  0.0000 -0.0000 -0.0000  0.0000
                                            0.0000  0.0000  0.0000  0.0088  0.2826
                                            0.1374 -0.0298  0.0000  0.9468 -0.0626
                                           -0.0000  0.0000
    46. (0.00200) RY*( 4) C   2           s(  0.00%)p 1.00( 35.97%)d 1.78( 64.03%)
                                           -0.0000  0.0000  0.0000 -0.0000  0.0000
                                            0.0000  0.0000  0.0000 -0.0000  0.0125
                                           -0.2928  0.5040 -0.1410 -0.0000  0.0000
                                           -0.0000  0.0000  0.8002 -0.0000  0.0000
                                           -0.0000  0.0000
    47. (0.00186) RY*( 5) C   2           s( 46.87%)p 0.13(  6.27%)d 1.00( 46.85%)
                                            0.0000  0.0131  0.6792  0.0834 -0.0181
                                            0.0581  0.0345  0.2163 -0.1067 -0.0000
                                            0.0000 -0.0000  0.0000 -0.0000  0.0000
                                           -0.0000  0.0000 -0.0000 -0.0000 -0.0000
                                           -0.6402  0.2422
    48. (0.00080) RY*( 6) C   2           s(  0.00%)p 1.00(  0.02%)d99.99( 99.98%)
                                            0.0000  0.0000 -0.0000  0.0000 -0.0000
                                            0.0000  0.0000  0.0000 -0.0000 -0.0000
                                           -0.0000 -0.0000 -0.0000 -0.0103 -0.0034
                                            0.0095 -0.0064 -0.0000  0.0655  0.9977
                                           -0.0000  0.0000
    49. (0.00024) RY*( 7) C   2           s( 55.70%)p 0.21( 11.62%)d 0.59( 32.68%)
                                           -0.0000 -0.0125  0.7102 -0.2236  0.0494
                                           -0.0278 -0.1823 -0.2858  0.0211  0.0000
                                            0.0000  0.0000  0.0000  0.0000 -0.0000
                                           -0.0000 -0.0000 -0.0000  0.0000  0.0000
                                            0.5451 -0.1723
    50. (0.00018) RY*( 8) C   2           s(  0.00%)p 1.00( 92.90%)d 0.08(  7.10%)
                                            0.0000 -0.0000  0.0000 -0.0000 -0.0000
                                           -0.0000 -0.0000  0.0000  0.0000 -0.0000
                                            0.0000 -0.0000  0.0000 -0.0298  0.9406
                                           -0.0485  0.2023 -0.0000 -0.2656  0.0221
                                            0.0000 -0.0000
    51. (0.00012) RY*( 9) C   2           s( 17.25%)p 0.68( 11.68%)d 4.12( 71.07%)
                                           -0.0000  0.0084 -0.0044  0.3634  0.2008
                                           -0.0120 -0.0192 -0.0222 -0.3403  0.0000
                                            0.0000  0.0000 -0.0000 -0.0000  0.0000
                                           -0.0000  0.0000 -0.0000 -0.0000  0.0000
                                            0.3707  0.7572
    52. (0.00007) RY*(10) C   2           s(  0.00%)p 1.00( 81.61%)d 0.23( 18.39%)
    53. (0.00003) RY*(11) C   2           s(  5.10%)p16.28( 83.11%)d 2.31( 11.78%)
    54. (0.00000) RY*(12) C   2           s(  0.00%)p 1.00( 99.26%)d 0.01(  0.74%)
    55. (0.00001) RY*(13) C   2           s( 78.84%)p 0.00(  0.25%)d 0.27( 20.91%)
    56. (0.00000) RY*(14) C   2           s( 93.86%)p 0.03(  2.58%)d 0.04(  3.56%)
    57. (0.00000) RY*(15) C   2           s(  0.00%)p 1.00( 91.94%)d 0.09(  8.06%)
    58. (0.00001) RY*(16) C   2           s(  1.16%)p75.61( 88.04%)d 9.27( 10.80%)
    59. (0.00000) RY*(17) C   2           s(  0.00%)p 1.00( 97.89%)d 0.02(  2.11%)
    60. (0.00510) RY*( 1) C   3           s(  0.23%)p99.99( 95.63%)d17.86(  4.14%)
                                           -0.0000  0.0151 -0.0248  0.0370 -0.0103
                                           -0.0007  0.7137  0.0242 -0.0317  0.0322
                                           -0.6608  0.0424 -0.0767  0.0000 -0.0000
                                            0.0000 -0.0000 -0.1888 -0.0000  0.0000
                                           -0.0656 -0.0373
    61. (0.00277) RY*( 2) C   3           s(  0.23%)p99.99( 98.44%)d 5.69(  1.32%)
                                           -0.0000 -0.0053  0.0419  0.0227  0.0054
                                            0.0377  0.6781 -0.1255 -0.0889  0.0180
                                            0.6947 -0.1287  0.0060 -0.0000  0.0000
                                            0.0000  0.0000  0.1041  0.0000 -0.0000
                                           -0.0311  0.0380
    62. (0.00092) RY*( 3) C   3           s(  0.00%)p 1.00( 74.98%)d 0.33( 25.02%)
                                           -0.0000  0.0000  0.0000  0.0000  0.0000
                                           -0.0000 -0.0000 -0.0000  0.0000 -0.0000
                                           -0.0000 -0.0000  0.0000 -0.0103  0.8428
                                            0.1550  0.1236  0.0000  0.4987  0.0388
                                           -0.0000 -0.0000
    63. (0.00054) RY*( 4) C   3           s( 94.04%)p 0.03(  2.51%)d 0.04(  3.45%)
                                           -0.0000  0.0058  0.9639  0.1059  0.0068
                                           -0.0297 -0.0216 -0.0593  0.0319  0.0153
                                           -0.0554  0.0647 -0.1081 -0.0000  0.0000
                                            0.0000 -0.0000  0.1091 -0.0000 -0.0000
                                           -0.1498 -0.0119
    64. (0.00052) RY*( 5) C   3           s(  0.00%)p 1.00( 16.33%)d 5.12( 83.67%)
                                            0.0000  0.0000  0.0000  0.0000  0.0000
                                           -0.0000  0.0000 -0.0000  0.0000  0.0000
                                           -0.0000  0.0000 -0.0000  0.0098 -0.4012
                                           -0.0477  0.0001  0.0000  0.6423  0.6512
                                           -0.0000 -0.0000
    65. (0.00025) RY*( 6) C   3           s( 14.82%)p 4.12( 61.00%)d 1.63( 24.18%)
                                            0.0000  0.0015 -0.1903  0.3345  0.0087
                                           -0.0152 -0.1292 -0.6041 -0.3259 -0.0119
                                           -0.0731 -0.0800 -0.3318  0.0000 -0.0000
                                           -0.0000  0.0000  0.1201 -0.0000  0.0000
                                           -0.4763 -0.0234
    66. (0.00015) RY*( 7) C   3           s( 23.88%)p 1.32( 31.56%)d 1.87( 44.57%)
                                            0.0000 -0.0063 -0.0855  0.4716 -0.0948
                                           -0.0005  0.0596  0.0056  0.4739 -0.0159
                                           -0.1011 -0.2215  0.1669 -0.0000 -0.0000
                                           -0.0000 -0.0000  0.5290 -0.0000  0.0000
                                            0.1056 -0.3932
    67. (0.00008) RY*( 8) C   3           s(  2.74%)p23.17( 63.40%)d12.38( 33.87%)
    68. (0.00008) RY*( 9) C   3           s(  0.00%)p 1.00( 63.68%)d 0.57( 36.32%)
    69. (0.00004) RY*(10) C   3           s(  5.51%)p10.93( 60.25%)d 6.21( 34.24%)
    70. (0.00004) RY*(11) C   3           s(  5.98%)p 8.20( 49.05%)d 7.52( 44.97%)
    71. (0.00000) RY*(12) C   3           s(  0.00%)p 1.00( 98.49%)d 0.02(  1.51%)
    72. (0.00001) RY*(13) C   3           s( 20.56%)p 2.44( 50.16%)d 1.42( 29.27%)
    73. (0.00000) RY*(14) C   3           s( 95.93%)p 0.02(  2.08%)d 0.02(  1.98%)
    74. (0.00000) RY*(15) C   3           s(  0.00%)p 1.00( 46.57%)d 1.15( 53.43%)
    75. (0.00001) RY*(16) C   3           s(  5.31%)p15.26( 80.97%)d 2.58( 13.72%)
    76. (0.00000) RY*(17) C   3           s( 30.75%)p 0.17(  5.09%)d 2.09( 64.15%)
    77. (0.00576) RY*( 1) C   4           s(  0.57%)p99.99( 94.28%)d 9.07(  5.15%)
                                           -0.0000  0.0174 -0.0371  0.0632  0.0036
                                            0.0213 -0.4561  0.0472 -0.0362  0.0299
                                           -0.8520  0.0361 -0.0524 -0.0000  0.0000
                                           -0.0000  0.0000  0.1905  0.0000 -0.0000
                                           -0.1196 -0.0299
    78. (0.00224) RY*( 2) C   4           s(  0.22%)p99.99( 98.95%)d 3.73(  0.82%)
                                            0.0000  0.0005  0.0357  0.0306  0.0006
                                            0.0412  0.8383 -0.1442 -0.1924 -0.0215
                                           -0.4533  0.1164  0.0878 -0.0000 -0.0000
                                            0.0000  0.0000  0.0303 -0.0000  0.0000
                                            0.0856  0.0012
    79. (0.00072) RY*( 3) C   4           s(  0.00%)p 1.00( 40.36%)d 1.48( 59.64%)
                                            0.0000 -0.0000 -0.0000 -0.0000 -0.0000
                                           -0.0000  0.0000 -0.0000  0.0000  0.0000
                                           -0.0000 -0.0000  0.0000 -0.0195  0.5970
                                            0.1956  0.0922 -0.0000  0.5642 -0.5273
                                            0.0000 -0.0000
    80. (0.00053) RY*( 4) C   4           s(  0.00%)p 1.00( 44.37%)d 1.25( 55.63%)
                                            0.0000 -0.0000 -0.0000  0.0000 -0.0000
                                           -0.0000 -0.0000 -0.0000  0.0000 -0.0000
                                           -0.0000  0.0000  0.0000  0.0003 -0.6509
                                           -0.1091 -0.0897  0.0000  0.7459  0.0049
                                            0.0000 -0.0000
    81. (0.00036) RY*( 5) C   4           s( 90.82%)p 0.06(  5.41%)d 0.04(  3.77%)
                                           -0.0000  0.0047  0.9497 -0.0724 -0.0327
                                            0.0099 -0.0654  0.0567 -0.0838  0.0280
                                           -0.0222  0.0681 -0.1831  0.0000 -0.0000
                                           -0.0000 -0.0000 -0.0460  0.0000 -0.0000
                                            0.1758 -0.0685
    82. (0.00025) RY*( 6) C   4           s(  1.28%)p59.49( 76.28%)d17.50( 22.44%)
                                           -0.0000 -0.0025 -0.0283  0.1028  0.0381
                                           -0.0233 -0.1240 -0.7523  0.2583  0.0122
                                            0.0567  0.3204 -0.0900  0.0000  0.0000
                                            0.0000  0.0000  0.2926 -0.0000 -0.0000
                                            0.3700 -0.0439
    83. (0.00011) RY*( 7) C   4           s( 27.60%)p 0.38( 10.45%)d 2.24( 61.95%)
                                            0.0000 -0.0081 -0.1553  0.4908 -0.1044
                                           -0.0067 -0.0396  0.0466 -0.1338 -0.0126
                                           -0.0406  0.0259 -0.2834  0.0000 -0.0000
                                            0.0000 -0.0000 -0.4945 -0.0000 -0.0000
                                            0.2786 -0.5453
    84. (0.00007) RY*( 8) C   4           s(  6.87%)p 7.92( 54.42%)d 5.63( 38.71%)
    85. (0.00005) RY*( 9) C   4           s(  9.02%)p 6.51( 58.71%)d 3.58( 32.27%)
    86. (0.00001) RY*(10) C   4           s(  3.83%)p 5.70( 21.85%)d19.40( 74.32%)
    87. (0.00001) RY*(11) C   4           s(  0.00%)p 1.00( 99.53%)d 0.00(  0.47%)
    88. (0.00000) RY*(12) C   4           s(  0.00%)p 1.00( 99.67%)d 0.00(  0.33%)
    89. (0.00001) RY*(13) C   4           s( 52.72%)p 0.53( 28.11%)d 0.36( 19.17%)
    90. (0.00000) RY*(14) C   4           s( 95.45%)p 0.02(  1.73%)d 0.03(  2.81%)
    91. (0.00001) RY*(15) C   4           s(  0.00%)p 1.00( 16.13%)d 5.20( 83.87%)
    92. (0.00000) RY*(16) C   4           s(  4.82%)p16.17( 77.98%)d 3.57( 17.20%)
    93. (0.00000) RY*(17) C   4           s(  6.78%)p10.62( 71.97%)d 3.13( 21.25%)
    94. (0.00599) RY*( 1) C   5           s(  1.17%)p80.21( 93.51%)d 4.56(  5.32%)
                                            0.0000 -0.0156  0.1054 -0.0133  0.0116
                                           -0.0333  0.9641 -0.0339  0.0581 -0.0000
                                           -0.0000 -0.0000  0.0000  0.0000 -0.0000
                                            0.0000 -0.0000  0.0000  0.0000  0.0000
                                           -0.2295  0.0237
    95. (0.00217) RY*( 2) C   5           s(  0.00%)p 1.00( 99.33%)d 0.01(  0.67%)
                                           -0.0000 -0.0000  0.0000  0.0000  0.0000
                                           -0.0000  0.0000  0.0000  0.0000  0.0469
                                            0.9431 -0.2512 -0.1964 -0.0000  0.0000
                                           -0.0000 -0.0000  0.0818 -0.0000 -0.0000
                                           -0.0000  0.0000
    96. (0.00081) RY*( 3) C   5           s(  0.00%)p 1.00( 85.20%)d 0.17( 14.80%)
                                            0.0000  0.0000 -0.0000 -0.0000 -0.0000
                                           -0.0000  0.0000  0.0000  0.0000 -0.0000
                                           -0.0000 -0.0000  0.0000 -0.0111  0.9004
                                            0.1613  0.1228  0.0000 -0.3571 -0.1433
                                           -0.0000  0.0000
    97. (0.00054) RY*( 4) C   5           s(  0.00%)p 1.00(  1.79%)d54.76( 98.21%)
                                            0.0000  0.0000  0.0000 -0.0000  0.0000
                                            0.0000 -0.0000  0.0000 -0.0000  0.0000
                                           -0.0000  0.0000  0.0000 -0.0105  0.1303
                                            0.0232  0.0178  0.0000 -0.0518  0.9896
                                            0.0000  0.0000
    98. (0.00037) RY*( 5) C   5           s(  0.00%)p 1.00( 84.62%)d 0.18( 15.38%)
                                           -0.0000 -0.0000 -0.0000 -0.0000  0.0000
                                           -0.0000  0.0000 -0.0000  0.0000  0.0276
                                            0.1959  0.8471 -0.2993  0.0000  0.0000
                                            0.0000  0.0000 -0.3921 -0.0000  0.0000
                                            0.0000  0.0000
    99. (0.00026) RY*( 6) C   5           s( 90.97%)p 0.07(  6.41%)d 0.03(  2.62%)
                                           -0.0000  0.0032  0.9427 -0.1192 -0.0818
                                            0.0300 -0.1196 -0.0654 -0.2113  0.0000
                                            0.0000  0.0000 -0.0000 -0.0000  0.0000
                                            0.0000  0.0000 -0.0000 -0.0000 -0.0000
                                           -0.1256 -0.1021
   100. (0.00011) RY*( 7) C   5           s( 38.27%)p 0.29( 11.02%)d 1.33( 50.71%)
                                            0.0000 -0.0120 -0.1258  0.6014 -0.0709
                                           -0.0111 -0.0325 -0.0922 -0.3170  0.0000
                                           -0.0000 -0.0000 -0.0000 -0.0000  0.0000
                                            0.0000  0.0000 -0.0000 -0.0000  0.0000
                                           -0.3603 -0.6142
   101. (0.00007) RY*( 8) C   5           s(  0.00%)p 1.00( 34.10%)d 1.93( 65.90%)
   102. (0.00004) RY*( 9) C   5           s( 11.82%)p 1.57( 18.60%)d 5.89( 69.58%)
   103. (0.00002) RY*(10) C   5           s( 11.96%)p 6.40( 76.55%)d 0.96( 11.49%)
   104. (0.00000) RY*(11) C   5           s(  0.00%)p 1.00( 99.64%)d 0.00(  0.36%)
   105. (0.00000) RY*(12) C   5           s(  0.00%)p 1.00( 99.80%)d 0.00(  0.20%)
   106. (0.00000) RY*(13) C   5           s(  8.82%)p 9.92( 87.47%)d 0.42(  3.71%)
   107. (0.00000) RY*(14) C   5           s(  0.00%)p 1.00( 13.62%)d 6.34( 86.38%)
   108. (0.00000) RY*(15) C   5           s(  0.00%)p 1.00( 82.00%)d 0.22( 18.00%)
   109. (0.00000) RY*(16) C   5           s( 93.59%)p 0.06(  5.49%)d 0.01(  0.92%)
   110. (0.00001) RY*(17) C   5           s( 43.39%)p 0.02(  1.03%)d 1.28( 55.58%)
   111. (0.00576) RY*( 1) C   6           s(  0.57%)p99.99( 94.28%)d 9.07(  5.15%)
                                           -0.0000  0.0174 -0.0371  0.0632  0.0036
                                            0.0213 -0.4561  0.0472 -0.0362 -0.0299
                                            0.8520 -0.0361  0.0524 -0.0000  0.0000
                                           -0.0000  0.0000 -0.1905  0.0000  0.0000
                                           -0.1196 -0.0299
   112. (0.00224) RY*( 2) C   6           s(  0.22%)p99.99( 98.95%)d 3.73(  0.82%)
                                           -0.0000  0.0005  0.0357  0.0306  0.0006
                                            0.0412  0.8383 -0.1442 -0.1924  0.0215
                                            0.4533 -0.1164 -0.0878 -0.0000 -0.0000
                                            0.0000  0.0000 -0.0303 -0.0000 -0.0000
                                            0.0856  0.0012
   113. (0.00080) RY*( 3) C   6           s(  0.00%)p 1.00( 46.97%)d 1.13( 53.03%)
                                           -0.0000 -0.0000 -0.0000  0.0000 -0.0000
                                            0.0000  0.0000 -0.0000  0.0000  0.0000
                                            0.0000  0.0000 -0.0000 -0.0022  0.6466
                                            0.2046  0.0986  0.0000  0.5032  0.5265
                                            0.0000 -0.0000
   114. (0.00048) RY*( 4) C   6           s(  0.00%)p 1.00( 37.69%)d 1.65( 62.31%)
                                            0.0000 -0.0000 -0.0000  0.0000 -0.0000
                                           -0.0000 -0.0000 -0.0000  0.0000 -0.0000
                                           -0.0000 -0.0000  0.0000  0.0106 -0.6011
                                           -0.0935 -0.0819 -0.0000  0.7886  0.0363
                                            0.0000 -0.0000
   115. (0.00036) RY*( 5) C   6           s( 90.82%)p 0.06(  5.41%)d 0.04(  3.77%)
                                           -0.0000  0.0047  0.9497 -0.0724 -0.0327
                                            0.0099 -0.0654  0.0567 -0.0838 -0.0280
                                            0.0222 -0.0681  0.1831  0.0000 -0.0000
                                            0.0000  0.0000  0.0460  0.0000  0.0000
                                            0.1758 -0.0685
   116. (0.00025) RY*( 6) C   6           s(  1.28%)p59.49( 76.28%)d17.50( 22.44%)
                                            0.0000 -0.0025 -0.0283  0.1028  0.0381
                                           -0.0233 -0.1240 -0.7523  0.2583 -0.0122
                                           -0.0567 -0.3204  0.0900  0.0000  0.0000
                                            0.0000  0.0000 -0.2926 -0.0000  0.0000
                                            0.3700 -0.0439
   117. (0.00011) RY*( 7) C   6           s( 27.60%)p 0.38( 10.45%)d 2.24( 61.95%)
                                            0.0000 -0.0081 -0.1553  0.4908 -0.1044
                                           -0.0067 -0.0396  0.0466 -0.1338  0.0126
                                            0.0406 -0.0259  0.2834  0.0000 -0.0000
                                            0.0000  0.0000  0.4945 -0.0000  0.0000
                                            0.2786 -0.5453
   118. (0.00007) RY*( 8) C   6           s(  6.87%)p 7.92( 54.42%)d 5.63( 38.71%)
   119. (0.00005) RY*( 9) C   6           s(  9.02%)p 6.51( 58.71%)d 3.58( 32.27%)
   120. (0.00002) RY*(10) C   6           s(  7.22%)p 2.03( 14.66%)d10.82( 78.12%)
   121. (0.00001) RY*(11) C   6           s(  0.00%)p 1.00( 99.52%)d 0.00(  0.48%)
   122. (0.00000) RY*(12) C   6           s(  0.00%)p 1.00( 99.64%)d 0.00(  0.36%)
   123. (0.00000) RY*(13) C   6           s( 94.83%)p 0.01(  1.37%)d 0.04(  3.80%)
   124. (0.00001) RY*(14) C   6           s( 47.58%)p 0.65( 30.92%)d 0.45( 21.50%)
   125. (0.00001) RY*(15) C   6           s(  0.00%)p 1.00( 16.23%)d 5.16( 83.77%)
   126. (0.00000) RY*(16) C   6           s(  8.72%)p 9.25( 80.66%)d 1.22( 10.61%)
   127. (0.00000) RY*(17) C   6           s(  5.25%)p14.11( 74.04%)d 3.95( 20.72%)
   128. (0.00510) RY*( 1) C   7           s(  0.23%)p99.99( 95.63%)d17.86(  4.14%)
                                            0.0000  0.0151 -0.0248  0.0370 -0.0103
                                           -0.0007  0.7137  0.0242 -0.0317 -0.0322
                                            0.6608 -0.0424  0.0767 -0.0000  0.0000
                                           -0.0000 -0.0000  0.1888 -0.0000 -0.0000
                                           -0.0656 -0.0373
   129. (0.00277) RY*( 2) C   7           s(  0.23%)p99.99( 98.44%)d 5.69(  1.32%)
                                           -0.0000 -0.0053  0.0419  0.0227  0.0054
                                            0.0377  0.6781 -0.1255 -0.0889 -0.0180
                                           -0.6947  0.1287 -0.0060  0.0000  0.0000
                                            0.0000  0.0000 -0.1041 -0.0000  0.0000
                                           -0.0311  0.0380
   130. (0.00084) RY*( 3) C   7           s(  0.00%)p 1.00( 83.86%)d 0.19( 16.14%)
                                           -0.0000  0.0000  0.0000 -0.0000  0.0000
                                           -0.0000 -0.0000 -0.0000  0.0000  0.0000
                                            0.0000  0.0000 -0.0000 -0.0198  0.8928
                                            0.1621  0.1217 -0.0000  0.3970  0.0614
                                           -0.0000 -0.0000
   131. (0.00057) RY*( 4) C   7           s(  0.00%)p 1.00(  7.69%)d12.01( 92.31%)
                                           -0.0000 -0.0000 -0.0000 -0.0000 -0.0000
                                            0.0000  0.0000  0.0000 -0.0000  0.0000
                                           -0.0000  0.0000 -0.0000 -0.0083 -0.2767
                                           -0.0068  0.0140  0.0000  0.7189 -0.6375
                                            0.0000  0.0000
   132. (0.00054) RY*( 5) C   7           s( 94.04%)p 0.03(  2.51%)d 0.04(  3.45%)
                                            0.0000  0.0058  0.9639  0.1059  0.0068
                                           -0.0297 -0.0216 -0.0593  0.0319 -0.0153
                                            0.0554 -0.0647  0.1081 -0.0000 -0.0000
                                            0.0000 -0.0000 -0.1091  0.0000 -0.0000
                                           -0.1498 -0.0119
   133. (0.00025) RY*( 6) C   7           s( 14.82%)p 4.12( 61.00%)d 1.63( 24.18%)
                                            0.0000  0.0015 -0.1903  0.3345  0.0087
                                           -0.0152 -0.1292 -0.6041 -0.3259  0.0119
                                            0.0731  0.0800  0.3318 -0.0000  0.0000
                                           -0.0000  0.0000 -0.1201 -0.0000 -0.0000
                                           -0.4763 -0.0234
   134. (0.00015) RY*( 7) C   7           s( 23.88%)p 1.32( 31.56%)d 1.87( 44.57%)
                                           -0.0000 -0.0063 -0.0855  0.4716 -0.0948
                                           -0.0005  0.0596  0.0056  0.4739  0.0159
                                            0.1011  0.2215 -0.1669  0.0000 -0.0000
                                           -0.0000 -0.0000 -0.5290 -0.0000 -0.0000
                                            0.1056 -0.3932
   135. (0.00008) RY*( 8) C   7           s(  2.74%)p23.17( 63.40%)d12.38( 33.87%)
   136. (0.00008) RY*( 9) C   7           s(  0.00%)p 1.00( 63.45%)d 0.58( 36.55%)
   137. (0.00004) RY*(10) C   7           s(  5.51%)p10.93( 60.26%)d 6.21( 34.23%)
   138. (0.00004) RY*(11) C   7           s(  5.98%)p 8.21( 49.04%)d 7.53( 44.98%)
   139. (0.00000) RY*(12) C   7           s(  0.00%)p 1.00( 99.60%)d 0.00(  0.40%)
   140. (0.00001) RY*(13) C   7           s( 20.21%)p 2.51( 50.70%)d 1.44( 29.09%)
   141. (0.00000) RY*(14) C   7           s( 95.93%)p 0.02(  2.08%)d 0.02(  1.99%)
   142. (0.00000) RY*(15) C   7           s(  0.00%)p 1.00( 45.46%)d 1.20( 54.54%)
   143. (0.00001) RY*(16) C   7           s(  5.45%)p14.77( 80.54%)d 2.57( 14.00%)
   144. (0.00000) RY*(17) C   7           s( 30.96%)p 0.16(  4.99%)d 2.07( 64.05%)
   145. (0.00086) RY*( 1) H   8           s( 98.81%)p 0.01(  1.19%)
                                           -0.0036  0.9940 -0.0059 -0.0008 -0.0753
                                            0.0789 -0.0000
   146. (0.00019) RY*( 2) H   8           s( 90.16%)p 0.11(  9.84%)
                                            0.0058  0.0400  0.9485  0.0180  0.1990
                                           -0.2424 -0.0000
   147. (0.00016) RY*( 3) H   8           s(  0.00%)p 1.00(100.00%)
                                           -0.0000  0.0000  0.0000 -0.0000 -0.0000
                                            0.0000  1.0000
   148. (0.00011) RY*( 4) H   8           s( 51.47%)p 0.94( 48.53%)
                                            0.0016  0.0229 -0.0665  0.7140  0.6242
                                            0.3092  0.0000
   149. (0.00006) RY*( 5) H   8           s( 49.30%)p 1.03( 50.70%)
   150. (0.00003) RY*( 6) H   8           s( 10.31%)p 8.70( 89.69%)
   151. (0.00074) RY*( 1) H   9           s( 98.38%)p 0.02(  1.62%)
                                           -0.0042  0.9918 -0.0091  0.0006  0.0560
                                            0.1143 -0.0000
   152. (0.00021) RY*( 2) H   9           s( 90.28%)p 0.11(  9.72%)
                                            0.0052  0.0441  0.9491 -0.0111 -0.2515
                                           -0.1842  0.0000
   153. (0.00019) RY*( 3) H   9           s(  0.00%)p 1.00(100.00%)
                                           -0.0000  0.0000 -0.0000  0.0000  0.0000
                                           -0.0000  1.0000
   154. (0.00012) RY*( 4) H   9           s(  2.76%)p35.19( 97.24%)
                                           -0.0002  0.0070  0.1380  0.0925  0.8647
                                           -0.4739 -0.0000
   155. (0.00004) RY*( 5) H   9           s( 11.53%)p 7.67( 88.47%)
   156. (0.00002) RY*( 6) H   9           s( 97.10%)p 0.03(  2.90%)
   157. (0.00074) RY*( 1) H  10           s( 98.28%)p 0.02(  1.72%)
                                           -0.0042  0.9913 -0.0095 -0.0002  0.1312
                                           -0.0000  0.0000
   158. (0.00020) RY*( 2) H  10           s( 91.81%)p 0.09(  8.19%)
                                            0.0052  0.0470  0.9570 -0.0001 -0.2863
                                           -0.0000 -0.0000
   159. (0.00021) RY*( 3) H  10           s(  0.00%)p 1.00(100.00%)
                                            0.0000 -0.0000  0.0000  0.0000  0.0000
                                           -0.0000  1.0000
   160. (0.00012) RY*( 4) H  10           s(  0.00%)p 1.00(100.00%)
                                           -0.0000  0.0000  0.0000 -0.0000  0.0000
                                            1.0000  0.0000
   161. (0.00002) RY*( 5) H  10           s(100.00%)
   162. (0.00003) RY*( 6) H  10           s(  9.96%)p 9.04( 90.04%)
   163. (0.00074) RY*( 1) H  11           s( 98.38%)p 0.02(  1.62%)
                                           -0.0042  0.9918 -0.0091  0.0006  0.0560
                                           -0.1143  0.0000
   164. (0.00021) RY*( 2) H  11           s( 90.28%)p 0.11(  9.72%)
                                            0.0052  0.0441  0.9491 -0.0111 -0.2515
                                            0.1842 -0.0000
   165. (0.00019) RY*( 3) H  11           s(  0.00%)p 1.00(100.00%)
                                            0.0000 -0.0000  0.0000  0.0000  0.0000
                                            0.0000  1.0000
   166. (0.00012) RY*( 4) H  11           s(  2.76%)p35.19( 97.24%)
                                           -0.0002  0.0070  0.1380  0.0925  0.8647
                                            0.4739 -0.0000
   167. (0.00004) RY*( 5) H  11           s( 11.53%)p 7.67( 88.47%)
   168. (0.00002) RY*( 6) H  11           s( 97.10%)p 0.03(  2.90%)
   169. (0.00086) RY*( 1) H  12           s( 98.81%)p 0.01(  1.19%)
                                           -0.0036  0.9940 -0.0059 -0.0008 -0.0753
                                           -0.0789 -0.0000
   170. (0.00019) RY*( 2) H  12           s( 90.16%)p 0.11(  9.84%)
                                            0.0058  0.0400  0.9485  0.0180  0.1990
                                            0.2424  0.0000
   171. (0.00016) RY*( 3) H  12           s(  0.00%)p 1.00(100.00%)
                                           -0.0000  0.0000 -0.0000 -0.0000 -0.0000
                                           -0.0000  1.0000
   172. (0.00011) RY*( 4) H  12           s( 51.47%)p 0.94( 48.53%)
                                            0.0016  0.0229 -0.0665  0.7140  0.6242
                                           -0.3092  0.0000
   173. (0.00006) RY*( 5) H  12           s( 49.30%)p 1.03( 50.70%)
   174. (0.00003) RY*( 6) H  12           s( 10.31%)p 8.70( 89.69%)
   175. (0.03328) BD*( 1) F   1 - C   2  
                ( 27.27%)   0.5222* F   1 s( 30.04%)p 2.33( 69.88%)d 0.00(  0.08%)
                                            0.0000  0.5480  0.0099  0.0021 -0.0000
                                           -0.8359  0.0127  0.0032  0.0026 -0.0000
                                            0.0000 -0.0000  0.0000 -0.0000  0.0000
                                            0.0000  0.0000  0.0000  0.0000  0.0000
                                            0.0246 -0.0133
                ( 72.73%)  -0.8528* C   2 s( 21.72%)p 3.59( 77.94%)d 0.02(  0.34%)
                                           -0.0001  0.4656 -0.0208  0.0025 -0.0028
                                            0.8814 -0.0447 -0.0171 -0.0153 -0.0000
                                            0.0000 -0.0000 -0.0000  0.0000 -0.0000
                                           -0.0000 -0.0000 -0.0000  0.0000  0.0000
                                            0.0524 -0.0260
   176. (0.02675) BD*( 1) C   2 - C   3  
                ( 50.02%)   0.7073* C   2 s( 39.02%)p 1.56( 60.95%)d 0.00(  0.04%)
                                            0.0000  0.6246  0.0045 -0.0007  0.0006
                                           -0.3302 -0.0211  0.0111 -0.0033 -0.7068
                                            0.0142  0.0054 -0.0008  0.0000 -0.0000
                                            0.0000 -0.0000  0.0127 -0.0000 -0.0000
                                           -0.0123 -0.0076
                ( 49.98%)  -0.7070* C   3 s( 34.02%)p 1.94( 65.92%)d 0.00(  0.06%)
                                            0.0000  0.5832 -0.0056  0.0031  0.0009
                                            0.4190 -0.0405  0.0015  0.0006  0.6942
                                           -0.0003 -0.0102  0.0024 -0.0000  0.0000
                                            0.0000  0.0000  0.0161 -0.0000 -0.0000
                                           -0.0110 -0.0131
   177. (0.02675) BD*( 1) C   2 - C   7  
                ( 50.02%)   0.7073* C   2 s( 39.02%)p 1.56( 60.95%)d 0.00(  0.04%)
                                            0.0000  0.6246  0.0045 -0.0007  0.0006
                                           -0.3302 -0.0211  0.0111 -0.0033  0.7068
                                           -0.0142 -0.0054  0.0008 -0.0000  0.0000
                                            0.0000 -0.0000 -0.0127 -0.0000 -0.0000
                                           -0.0123 -0.0076
                ( 49.98%)  -0.7070* C   7 s( 34.02%)p 1.94( 65.92%)d 0.00(  0.06%)
                                            0.0000  0.5832 -0.0056  0.0031  0.0009
                                            0.4190 -0.0405  0.0015  0.0006 -0.6942
                                            0.0003  0.0102 -0.0024 -0.0000  0.0000
                                           -0.0000  0.0000 -0.0161 -0.0000 -0.0000
                                           -0.0110 -0.0131
   178. (0.37067) BD*( 2) C   2 - C   7  
                ( 51.49%)   0.7176* C   2 s(  0.00%)p 1.00( 99.95%)d 0.00(  0.05%)
                                           -0.0000 -0.0000 -0.0000  0.0000 -0.0000
                                           -0.0000 -0.0000  0.0000  0.0000  0.0000
                                           -0.0000 -0.0000 -0.0000  0.9992  0.0256
                                            0.0196  0.0069 -0.0000 -0.0188  0.0115
                                           -0.0000 -0.0000
                ( 48.51%)  -0.6965* C   7 s(  0.00%)p 1.00( 99.94%)d 0.00(  0.06%)
                                           -0.0000  0.0000 -0.0000 -0.0000  0.0000
                                            0.0000 -0.0000  0.0000  0.0000  0.0000
                                            0.0000  0.0000 -0.0000  0.9993  0.0217
                                            0.0164 -0.0015  0.0000 -0.0014 -0.0242
                                           -0.0000  0.0000
   179. (0.01454) BD*( 1) C   3 - C   4  
                ( 49.45%)   0.7032* C   3 s( 36.39%)p 1.75( 63.57%)d 0.00(  0.04%)
                                            0.0002 -0.6028  0.0215  0.0016  0.0004
                                            0.7959 -0.0183 -0.0087  0.0012  0.0251
                                           -0.0344  0.0054  0.0009  0.0000  0.0000
                                            0.0000 -0.0000  0.0048 -0.0000  0.0000
                                           -0.0159  0.0118
                ( 50.55%)  -0.7110* C   4 s( 35.28%)p 1.83( 64.68%)d 0.00(  0.04%)
                                           -0.0001 -0.5938  0.0137  0.0015  0.0001
                                           -0.8023  0.0210  0.0122 -0.0011  0.0286
                                           -0.0406  0.0045 -0.0007  0.0000  0.0000
                                            0.0000 -0.0000 -0.0025  0.0000 -0.0000
                                           -0.0166  0.0126
   180. (0.34368) BD*( 2) C   3 - C   4  
                ( 48.28%)   0.6949* C   3 s(  0.00%)p 1.00( 99.95%)d 0.00(  0.05%)
                                           -0.0000 -0.0000  0.0000  0.0000 -0.0000
                                            0.0000  0.0000 -0.0000  0.0000  0.0000
                                           -0.0000  0.0000 -0.0000 -0.9995 -0.0191
                                           -0.0149  0.0026 -0.0000  0.0167 -0.0143
                                            0.0000  0.0000
                ( 51.72%)  -0.7191* C   4 s(  0.00%)p 1.00( 99.95%)d 0.00(  0.05%)
                                            0.0000 -0.0000  0.0000 -0.0000  0.0000
                                           -0.0000  0.0000 -0.0000  0.0000  0.0000
                                            0.0000  0.0000  0.0000 -0.9994 -0.0193
                                           -0.0174  0.0015 -0.0000 -0.0187 -0.0111
                                           -0.0000 -0.0000
   181. (0.01234) BD*( 1) C   3 - H   8  
                ( 38.87%)   0.6234* C   3 s( 29.61%)p 2.38( 70.36%)d 0.00(  0.04%)
                                           -0.0003  0.5437  0.0219 -0.0016 -0.0005
                                            0.4338  0.0090 -0.0011 -0.0013 -0.7178
                                           -0.0083  0.0019 -0.0009 -0.0000 -0.0000
                                           -0.0000 -0.0000 -0.0159 -0.0000  0.0000
                                           -0.0063 -0.0093
                ( 61.13%)  -0.7819* H   8 s( 99.95%)p 0.00(  0.05%)
                                            0.9998  0.0013  0.0010  0.0002 -0.0118
                                            0.0183  0.0000
   182. (0.01576) BD*( 1) C   4 - C   5  
                ( 49.87%)   0.7062* C   4 s( 36.18%)p 1.76( 63.78%)d 0.00(  0.04%)
                                           -0.0000 -0.6013  0.0146 -0.0002  0.0001
                                            0.4201 -0.0425 -0.0016  0.0006 -0.6778
                                           -0.0021  0.0102 -0.0001 -0.0000  0.0000
                                            0.0000 -0.0000  0.0132  0.0000 -0.0000
                                            0.0105  0.0120
                ( 50.13%)  -0.7080* C   5 s( 35.59%)p 1.81( 64.36%)d 0.00(  0.05%)
                                           -0.0000 -0.5964  0.0140  0.0004  0.0000
                                           -0.3786 -0.0227  0.0086 -0.0002  0.7059
                                           -0.0381 -0.0064  0.0008  0.0000  0.0000
                                           -0.0000 -0.0000  0.0162  0.0000 -0.0000
                                            0.0063  0.0123
   183. (0.01326) BD*( 1) C   4 - H   9  
                ( 39.54%)   0.6288* C   4 s( 28.55%)p 2.50( 71.40%)d 0.00(  0.04%)
                                           -0.0004  0.5338  0.0241  0.0012  0.0002
                                           -0.4201 -0.0080  0.0002 -0.0010 -0.7329
                                           -0.0166 -0.0011 -0.0017  0.0000  0.0000
                                            0.0000  0.0000  0.0163 -0.0000 -0.0000
                                           -0.0097 -0.0086
                ( 60.46%)  -0.7776* H   9 s( 99.95%)p 0.00(  0.05%)
                                            0.9998  0.0014  0.0010  0.0000  0.0106
                                            0.0192  0.0000
   184. (0.01576) BD*( 1) C   5 - C   6  
                ( 50.13%)   0.7080* C   5 s( 35.59%)p 1.81( 64.36%)d 0.00(  0.05%)
                                            0.0000  0.5964 -0.0140 -0.0004 -0.0000
                                            0.3786  0.0227 -0.0086  0.0002  0.7059
                                           -0.0381 -0.0064  0.0008 -0.0000 -0.0000
                                            0.0000  0.0000  0.0162 -0.0000 -0.0000
                                           -0.0063 -0.0123
                ( 49.87%)  -0.7062* C   6 s( 36.18%)p 1.76( 63.78%)d 0.00(  0.04%)
                                            0.0000  0.6013 -0.0146  0.0002 -0.0001
                                           -0.4201  0.0425  0.0016 -0.0006 -0.6778
                                           -0.0021  0.0102 -0.0001  0.0000 -0.0000
                                           -0.0000  0.0000  0.0132 -0.0000 -0.0000
                                           -0.0105 -0.0120
   185. (0.33802) BD*( 2) C   5 - C   6  
                ( 48.92%)   0.6994* C   5 s(  0.00%)p 1.00( 99.96%)d 0.00(  0.04%)
                                            0.0000  0.0000  0.0000  0.0000  0.0000
                                           -0.0000 -0.0000 -0.0000 -0.0000  0.0000
                                           -0.0000  0.0000 -0.0000 -0.9995 -0.0187
                                           -0.0148  0.0020 -0.0000 -0.0184 -0.0088
                                           -0.0000  0.0000
                ( 51.08%)  -0.7147* C   6 s(  0.00%)p 1.00( 99.96%)d 0.00(  0.04%)
                                            0.0000 -0.0000  0.0000  0.0000  0.0000
                                           -0.0000 -0.0000 -0.0000  0.0000 -0.0000
                                           -0.0000 -0.0000 -0.0000 -0.9996 -0.0154
                                           -0.0148  0.0022  0.0000 -0.0008  0.0208
                                            0.0000 -0.0000
   186. (0.01330) BD*( 1) C   5 - H  10  
                ( 39.52%)   0.6287* C   5 s( 28.84%)p 2.47( 71.12%)d 0.00(  0.04%)
                                           -0.0004  0.5365  0.0240  0.0009  0.0002
                                           -0.8431 -0.0183 -0.0005 -0.0017  0.0000
                                           -0.0000 -0.0000  0.0000  0.0000  0.0000
                                           -0.0000  0.0000  0.0000 -0.0000 -0.0000
                                            0.0189 -0.0084
                ( 60.48%)  -0.7777* H  10 s( 99.95%)p 0.00(  0.05%)
                                            0.9998  0.0013  0.0011 -0.0001  0.0218
                                            0.0000 -0.0000
   187. (0.01454) BD*( 1) C   6 - C   7  
                ( 50.55%)   0.7110* C   6 s( 35.28%)p 1.83( 64.68%)d 0.00(  0.04%)
                                            0.0001  0.5938 -0.0137 -0.0015 -0.0001
                                            0.8023 -0.0210 -0.0122  0.0011  0.0286
                                           -0.0406  0.0045 -0.0007 -0.0000  0.0000
                                            0.0000 -0.0000 -0.0025 -0.0000  0.0000
                                            0.0166 -0.0126
                ( 49.45%)  -0.7032* C   7 s( 36.39%)p 1.75( 63.57%)d 0.00(  0.04%)
                                           -0.0002  0.6028 -0.0215 -0.0016 -0.0004
                                           -0.7959  0.0183  0.0087 -0.0012  0.0251
                                           -0.0344  0.0054  0.0009  0.0000 -0.0000
                                           -0.0000  0.0000  0.0048 -0.0000  0.0000
                                            0.0159 -0.0118
   188. (0.01326) BD*( 1) C   6 - H  11  
                ( 39.54%)   0.6288* C   6 s( 28.55%)p 2.50( 71.40%)d 0.00(  0.04%)
                                            0.0004 -0.5338 -0.0241 -0.0012 -0.0002
                                            0.4201  0.0080 -0.0002  0.0010 -0.7329
                                           -0.0166 -0.0011 -0.0017 -0.0000 -0.0000
                                           -0.0000 -0.0000  0.0163  0.0000 -0.0000
                                            0.0097  0.0086
                ( 60.46%)  -0.7776* H  11 s( 99.95%)p 0.00(  0.05%)
                                           -0.9998 -0.0014 -0.0010 -0.0000 -0.0106
                                            0.0192  0.0000
   189. (0.01234) BD*( 1) C   7 - H  12  
                ( 38.87%)   0.6234* C   7 s( 29.61%)p 2.38( 70.36%)d 0.00(  0.04%)
                                            0.0003 -0.5437 -0.0219  0.0016  0.0005
                                           -0.4338 -0.0090  0.0011  0.0013 -0.7178
                                           -0.0083  0.0019 -0.0009  0.0000 -0.0000
                                           -0.0000  0.0000 -0.0159  0.0000  0.0000
                                            0.0063  0.0093
                ( 61.13%)  -0.7819* H  12 s( 99.95%)p 0.00(  0.05%)
                                           -0.9998 -0.0013 -0.0010 -0.0002  0.0118
                                            0.0183 -0.0000


 NHO Directionality and "Bond Bending" (deviations from line of nuclear centers)

         [Thresholds for printing:  angular deviation  >  1.0 degree]
                                    hybrid p-character > 25.0%
                                    orbital occupancy  >  0.10e

                                Line of Centers        Hybrid 1              Hybrid 2
                                ---------------  -------------------   ------------------
                NBO               Theta   Phi    Theta   Phi    Dev    Theta   Phi    Dev
 ========================================================================================
     2. BD (   1) C   2 - C   3    90.0  241.3    90.0  243.5   2.2      --     --    --
     3. BD (   1) C   2 - C   7    90.0  118.7    90.0  116.5   2.2      --     --    --
     4. BD (   2) C   2 - C   7    90.0  118.7     0.0    0.0  90.0      0.0    0.0  90.0
     6. BD (   2) C   3 - C   4    90.0  179.6     0.0    0.0  90.0      0.0    0.0  90.0
    11. BD (   2) C   5 - C   6    90.0   59.9     0.0    0.0  90.0      0.0    0.0  90.0
    23. LP (   1) F   1             --     --     90.0    0.0   --       --     --    --
    24. LP (   2) F   1             --     --     90.0   90.0   --       --     --    --
    25. LP (   3) F   1             --     --      0.0    0.0   --       --     --    --
   178. BD*(   2) C   2 - C   7    90.0  118.7     0.0    0.0  90.0      0.0    0.0  90.0
   180. BD*(   2) C   3 - C   4    90.0  179.6     0.0    0.0  90.0      0.0    0.0  90.0
   185. BD*(   2) C   5 - C   6    90.0   59.9     0.0    0.0  90.0      0.0    0.0  90.0


 Second Order Perturbation Theory Analysis of Fock Matrix in NBO Basis

     Threshold for printing:   0.50 kcal/mol
                                                                              E(2)  E(j)-E(i) F(i,j)
         Donor NBO (i)                     Acceptor NBO (j)                 kcal/mol   a.u.    a.u. 
 ===================================================================================================

 within unit  1
   1. BD (   1) F   1 - C   2        / 43. RY*(   1) C   2                    0.86    2.15    0.038
   1. BD (   1) F   1 - C   2        /179. BD*(   1) C   3 - C   4            1.18    1.58    0.039
   1. BD (   1) F   1 - C   2        /187. BD*(   1) C   6 - C   7            1.18    1.58    0.039
   2. BD (   1) C   2 - C   3        / 26. RY*(   1) F   1                    0.51    1.24    0.023
   2. BD (   1) C   2 - C   3        / 77. RY*(   1) C   4                    0.95    1.81    0.037
   2. BD (   1) C   2 - C   3        / 78. RY*(   2) C   4                    1.44    2.00    0.048
   2. BD (   1) C   2 - C   3        /128. RY*(   1) C   7                    1.51    1.89    0.048
   2. BD (   1) C   2 - C   3        /129. RY*(   2) C   7                    0.68    1.80    0.031
   2. BD (   1) C   2 - C   3        /177. BD*(   1) C   2 - C   7            4.15    1.28    0.065
   2. BD (   1) C   2 - C   3        /179. BD*(   1) C   3 - C   4            2.54    1.29    0.051
   2. BD (   1) C   2 - C   3        /181. BD*(   1) C   3 - H   8            1.02    1.16    0.031
   2. BD (   1) C   2 - C   3        /183. BD*(   1) C   4 - H   9            2.30    1.16    0.046
   2. BD (   1) C   2 - C   3        /189. BD*(   1) C   7 - H  12            1.93    1.16    0.042
   3. BD (   1) C   2 - C   7        / 26. RY*(   1) F   1                    0.51    1.24    0.023
   3. BD (   1) C   2 - C   7        / 60. RY*(   1) C   3                    1.51    1.89    0.048
   3. BD (   1) C   2 - C   7        / 61. RY*(   2) C   3                    0.68    1.80    0.031
   3. BD (   1) C   2 - C   7        /111. RY*(   1) C   6                    0.95    1.81    0.037
   3. BD (   1) C   2 - C   7        /112. RY*(   2) C   6                    1.44    2.00    0.048
   3. BD (   1) C   2 - C   7        /176. BD*(   1) C   2 - C   3            4.15    1.28    0.065
   3. BD (   1) C   2 - C   7        /181. BD*(   1) C   3 - H   8            1.93    1.16    0.042
   3. BD (   1) C   2 - C   7        /187. BD*(   1) C   6 - C   7            2.54    1.29    0.051
   3. BD (   1) C   2 - C   7        /188. BD*(   1) C   6 - H  11            2.30    1.16    0.046
   3. BD (   1) C   2 - C   7        /189. BD*(   1) C   7 - H  12            1.02    1.16    0.031
   4. BD (   2) C   2 - C   7        / 27. RY*(   2) F   1                    0.90    0.98    0.029
   4. BD (   2) C   2 - C   7        / 64. RY*(   5) C   3                    0.79    1.73    0.036
   4. BD (   2) C   2 - C   7        /114. RY*(   4) C   6                    1.16    1.43    0.040
   4. BD (   2) C   2 - C   7        /180. BD*(   2) C   3 - C   4           18.89    0.29    0.066
   4. BD (   2) C   2 - C   7        /185. BD*(   2) C   5 - C   6           20.97    0.30    0.070
   5. BD (   1) C   3 - C   4        / 44. RY*(   2) C   2                    1.43    2.22    0.051
   5. BD (   1) C   3 - C   4        / 46. RY*(   4) C   2                    0.84    2.56    0.042
   5. BD (   1) C   3 - C   4        / 94. RY*(   1) C   5                    1.01    1.81    0.038
   5. BD (   1) C   3 - C   4        / 95. RY*(   2) C   5                    1.41    1.97    0.047
   5. BD (   1) C   3 - C   4        /175. BD*(   1) F   1 - C   2            4.35    0.97    0.058
   5. BD (   1) C   3 - C   4        /176. BD*(   1) C   2 - C   3            2.43    1.27    0.050
   5. BD (   1) C   3 - C   4        /181. BD*(   1) C   3 - H   8            1.28    1.14    0.034
   5. BD (   1) C   3 - C   4        /182. BD*(   1) C   4 - C   5            2.58    1.28    0.051
   5. BD (   1) C   3 - C   4        /183. BD*(   1) C   4 - H   9            0.77    1.15    0.027
   5. BD (   1) C   3 - C   4        /186. BD*(   1) C   5 - H  10            2.27    1.15    0.046
   6. BD (   2) C   3 - C   4        / 96. RY*(   3) C   5                    1.04    0.78    0.028
   6. BD (   2) C   3 - C   4        /178. BD*(   2) C   2 - C   7           23.14    0.28    0.072
   6. BD (   2) C   3 - C   4        /185. BD*(   2) C   5 - C   6           18.58    0.28    0.065
   7. BD (   1) C   3 - H   8        / 43. RY*(   1) C   2                    1.11    1.67    0.039
   7. BD (   1) C   3 - H   8        / 77. RY*(   1) C   4                    1.33    1.62    0.042
   7. BD (   1) C   3 - H   8        /175. BD*(   1) F   1 - C   2            1.24    0.79    0.028
   7. BD (   1) C   3 - H   8        /176. BD*(   1) C   2 - C   3            0.59    1.09    0.023
   7. BD (   1) C   3 - H   8        /177. BD*(   1) C   2 - C   7            3.94    1.09    0.059
   7. BD (   1) C   3 - H   8        /179. BD*(   1) C   3 - C   4            0.91    1.10    0.028
   7. BD (   1) C   3 - H   8        /182. BD*(   1) C   4 - C   5            3.52    1.10    0.056
   8. BD (   1) C   4 - C   5        / 61. RY*(   2) C   3                    2.06    1.78    0.054
   8. BD (   1) C   4 - C   5        /111. RY*(   1) C   6                    0.95    1.79    0.037
   8. BD (   1) C   4 - C   5        /112. RY*(   2) C   6                    1.48    1.98    0.048
   8. BD (   1) C   4 - C   5        /179. BD*(   1) C   3 - C   4            2.56    1.28    0.051
   8. BD (   1) C   4 - C   5        /181. BD*(   1) C   3 - H   8            2.48    1.14    0.047
   8. BD (   1) C   4 - C   5        /183. BD*(   1) C   4 - H   9            0.96    1.15    0.030
   8. BD (   1) C   4 - C   5        /184. BD*(   1) C   5 - C   6            2.68    1.28    0.052
   8. BD (   1) C   4 - C   5        /186. BD*(   1) C   5 - H  10            0.96    1.15    0.030
   8. BD (   1) C   4 - C   5        /188. BD*(   1) C   6 - H  11            2.40    1.15    0.047
   9. BD (   1) C   4 - H   9        / 60. RY*(   1) C   3                    1.46    1.69    0.045
   9. BD (   1) C   4 - H   9        / 94. RY*(   1) C   5                    1.47    1.62    0.044
   9. BD (   1) C   4 - H   9        /176. BD*(   1) C   2 - C   3            3.17    1.08    0.052
   9. BD (   1) C   4 - H   9        /179. BD*(   1) C   3 - C   4            0.52    1.10    0.021
   9. BD (   1) C   4 - H   9        /182. BD*(   1) C   4 - C   5            0.61    1.10    0.023
   9. BD (   1) C   4 - H   9        /184. BD*(   1) C   5 - C   6            3.71    1.10    0.057
   9. BD (   1) C   4 - H   9        /186. BD*(   1) C   5 - H  10            0.52    0.97    0.020
  10. BD (   1) C   5 - C   6        / 77. RY*(   1) C   4                    0.95    1.79    0.037
  10. BD (   1) C   5 - C   6        / 78. RY*(   2) C   4                    1.48    1.98    0.048
  10. BD (   1) C   5 - C   6        /129. RY*(   2) C   7                    2.06    1.78    0.054
  10. BD (   1) C   5 - C   6        /182. BD*(   1) C   4 - C   5            2.68    1.28    0.052
  10. BD (   1) C   5 - C   6        /183. BD*(   1) C   4 - H   9            2.40    1.15    0.047
  10. BD (   1) C   5 - C   6        /186. BD*(   1) C   5 - H  10            0.96    1.15    0.030
  10. BD (   1) C   5 - C   6        /187. BD*(   1) C   6 - C   7            2.56    1.28    0.051
  10. BD (   1) C   5 - C   6        /188. BD*(   1) C   6 - H  11            0.96    1.15    0.030
  10. BD (   1) C   5 - C   6        /189. BD*(   1) C   7 - H  12            2.48    1.14    0.047
  11. BD (   2) C   5 - C   6        / 79. RY*(   3) C   4                    1.19    1.36    0.039
  11. BD (   2) C   5 - C   6        /130. RY*(   3) C   7                    1.96    0.82    0.039
  11. BD (   2) C   5 - C   6        /178. BD*(   2) C   2 - C   7           19.23    0.27    0.065
  11. BD (   2) C   5 - C   6        /180. BD*(   2) C   3 - C   4           22.09    0.28    0.070
  12. BD (   1) C   5 - H  10        / 77. RY*(   1) C   4                    1.44    1.61    0.043
  12. BD (   1) C   5 - H  10        /111. RY*(   1) C   6                    1.44    1.61    0.043
  12. BD (   1) C   5 - H  10        /179. BD*(   1) C   3 - C   4            3.80    1.09    0.058
  12. BD (   1) C   5 - H  10        /182. BD*(   1) C   4 - C   5            0.62    1.10    0.023
  12. BD (   1) C   5 - H  10        /183. BD*(   1) C   4 - H   9            0.50    0.96    0.020
  12. BD (   1) C   5 - H  10        /184. BD*(   1) C   5 - C   6            0.62    1.10    0.023
  12. BD (   1) C   5 - H  10        /187. BD*(   1) C   6 - C   7            3.80    1.09    0.058
  12. BD (   1) C   5 - H  10        /188. BD*(   1) C   6 - H  11            0.50    0.96    0.020
  13. BD (   1) C   6 - C   7        / 44. RY*(   2) C   2                    1.43    2.22    0.051
  13. BD (   1) C   6 - C   7        / 46. RY*(   4) C   2                    0.84    2.56    0.042
  13. BD (   1) C   6 - C   7        / 94. RY*(   1) C   5                    1.01    1.81    0.038
  13. BD (   1) C   6 - C   7        / 95. RY*(   2) C   5                    1.41    1.97    0.047
  13. BD (   1) C   6 - C   7        /175. BD*(   1) F   1 - C   2            4.35    0.97    0.058
  13. BD (   1) C   6 - C   7        /177. BD*(   1) C   2 - C   7            2.43    1.27    0.050
  13. BD (   1) C   6 - C   7        /184. BD*(   1) C   5 - C   6            2.58    1.28    0.051
  13. BD (   1) C   6 - C   7        /186. BD*(   1) C   5 - H  10            2.27    1.15    0.046
  13. BD (   1) C   6 - C   7        /188. BD*(   1) C   6 - H  11            0.77    1.15    0.027
  13. BD (   1) C   6 - C   7        /189. BD*(   1) C   7 - H  12            1.28    1.14    0.034
  14. BD (   1) C   6 - H  11        / 94. RY*(   1) C   5                    1.47    1.62    0.044
  14. BD (   1) C   6 - H  11        /128. RY*(   1) C   7                    1.46    1.69    0.045
  14. BD (   1) C   6 - H  11        /177. BD*(   1) C   2 - C   7            3.17    1.08    0.052
  14. BD (   1) C   6 - H  11        /182. BD*(   1) C   4 - C   5            3.71    1.10    0.057
  14. BD (   1) C   6 - H  11        /184. BD*(   1) C   5 - C   6            0.61    1.10    0.023
  14. BD (   1) C   6 - H  11        /186. BD*(   1) C   5 - H  10            0.52    0.97    0.020
  14. BD (   1) C   6 - H  11        /187. BD*(   1) C   6 - C   7            0.52    1.10    0.021
  15. BD (   1) C   7 - H  12        / 43. RY*(   1) C   2                    1.11    1.67    0.039
  15. BD (   1) C   7 - H  12        /111. RY*(   1) C   6                    1.33    1.62    0.042
  15. BD (   1) C   7 - H  12        /175. BD*(   1) F   1 - C   2            1.24    0.79    0.028
  15. BD (   1) C   7 - H  12        /176. BD*(   1) C   2 - C   3            3.94    1.09    0.059
  15. BD (   1) C   7 - H  12        /177. BD*(   1) C   2 - C   7            0.59    1.09    0.023
  15. BD (   1) C   7 - H  12        /184. BD*(   1) C   5 - C   6            3.52    1.10    0.056
  15. BD (   1) C   7 - H  12        /187. BD*(   1) C   6 - C   7            0.91    1.10    0.028
  16. CR (   1) F   1                / 43. RY*(   1) C   2                    2.42   25.57    0.222
  17. CR (   1) C   2                / 61. RY*(   2) C   3                    1.67   11.21    0.122
  17. CR (   1) C   2                /129. RY*(   2) C   7                    1.67   11.21    0.122
  17. CR (   1) C   2                /175. BD*(   1) F   1 - C   2            3.20   10.40    0.164
  17. CR (   1) C   2                /176. BD*(   1) C   2 - C   3            1.06   10.70    0.096
  17. CR (   1) C   2                /177. BD*(   1) C   2 - C   7            1.06   10.70    0.096
  17. CR (   1) C   2                /179. BD*(   1) C   3 - C   4            0.58   10.71    0.071
  17. CR (   1) C   2                /187. BD*(   1) C   6 - C   7            0.58   10.71    0.071
  18. CR (   1) C   3                / 44. RY*(   2) C   2                    2.02   11.55    0.137
  18. CR (   1) C   3                / 78. RY*(   2) C   4                    1.62   11.31    0.121
  18. CR (   1) C   3                /175. BD*(   1) F   1 - C   2            0.61   10.30    0.071
  18. CR (   1) C   3                /177. BD*(   1) C   2 - C   7            0.98   10.60    0.091
  18. CR (   1) C   3                /182. BD*(   1) C   4 - C   5            0.72   10.61    0.078
  19. CR (   1) C   4                / 60. RY*(   1) C   3                    0.61   11.21    0.074
  19. CR (   1) C   4                / 61. RY*(   2) C   3                    0.96   11.12    0.092
  19. CR (   1) C   4                / 63. RY*(   4) C   3                    0.51   10.85    0.066
  19. CR (   1) C   4                / 95. RY*(   2) C   5                    1.54   11.31    0.118
  19. CR (   1) C   4                /176. BD*(   1) C   2 - C   3            0.54   10.60    0.068
  19. CR (   1) C   4                /184. BD*(   1) C   5 - C   6            0.69   10.62    0.077
  20. CR (   1) C   5                / 78. RY*(   2) C   4                    1.44   11.31    0.114
  20. CR (   1) C   5                /112. RY*(   2) C   6                    1.44   11.31    0.114
  20. CR (   1) C   5                /179. BD*(   1) C   3 - C   4            0.71   10.61    0.078
  20. CR (   1) C   5                /187. BD*(   1) C   6 - C   7            0.71   10.61    0.078
  21. CR (   1) C   6                / 95. RY*(   2) C   5                    1.54   11.31    0.118
  21. CR (   1) C   6                /128. RY*(   1) C   7                    0.61   11.21    0.074
  21. CR (   1) C   6                /129. RY*(   2) C   7                    0.96   11.12    0.092
  21. CR (   1) C   6                /132. RY*(   5) C   7                    0.51   10.85    0.066
  21. CR (   1) C   6                /177. BD*(   1) C   2 - C   7            0.54   10.60    0.068
  21. CR (   1) C   6                /182. BD*(   1) C   4 - C   5            0.69   10.62    0.077
  22. CR (   1) C   7                / 44. RY*(   2) C   2                    2.02   11.55    0.137
  22. CR (   1) C   7                /112. RY*(   2) C   6                    1.62   11.31    0.121
  22. CR (   1) C   7                /175. BD*(   1) F   1 - C   2            0.61   10.30    0.071
  22. CR (   1) C   7                /176. BD*(   1) C   2 - C   3            0.98   10.60    0.091
  22. CR (   1) C   7                /184. BD*(   1) C   5 - C   6            0.72   10.61    0.078
  23. LP (   1) F   1                / 43. RY*(   1) C   2                    8.01    2.18    0.118
  23. LP (   1) F   1                /176. BD*(   1) C   2 - C   3            1.08    1.60    0.037
  23. LP (   1) F   1                /177. BD*(   1) C   2 - C   7            1.08    1.60    0.037
  24. LP (   2) F   1                / 46. RY*(   4) C   2                    0.97    2.27    0.042
  24. LP (   2) F   1                /176. BD*(   1) C   2 - C   3            5.83    0.98    0.067
  24. LP (   2) F   1                /177. BD*(   1) C   2 - C   7            5.83    0.98    0.067
  25. LP (   3) F   1                / 45. RY*(   3) C   2                    1.75    1.87    0.052
  25. LP (   3) F   1                /178. BD*(   2) C   2 - C   7           17.86    0.43    0.085
 178. BD*(   2) C   2 - C   7        / 45. RY*(   3) C   2                    0.63    1.44    0.062
 178. BD*(   2) C   2 - C   7        / 50. RY*(   8) C   2                    0.59    0.59    0.038
 178. BD*(   2) C   2 - C   7        /130. RY*(   3) C   7                    1.40    0.55    0.057
 178. BD*(   2) C   2 - C   7        /131. RY*(   4) C   7                    0.74    1.56    0.071
 180. BD*(   2) C   3 - C   4        / 62. RY*(   3) C   3                    2.58    0.66    0.089
 180. BD*(   2) C   3 - C   4        / 80. RY*(   4) C   4                    1.60    1.04    0.088
 185. BD*(   2) C   5 - C   6        / 96. RY*(   3) C   5                    2.91    0.50    0.082
 185. BD*(   2) C   5 - C   6        /104. RY*(  11) C   5                    0.59    0.35    0.031
 185. BD*(   2) C   5 - C   6        /113. RY*(   3) C   6                    1.47    0.99    0.083
 185. BD*(   2) C   5 - C   6        /121. RY*(  11) C   6                    0.72    0.39    0.036
 185. BD*(   2) C   5 - C   6        /130. RY*(   3) C   7                    0.68    0.54    0.042


 Natural Bond Orbitals (Summary):

                                                            Principal Delocalizations
           NBO                        Occupancy    Energy   (geminal,vicinal,remote)
 ====================================================================================
 Molecular unit  1  (C6H5F)
     1. BD (   1) F   1 - C   2          1.99574    -1.01556  179(v),187(v),43(g)
     2. BD (   1) C   2 - C   3          1.98066    -0.72778  177(g),179(g),183(v),189(v)
                                                    128(v),78(v),181(g),77(v)
                                                    129(v),26(v)
     3. BD (   1) C   2 - C   7          1.98066    -0.72778  176(g),187(g),188(v),181(v)
                                                    60(v),112(v),189(g),111(v)
                                                    61(v),26(v)
     4. BD (   2) C   2 - C   7          1.65975    -0.27617  185(v),180(v),114(v),27(v)
                                                    64(v)
     5. BD (   1) C   3 - C   4          1.97453    -0.71129  175(v),182(g),176(g),186(v)
                                                    44(v),95(v),181(g),94(v)
                                                    46(v),183(g)
     6. BD (   2) C   3 - C   4          1.67921    -0.26492  178(v),185(v),96(v)
     7. BD (   1) C   3 - H   8          1.97733    -0.53428  177(v),182(v),77(v),175(v)
                                                    43(v),179(g),176(g)
     8. BD (   1) C   4 - C   5          1.97996    -0.70896  184(g),179(g),181(v),188(v)
                                                    61(v),112(v),183(g),186(g)
                                                    111(v)
     9. BD (   1) C   4 - H   9          1.98025    -0.52859  184(v),176(v),94(v),60(v)
                                                    182(g),179(g),186(v)
    10. BD (   1) C   5 - C   6          1.97996    -0.70896  182(g),187(g),189(v),183(v)
                                                    129(v),78(v),188(g),186(g)
                                                    77(v)
    11. BD (   2) C   5 - C   6          1.66769    -0.26136  180(v),178(v),130(v),79(v)
    12. BD (   1) C   5 - H  10          1.97990    -0.52572  179(v),187(v),77(v),111(v)
                                                    182(g),184(g)
    13. BD (   1) C   6 - C   7          1.97453    -0.71129  175(v),184(g),177(g),186(v)
                                                    44(v),95(v),189(g),94(v)
                                                    46(v),188(g)
    14. BD (   1) C   6 - H  11          1.98025    -0.52859  182(v),177(v),94(v),128(v)
                                                    184(g),187(g),186(v)
    15. BD (   1) C   7 - H  12          1.97733    -0.53428  176(v),184(v),111(v),175(v)
                                                    43(v),187(g),177(g)
    16. CR (   1) F   1                  1.99993   -24.43130  43(v)
    17. CR (   1) C   2                  1.99848   -10.14125  175(g),61(v),129(v),176(g)
                                                    177(g),179(v),187(v)
    18. CR (   1) C   3                  1.99904   -10.04455  44(v),78(v),177(v),182(v)
                                                    175(v)
    19. CR (   1) C   4                  1.99918   -10.04780  95(v),61(v),184(v),60(v)
                                                    176(v),63(v)
    20. CR (   1) C   5                  1.99915   -10.04058  78(v),112(v),179(v),187(v)
    21. CR (   1) C   6                  1.99918   -10.04780  95(v),129(v),182(v),128(v)
                                                    177(v),132(v)
    22. CR (   1) C   7                  1.99904   -10.04455  44(v),112(v),176(v),184(v)
                                                    175(v)
    23. LP (   1) F   1                  1.98962    -1.04038  43(v),176(v),177(v)
    24. LP (   2) F   1                  1.97290    -0.42088  176(v),177(v),46(v)
    25. LP (   3) F   1                  1.92842    -0.42007  178(v),45(v)
    26. RY*(   1) F   1                  0.00251     0.51500   
    27. RY*(   2) F   1                  0.00135     0.70399   
    28. RY*(   3) F   1                  0.00048     0.52740   
    29. RY*(   4) F   1                  0.00013     1.79068   
    30. RY*(   5) F   1                  0.00002     2.56222   
    31. RY*(   6) F   1                  0.00001     1.49849   
    32. RY*(   7) F   1                  0.00002     1.47246   
    33. RY*(   8) F   1                  0.00001     1.44318   
    34. RY*(   9) F   1                  0.00001     3.88755   
    35. RY*(  10) F   1                  0.00000     5.08179   
    36. RY*(  11) F   1                  0.00000    66.57517   
    37. RY*(  12) F   1                  0.00000     6.25796   
    38. RY*(  13) F   1                  0.00000     6.32897   
    39. RY*(  14) F   1                  0.00000     3.33631   
    40. RY*(  15) F   1                  0.00000     3.77329   
    41. RY*(  16) F   1                  0.00000     3.85418   
    42. RY*(  17) F   1                  0.00000     3.71586   
    43. RY*(   1) C   2                  0.00823     1.13684   
    44. RY*(   2) C   2                  0.00414     1.50381   
    45. RY*(   3) C   2                  0.00240     1.44719   
    46. RY*(   4) C   2                  0.00200     1.84992   
    47. RY*(   5) C   2                  0.00186     1.56793   
    48. RY*(   6) C   2                  0.00080     1.64145   
    49. RY*(   7) C   2                  0.00024     1.39933   
    50. RY*(   8) C   2                  0.00018     0.59927   
    51. RY*(   9) C   2                  0.00012     3.79548   
    52. RY*(  10) C   2                  0.00007     2.55279   
    53. RY*(  11) C   2                  0.00003     1.85644   
    54. RY*(  12) C   2                  0.00000     2.67731   
    55. RY*(  13) C   2                  0.00001     0.80065   
    56. RY*(  14) C   2                  0.00000    20.19975   
    57. RY*(  15) C   2                  0.00000     1.06794   
    58. RY*(  16) C   2                  0.00001     2.26131   
    59. RY*(  17) C   2                  0.00000     0.34265   
    60. RY*(   1) C   3                  0.00510     1.16613   
    61. RY*(   2) C   3                  0.00277     1.06895   
    62. RY*(   3) C   3                  0.00092     0.67736   
    63. RY*(   4) C   3                  0.00054     0.80488   
    64. RY*(   5) C   3                  0.00052     1.45482   
    65. RY*(   6) C   3                  0.00025     2.06794   
    66. RY*(   7) C   3                  0.00015     2.38388   
    67. RY*(   8) C   3                  0.00008     1.50996   
    68. RY*(   9) C   3                  0.00008     0.91364   
    69. RY*(  10) C   3                  0.00004     3.40829   
    70. RY*(  11) C   3                  0.00004     1.39384   
    71. RY*(  12) C   3                  0.00000     2.74153   
    72. RY*(  13) C   3                  0.00001     2.22115   
    73. RY*(  14) C   3                  0.00000    21.60981   
    74. RY*(  15) C   3                  0.00000     0.96868   
    75. RY*(  16) C   3                  0.00001     1.33962   
    76. RY*(  17) C   3                  0.00000     1.80021   
    77. RY*(   1) C   4                  0.00576     1.08272   
    78. RY*(   2) C   4                  0.00224     1.27001   
    79. RY*(   3) C   4                  0.00072     1.10306   
    80. RY*(   4) C   4                  0.00053     1.06059   
    81. RY*(   5) C   4                  0.00036     1.06759   
    82. RY*(   6) C   4                  0.00025     1.02430   
    83. RY*(   7) C   4                  0.00011     2.94398   
    84. RY*(   8) C   4                  0.00007     1.91041   
    85. RY*(   9) C   4                  0.00005     2.53270   
    86. RY*(  10) C   4                  0.00001     2.53898   
    87. RY*(  11) C   4                  0.00001     0.40696   
    88. RY*(  12) C   4                  0.00000     2.73686   
    89. RY*(  13) C   4                  0.00001     1.13095   
    90. RY*(  14) C   4                  0.00000    21.28589   
    91. RY*(  15) C   4                  0.00001     1.42989   
    92. RY*(  16) C   4                  0.00000     2.24659   
    93. RY*(  17) C   4                  0.00000     1.49816   
    94. RY*(   1) C   5                  0.00599     1.09616   
    95. RY*(   2) C   5                  0.00217     1.25737   
    96. RY*(   3) C   5                  0.00081     0.51644   
    97. RY*(   4) C   5                  0.00054     1.64063   
    98. RY*(   5) C   5                  0.00037     0.86021   
    99. RY*(   6) C   5                  0.00026     1.24428   
   100. RY*(   7) C   5                  0.00011     2.55543   
   101. RY*(   8) C   5                  0.00007     3.00260   
   102. RY*(   9) C   5                  0.00004     2.00163   
   103. RY*(  10) C   5                  0.00002     1.50044   
   104. RY*(  11) C   5                  0.00000     0.37212   
   105. RY*(  12) C   5                  0.00000     2.74002   
   106. RY*(  13) C   5                  0.00000     2.68553   
   107. RY*(  14) C   5                  0.00000     1.47896   
   108. RY*(  15) C   5                  0.00000     1.65422   
   109. RY*(  16) C   5                  0.00000    20.99323   
   110. RY*(  17) C   5                  0.00001     1.67800   
   111. RY*(   1) C   6                  0.00576     1.08272   
   112. RY*(   2) C   6                  0.00224     1.27001   
   113. RY*(   3) C   6                  0.00080     1.01103   
   114. RY*(   4) C   6                  0.00048     1.15287   
   115. RY*(   5) C   6                  0.00036     1.06759   
   116. RY*(   6) C   6                  0.00025     1.02430   
   117. RY*(   7) C   6                  0.00011     2.94398   
   118. RY*(   8) C   6                  0.00007     1.91041   
   119. RY*(   9) C   6                  0.00005     2.53270   
   120. RY*(  10) C   6                  0.00002     2.52040   
   121. RY*(  11) C   6                  0.00001     0.40872   
   122. RY*(  12) C   6                  0.00000     2.73569   
   123. RY*(  13) C   6                  0.00000    21.00580   
   124. RY*(  14) C   6                  0.00001     1.00562   
   125. RY*(  15) C   6                  0.00001     1.42871   
   126. RY*(  16) C   6                  0.00000     2.62425   
   127. RY*(  17) C   6                  0.00000     1.54449   
   128. RY*(   1) C   7                  0.00510     1.16613   
   129. RY*(   2) C   7                  0.00277     1.06895   
   130. RY*(   3) C   7                  0.00084     0.56115   
   131. RY*(   4) C   7                  0.00057     1.56935   
   132. RY*(   5) C   7                  0.00054     0.80488   
   133. RY*(   6) C   7                  0.00025     2.06794   
   134. RY*(   7) C   7                  0.00015     2.38388   
   135. RY*(   8) C   7                  0.00008     1.50996   
   136. RY*(   9) C   7                  0.00008     0.91553   
   137. RY*(  10) C   7                  0.00004     3.40753   
   138. RY*(  11) C   7                  0.00004     1.39460   
   139. RY*(  12) C   7                  0.00000     2.73843   
   140. RY*(  13) C   7                  0.00001     2.21244   
   141. RY*(  14) C   7                  0.00000    21.59779   
   142. RY*(  15) C   7                  0.00000     0.97178   
   143. RY*(  16) C   7                  0.00001     1.35900   
   144. RY*(  17) C   7                  0.00000     1.80156   
   145. RY*(   1) H   8                  0.00086     0.71888   
   146. RY*(   2) H   8                  0.00019     2.24312   
   147. RY*(   3) H   8                  0.00016     1.59176   
   148. RY*(   4) H   8                  0.00011     1.08808   
   149. RY*(   5) H   8                  0.00006     1.13599   
   150. RY*(   6) H   8                  0.00003     2.47582   
   151. RY*(   1) H   9                  0.00074     0.64001   
   152. RY*(   2) H   9                  0.00021     2.27515   
   153. RY*(   3) H   9                  0.00019     1.58371   
   154. RY*(   4) H   9                  0.00012     1.95809   
   155. RY*(   5) H   9                  0.00004     2.44143   
   156. RY*(   6) H   9                  0.00002     0.27202   
   157. RY*(   1) H  10                  0.00074     0.71083   
   158. RY*(   2) H  10                  0.00020     2.23804   
   159. RY*(   3) H  10                  0.00021     1.58760   
   160. RY*(   4) H  10                  0.00012     1.96438   
   161. RY*(   5) H  10                  0.00002     0.24063   
   162. RY*(   6) H  10                  0.00003     2.45731   
   163. RY*(   1) H  11                  0.00074     0.64001   
   164. RY*(   2) H  11                  0.00021     2.27515   
   165. RY*(   3) H  11                  0.00019     1.58371   
   166. RY*(   4) H  11                  0.00012     1.95809   
   167. RY*(   5) H  11                  0.00004     2.44143   
   168. RY*(   6) H  11                  0.00002     0.27202   
   169. RY*(   1) H  12                  0.00086     0.71888   
   170. RY*(   2) H  12                  0.00019     2.24312   
   171. RY*(   3) H  12                  0.00016     1.59176   
   172. RY*(   4) H  12                  0.00011     1.08808   
   173. RY*(   5) H  12                  0.00006     1.13599   
   174. RY*(   6) H  12                  0.00003     2.47582   
   175. BD*(   1) F   1 - C   2          0.03328     0.25497   
   176. BD*(   1) C   2 - C   3          0.02675     0.55585   
   177. BD*(   1) C   2 - C   7          0.02675     0.55585   
   178. BD*(   2) C   2 - C   7          0.37067     0.01135  180(v),185(v),130(g),131(g)
                                                    45(g),50(g)
   179. BD*(   1) C   3 - C   4          0.01454     0.56671   
   180. BD*(   2) C   3 - C   4          0.34368     0.01626  185(v),178(v),62(g),80(g)
   181. BD*(   1) C   3 - H   8          0.01234     0.42758   
   182. BD*(   1) C   4 - C   5          0.01576     0.56992   
   183. BD*(   1) C   4 - H   9          0.01326     0.43682   
   184. BD*(   1) C   5 - C   6          0.01576     0.56992   
   185. BD*(   2) C   5 - C   6          0.33802     0.02000  180(v),178(v),96(g),113(g)
                                                    121(g),130(v),104(g)
   186. BD*(   1) C   5 - H  10          0.01330     0.43923   
   187. BD*(   1) C   6 - C   7          0.01454     0.56671   
   188. BD*(   1) C   6 - H  11          0.01326     0.43682   
   189. BD*(   1) C   7 - H  12          0.01234     0.42758   
       -------------------------------
              Total Lewis   48.65267  ( 97.3053%)
        Valence non-Lewis    1.26424  (  2.5285%)
        Rydberg non-Lewis    0.08309  (  0.1662%)
       -------------------------------
            Total unit  1   50.00000  (100.0000%)
           Charge unit  1    0.00000
 Unable to Open any file for archive entry.
 1\1\GINC-CCC115\FOpt\RB3LYP\6-311++G(d,p)\C6H5F1\ROOT\12-Jun-2024\0\\#
  opt freq b3lyp/6-311++g(d,p) pop=nbo geom=connectivity\\Fc1ccccc1\\0,
 1\F,1.692644215,-2.1008133437,-0.0235206019\C,0.8413753046,-1.04426697
 61,-0.0116918164\C,-0.5232130755,-1.2884442026,-0.0251361762\C,-1.3907
 463257,-0.1969366405,-0.012833887\C,-0.8896857239,1.1042271099,0.01236
 31357\C,0.488496082,1.3167581261,0.0253714055\C,1.3704675811,0.2368803
 02,0.0133625214\H,-0.8866997545,-2.3082468551,-0.0446840203\H,-2.46105
 23694,-0.3678934986,-0.0230350385\H,-1.5693914228,1.9478389979,0.02180
 86482\H,0.8833926284,2.3259946785,0.0449580696\H,2.4444128531,0.374902
 3144,0.0230377627\\Version=ES64L-G16RevC.02\State=1-A\HF=-331.5801939\
 RMSD=5.550e-09\RMSF=5.243e-05\Dipole=-0.4322139,0.5364393,0.0060061\Qu
 adrupole=1.9468049,0.8696645,-2.8164695,2.4693342,0.0739824,0.0786151\
 PG=C01 [X(C6H5F1)]\\@
 The archive entry for this job was punched.


 WE HAVE SEEN THAT MAN ON THE AVERAGE DOES NOT LIVE ABOVE
 TWO-AND-TWENTY YEARS.  DURING THESE TWO AND TWENTY
 YEARS HE IS LIABLE TO TWO AND TWENTY THOUSAND EVILS,
 MANY OF WHICH ARE INCURABLE.  YET EVEN IN THIS DREADFUL STATE
 MEN STILL STRUT AND POSE ON THE STAGE OF LIFE.
 THEY MAKE LOVE AT THE RISK OF DESTRUCTION,
 INTRIGUE, CARRY ON WAR, AND FORM PROJECTS, JUST AS IF THEY
 WERE TO LIVE IN LUXURY AND HAPPINESS FOR A THOUSAND
 AGES.

                                              -- VOLTAIRE
 Job cpu time:       0 days  0 hours  3 minutes 46.8 seconds.
 Elapsed time:       0 days  0 hours  0 minutes 43.2 seconds.
 File lengths (MBytes):  RWF=     22 Int=      0 D2E=      0 Chk=      4 Scr=      1
 Normal termination of Gaussian 16 at Wed Jun 12 21:58:32 2024.
 Link1:  Proceeding to internal job step number  2.
 ----------------------------------------------------------------------
 #N Geom=AllCheck Guess=TCheck SCRF=Check GenChk RB3LYP/6-311++G(d,p) F
 req
 ----------------------------------------------------------------------
 1/10=4,29=7,30=1,38=1,40=1/1,3;
 2/12=2,40=1/2;
 3/5=4,6=6,7=1111,11=2,14=-4,25=1,30=1,70=2,71=2,74=-5,116=1,140=1/1,2,3;
 4/5=101/1;
 5/5=2,38=6,98=1/2;
 8/6=4,10=90,11=11/1;
 11/6=1,8=1,9=11,15=111,16=1/1,2,10;
 10/6=1/2;
 6/7=2,8=2,9=2,10=2,28=1,40=1/1,7;
 7/8=1,10=1,25=1/1,2,3,16;
 1/10=4,30=1/3;
 99//99;
 Structure from the checkpoint file:  "Fc1ccccc1.chk"
 ---------
 Fc1ccccc1
 ---------
 Charge =  0 Multiplicity = 1
 Redundant internal coordinates found in file.  (old form).
 F,0,1.692644215,-2.1008133437,-0.0235206019
 C,0,0.8413753046,-1.0442669761,-0.0116918164
 C,0,-0.5232130755,-1.2884442026,-0.0251361762
 C,0,-1.3907463257,-0.1969366405,-0.012833887
 C,0,-0.8896857239,1.1042271099,0.0123631357
 C,0,0.488496082,1.3167581261,0.0253714055
 C,0,1.3704675811,0.236880302,0.0133625214
 H,0,-0.8866997545,-2.3082468551,-0.0446840203
 H,0,-2.4610523694,-0.3678934986,-0.0230350385
 H,0,-1.5693914228,1.9478389979,0.0218086482
 H,0,0.8833926284,2.3259946785,0.0449580696
 H,0,2.4444128531,0.3749023144,0.0230377627
 Recover connectivity data from disk.

 GradGradGradGradGradGradGradGradGradGradGradGradGradGradGradGradGradGrad
 Berny optimization.
 Initialization pass.
                           ----------------------------
                           !    Initial Parameters    !
                           ! (Angstroms and Degrees)  !
 --------------------------                            --------------------------
 ! Name  Definition              Value          Derivative Info.                !
 --------------------------------------------------------------------------------
 ! R1    R(1,2)                  1.3569         calculate D2E/DX2 analytically  !
 ! R2    R(2,3)                  1.3863         calculate D2E/DX2 analytically  !
 ! R3    R(2,7)                  1.3863         calculate D2E/DX2 analytically  !
 ! R4    R(3,4)                  1.3943         calculate D2E/DX2 analytically  !
 ! R5    R(3,8)                  1.0828         calculate D2E/DX2 analytically  !
 ! R6    R(4,5)                  1.3945         calculate D2E/DX2 analytically  !
 ! R7    R(4,9)                  1.0839         calculate D2E/DX2 analytically  !
 ! R8    R(5,6)                  1.3945         calculate D2E/DX2 analytically  !
 ! R9    R(5,10)                 1.0834         calculate D2E/DX2 analytically  !
 ! R10   R(6,7)                  1.3943         calculate D2E/DX2 analytically  !
 ! R11   R(6,11)                 1.0839         calculate D2E/DX2 analytically  !
 ! R12   R(7,12)                 1.0828         calculate D2E/DX2 analytically  !
 ! A1    A(1,2,3)              118.7055         calculate D2E/DX2 analytically  !
 ! A2    A(1,2,7)              118.7055         calculate D2E/DX2 analytically  !
 ! A3    A(3,2,7)              122.5891         calculate D2E/DX2 analytically  !
 ! A4    A(2,3,4)              118.3245         calculate D2E/DX2 analytically  !
 ! A5    A(2,3,8)              119.7672         calculate D2E/DX2 analytically  !
 ! A6    A(4,3,8)              121.9083         calculate D2E/DX2 analytically  !
 ! A7    A(3,4,5)              120.465          calculate D2E/DX2 analytically  !
 ! A8    A(3,4,9)              119.3946         calculate D2E/DX2 analytically  !
 ! A9    A(5,4,9)              120.1404         calculate D2E/DX2 analytically  !
 ! A10   A(4,5,6)              119.832          calculate D2E/DX2 analytically  !
 ! A11   A(4,5,10)             120.084          calculate D2E/DX2 analytically  !
 ! A12   A(6,5,10)             120.084          calculate D2E/DX2 analytically  !
 ! A13   A(5,6,7)              120.465          calculate D2E/DX2 analytically  !
 ! A14   A(5,6,11)             120.1404         calculate D2E/DX2 analytically  !
 ! A15   A(7,6,11)             119.3946         calculate D2E/DX2 analytically  !
 ! A16   A(2,7,6)              118.3245         calculate D2E/DX2 analytically  !
 ! A17   A(2,7,12)             119.7672         calculate D2E/DX2 analytically  !
 ! A18   A(6,7,12)             121.9083         calculate D2E/DX2 analytically  !
 ! D1    D(1,2,3,4)            180.0            calculate D2E/DX2 analytically  !
 ! D2    D(1,2,3,8)              0.0            calculate D2E/DX2 analytically  !
 ! D3    D(7,2,3,4)              0.0            calculate D2E/DX2 analytically  !
 ! D4    D(7,2,3,8)            180.0            calculate D2E/DX2 analytically  !
 ! D5    D(1,2,7,6)           -180.0            calculate D2E/DX2 analytically  !
 ! D6    D(1,2,7,12)             0.0            calculate D2E/DX2 analytically  !
 ! D7    D(3,2,7,6)              0.0            calculate D2E/DX2 analytically  !
 ! D8    D(3,2,7,12)          -180.0            calculate D2E/DX2 analytically  !
 ! D9    D(2,3,4,5)              0.0            calculate D2E/DX2 analytically  !
 ! D10   D(2,3,4,9)            180.0            calculate D2E/DX2 analytically  !
 ! D11   D(8,3,4,5)            180.0            calculate D2E/DX2 analytically  !
 ! D12   D(8,3,4,9)              0.0            calculate D2E/DX2 analytically  !
 ! D13   D(3,4,5,6)              0.0            calculate D2E/DX2 analytically  !
 ! D14   D(3,4,5,10)          -180.0            calculate D2E/DX2 analytically  !
 ! D15   D(9,4,5,6)           -180.0            calculate D2E/DX2 analytically  !
 ! D16   D(9,4,5,10)             0.0            calculate D2E/DX2 analytically  !
 ! D17   D(4,5,6,7)              0.0            calculate D2E/DX2 analytically  !
 ! D18   D(4,5,6,11)           180.0            calculate D2E/DX2 analytically  !
 ! D19   D(10,5,6,7)           180.0            calculate D2E/DX2 analytically  !
 ! D20   D(10,5,6,11)            0.0            calculate D2E/DX2 analytically  !
 ! D21   D(5,6,7,2)              0.0            calculate D2E/DX2 analytically  !
 ! D22   D(5,6,7,12)          -180.0            calculate D2E/DX2 analytically  !
 ! D23   D(11,6,7,2)           180.0            calculate D2E/DX2 analytically  !
 ! D24   D(11,6,7,12)            0.0            calculate D2E/DX2 analytically  !
 --------------------------------------------------------------------------------
 Trust Radius=3.00D-01 FncErr=1.00D-07 GrdErr=1.00D-07 EigMax=2.50D+02 EigMin=1.00D-04
 Number of steps in this run=      2 maximum allowed number of steps=      2.
 GradGradGradGradGradGradGradGradGradGradGradGradGradGradGradGradGradGrad

                          Input orientation:                          
 ---------------------------------------------------------------------
 Center     Atomic      Atomic             Coordinates (Angstroms)
 Number     Number       Type             X           Y           Z
 ---------------------------------------------------------------------
      1          9           0        1.692644   -2.100813   -0.023521
      2          6           0        0.841375   -1.044267   -0.011692
      3          6           0       -0.523213   -1.288444   -0.025136
      4          6           0       -1.390746   -0.196937   -0.012834
      5          6           0       -0.889686    1.104227    0.012363
      6          6           0        0.488496    1.316758    0.025371
      7          6           0        1.370468    0.236880    0.013363
      8          1           0       -0.886700   -2.308247   -0.044684
      9          1           0       -2.461052   -0.367893   -0.023035
     10          1           0       -1.569391    1.947839    0.021809
     11          1           0        0.883393    2.325995    0.044958
     12          1           0        2.444413    0.374902    0.023038
 ---------------------------------------------------------------------
                    Distance matrix (angstroms):
                    1          2          3          4          5
     1  F    0.000000
     2  C    1.356867   0.000000
     3  C    2.360078   1.386328   0.000000
     4  C    3.623832   2.387538   1.394329   0.000000
     5  C    4.116066   2.759199   2.420864   1.394534   0.000000
     6  C    3.623832   2.387538   2.795208   2.413355   1.394534
     7  C    2.360078   1.386328   2.431897   2.795208   2.420864
     8  H    2.587758   2.141256   1.082821   2.170877   3.412952
     9  H    4.500690   3.371000   2.145376   1.083921   2.153505
    10  H    5.199473   3.842605   3.401503   2.152482   1.083407
    11  H    4.500690   3.371000   3.879126   3.397091   2.153505
    12  H    2.587758   2.141256   3.402329   3.877723   3.412952
                    6          7          8          9         10
     6  C    0.000000
     7  C    1.394329   0.000000
     8  H    3.877723   3.402330   0.000000
     9  H    3.397091   3.879126   2.498805   0.000000
    10  H    2.152482   3.401503   4.311004   2.481872   0.000000
    11  H    1.083921   2.145376   4.961598   4.294993   2.481872
    12  H    2.170877   1.082821   4.277872   4.961598   4.311004
                   11         12
    11  H    0.000000
    12  H    2.498805   0.000000
 Stoichiometry    C6H5F
 Framework group  C1[X(C6H5F)]
 Deg. of freedom    30
 Full point group                 C1      NOp   1
 Largest Abelian subgroup         C1      NOp   1
 Largest concise Abelian subgroup C1      NOp   1
                         Standard orientation:                         
 ---------------------------------------------------------------------
 Center     Atomic      Atomic             Coordinates (Angstroms)
 Number     Number       Type             X           Y           Z
 ---------------------------------------------------------------------
      1          9           0        2.282757    0.000000    0.000000
      2          6           0        0.925889    0.000000   -0.000000
      3          6           0        0.260026   -1.215949   -0.000000
      4          6           0       -1.134272   -1.206678   -0.000000
      5          6           0       -1.833309    0.000000    0.000000
      6          6           0       -1.134272    1.206678    0.000000
      7          6           0        0.260026    1.215949   -0.000000
      8          1           0        0.826239   -2.138936   -0.000000
      9          1           0       -1.672552   -2.147497   -0.000000
     10          1           0       -2.916716    0.000000    0.000001
     11          1           0       -1.672552    2.147497    0.000000
     12          1           0        0.826239    2.138936   -0.000000
 ---------------------------------------------------------------------
 Rotational constants (GHZ):           5.6817487           2.5625162           1.7660244
 Standard basis: 6-311++G(d,p) (5D, 7F)
 There are   196 symmetry adapted cartesian basis functions of A   symmetry.
 There are   189 symmetry adapted basis functions of A   symmetry.
   189 basis functions,   297 primitive gaussians,   196 cartesian basis functions
    25 alpha electrons       25 beta electrons
       nuclear repulsion energy       269.1981235312 Hartrees.
 NAtoms=   12 NActive=   12 NUniq=   12 SFac= 1.00D+00 NAtFMM=   60 NAOKFM=F Big=F
 Integral buffers will be    131072 words long.
 Raffenetti 2 integral format.
 Two-electron integral symmetry is turned on.
 One-electron integrals computed using PRISM.
 NBasis=   189 RedAO= T EigKep=  1.62D-06  NBF=   189
 NBsUse=   189 1.00D-06 EigRej= -1.00D+00 NBFU=   189
 Initial guess from the checkpoint file:  "Fc1ccccc1.chk"
 B after Tr=     0.000000    0.000000    0.000000
         Rot=    1.000000   -0.000000   -0.000000    0.000000 Ang=   0.00 deg.
 Keep R1 ints in memory in canonical form, NReq=169410400.
 Requested convergence on RMS density matrix=1.00D-08 within 128 cycles.
 Requested convergence on MAX density matrix=1.00D-06.
 Requested convergence on             energy=1.00D-06.
 No special actions if energy rises.
 SCF Done:  E(RB3LYP) =  -331.580193854     A.U. after    1 cycles
            NFock=  1  Conv=0.28D-08     -V/T= 2.0040
 DoSCS=F DFT=T ScalE2(SS,OS)=  1.000000  1.000000
 Range of M.O.s used for correlation:     1   189
 NBasis=   189 NAE=    25 NBE=    25 NFC=     0 NFV=     0
 NROrb=    189 NOA=    25 NOB=    25 NVA=   164 NVB=   164

 **** Warning!!: The largest alpha MO coefficient is  0.17464548D+03

 Symmetrizing basis deriv contribution to polar:
 IMax=3 JMax=2 DiffMx= 0.00D+00
 G2DrvN: will do    13 centers at a time, making    1 passes.
 Calling FoFCou, ICntrl=  3107 FMM=F I1Cent=   0 AccDes= 0.00D+00.
 End of G2Drv F.D. properties file   721 does not exist.
 End of G2Drv F.D. properties file   722 does not exist.
 End of G2Drv F.D. properties file   788 does not exist.
          IDoAtm=111111111111
          Differentiating once with respect to electric field.
                with respect to dipole field.
          Differentiating once with respect to nuclear coordinates.
 Keep R1 ints in memory in canonical form, NReq=169394735.
          There are    39 degrees of freedom in the 1st order CPHF.  IDoFFX=6 NUNeed=     3.
     36 vectors produced by pass  0 Test12= 1.05D-14 2.56D-09 XBig12= 9.74D+01 6.19D+00.
 AX will form    36 AO Fock derivatives at one time.
     36 vectors produced by pass  1 Test12= 1.05D-14 2.56D-09 XBig12= 2.12D+01 9.28D-01.
     36 vectors produced by pass  2 Test12= 1.05D-14 2.56D-09 XBig12= 1.54D-01 7.62D-02.
     36 vectors produced by pass  3 Test12= 1.05D-14 2.56D-09 XBig12= 5.99D-04 6.58D-03.
     36 vectors produced by pass  4 Test12= 1.05D-14 2.56D-09 XBig12= 1.38D-06 3.11D-04.
     33 vectors produced by pass  5 Test12= 1.05D-14 2.56D-09 XBig12= 1.89D-09 8.89D-06.
      8 vectors produced by pass  6 Test12= 1.05D-14 2.56D-09 XBig12= 1.89D-12 1.64D-07.
      2 vectors produced by pass  7 Test12= 1.05D-14 2.56D-09 XBig12= 1.57D-15 6.00D-09.
 InvSVY:  IOpt=1 It=  1 EMax= 1.78D-15
 Solved reduced A of dimension   223 with    39 vectors.
 Isotropic polarizability for W=    0.000000       66.15 Bohr**3.
 End of Minotr F.D. properties file   721 does not exist.
 End of Minotr F.D. properties file   722 does not exist.
 End of Minotr F.D. properties file   788 does not exist.

 **********************************************************************

            Population analysis using the SCF Density.

 **********************************************************************

 Orbital symmetries:
       Occupied  (A) (A) (A) (A) (A) (A) (A) (A) (A) (A) (A) (A)
                 (A) (A) (A) (A) (A) (A) (A) (A) (A) (A) (A) (A)
                 (A)
       Virtual   (A) (A) (A) (A) (A) (A) (A) (A) (A) (A) (A) (A)
                 (A) (A) (A) (A) (A) (A) (A) (A) (A) (A) (A) (A)
                 (A) (A) (A) (A) (A) (A) (A) (A) (A) (A) (A) (A)
                 (A) (A) (A) (A) (A) (A) (A) (A) (A) (A) (A) (A)
                 (A) (A) (A) (A) (A) (A) (A) (A) (A) (A) (A) (A)
                 (A) (A) (A) (A) (A) (A) (A) (A) (A) (A) (A) (A)
                 (A) (A) (A) (A) (A) (A) (A) (A) (A) (A) (A) (A)
                 (A) (A) (A) (A) (A) (A) (A) (A) (A) (A) (A) (A)
                 (A) (A) (A) (A) (A) (A) (A) (A) (A) (A) (A) (A)
                 (A) (A) (A) (A) (A) (A) (A) (A) (A) (A) (A) (A)
                 (A) (A) (A) (A) (A) (A) (A) (A) (A) (A) (A) (A)
                 (A) (A) (A) (A) (A) (A) (A) (A) (A) (A) (A) (A)
                 (A) (A) (A) (A) (A) (A) (A) (A) (A) (A) (A) (A)
                 (A) (A) (A) (A) (A) (A) (A) (A)
 The electronic state is 1-A.
 Alpha  occ. eigenvalues --  -24.69199 -10.26685 -10.19317 -10.19316 -10.19038
 Alpha  occ. eigenvalues --  -10.19037 -10.18642  -1.23032  -0.87508  -0.76946
 Alpha  occ. eigenvalues --   -0.76022  -0.63520  -0.62324  -0.55646  -0.50748
 Alpha  occ. eigenvalues --   -0.49868  -0.47359  -0.45821  -0.44453  -0.41017
 Alpha  occ. eigenvalues --   -0.38436  -0.37461  -0.35993  -0.27406  -0.26028
 Alpha virt. eigenvalues --   -0.03075  -0.01920  -0.00828   0.00733   0.01312
 Alpha virt. eigenvalues --    0.03131   0.03335   0.05665   0.05799   0.07797
 Alpha virt. eigenvalues --    0.08524   0.08827   0.09779   0.10798   0.11662
 Alpha virt. eigenvalues --    0.11940   0.12319   0.12757   0.12831   0.13292
 Alpha virt. eigenvalues --    0.13671   0.13781   0.13857   0.15150   0.15234
 Alpha virt. eigenvalues --    0.16945   0.19178   0.19850   0.19859   0.21323
 Alpha virt. eigenvalues --    0.21600   0.24523   0.26117   0.26765   0.27285
 Alpha virt. eigenvalues --    0.27744   0.30059   0.30141   0.31126   0.33285
 Alpha virt. eigenvalues --    0.34478   0.34484   0.36759   0.39003   0.39388
 Alpha virt. eigenvalues --    0.43576   0.47605   0.49230   0.51612   0.52699
 Alpha virt. eigenvalues --    0.53912   0.54951   0.56223   0.56377   0.56655
 Alpha virt. eigenvalues --    0.59196   0.59564   0.60757   0.61102   0.66838
 Alpha virt. eigenvalues --    0.66845   0.71619   0.73202   0.75784   0.77574
 Alpha virt. eigenvalues --    0.78628   0.83503   0.84084   0.84966   0.86525
 Alpha virt. eigenvalues --    0.87247   0.88306   0.91066   0.93045   0.96444
 Alpha virt. eigenvalues --    0.99187   1.01231   1.01287   1.06234   1.09123
 Alpha virt. eigenvalues --    1.12096   1.17737   1.27817   1.33756   1.42133
 Alpha virt. eigenvalues --    1.43707   1.44387   1.49422   1.51417   1.52808
 Alpha virt. eigenvalues --    1.55346   1.55445   1.55583   1.60339   1.63082
 Alpha virt. eigenvalues --    1.63781   1.65883   1.72685   1.73187   1.75972
 Alpha virt. eigenvalues --    1.81462   1.85780   1.90587   1.90944   1.92401
 Alpha virt. eigenvalues --    1.94223   1.94325   1.98042   2.00056   2.02244
 Alpha virt. eigenvalues --    2.04045   2.07010   2.07573   2.26912   2.28546
 Alpha virt. eigenvalues --    2.32457   2.39637   2.41193   2.42806   2.48691
 Alpha virt. eigenvalues --    2.60392   2.62424   2.63748   2.68937   2.70355
 Alpha virt. eigenvalues --    2.72174   2.73719   2.75048   2.76006   2.77767
 Alpha virt. eigenvalues --    2.82652   2.82925   2.86165   2.87343   2.93483
 Alpha virt. eigenvalues --    3.06184   3.10739   3.15280   3.32414   3.33880
 Alpha virt. eigenvalues --    3.46828   3.48249   3.61548   3.71035   3.78655
 Alpha virt. eigenvalues --    3.84874   3.97990   3.98234   4.03718   4.11013
 Alpha virt. eigenvalues --    4.14440   4.14558   4.82918   4.86653   6.31206
 Alpha virt. eigenvalues --    6.44161   6.73303  23.55528  23.91293  23.96676
 Alpha virt. eigenvalues --   24.07115  24.08554  24.18590  66.80071
          Condensed to atoms (all electrons):
               1          2          3          4          5          6
     1  F    9.152885   0.702549  -0.359748   0.067765  -0.051899   0.067765
     2  C    0.702549   7.793895  -1.338507   1.041804  -1.144631   1.041804
     3  C   -0.359748  -1.338507   8.454619  -0.933799   0.960242  -0.605185
     4  C    0.067765   1.041804  -0.933799   6.060773  -0.468209   0.686581
     5  C   -0.051899  -1.144631   0.960242  -0.468209   6.119309  -0.468209
     6  C    0.067765   1.041804  -0.605185   0.686581  -0.468209   6.060773
     7  C   -0.359748  -1.338507  -0.791294  -0.605185   0.960242  -0.933799
     8  H   -0.025274  -0.144257   0.538215  -0.038126   0.027198   0.010243
     9  H    0.001128   0.049719  -0.116994   0.432768  -0.080587   0.007340
    10  H   -0.000224  -0.000413   0.005604  -0.042715   0.398393  -0.042715
    11  H    0.001128   0.049719   0.018117   0.007340  -0.080587   0.432768
    12  H   -0.025274  -0.144257  -0.078074   0.010243   0.027198  -0.038126
               7          8          9         10         11         12
     1  F   -0.359748  -0.025274   0.001128  -0.000224   0.001128  -0.025274
     2  C   -1.338507  -0.144257   0.049719  -0.000413   0.049719  -0.144257
     3  C   -0.791294   0.538215  -0.116994   0.005604   0.018117  -0.078074
     4  C   -0.605185  -0.038126   0.432768  -0.042715   0.007340   0.010243
     5  C    0.960242   0.027198  -0.080587   0.398393  -0.080587   0.027198
     6  C   -0.933799   0.010243   0.007340  -0.042715   0.432768  -0.038126
     7  C    8.454619  -0.078074   0.018117   0.005604  -0.116994   0.538215
     8  H   -0.078074   0.529344  -0.013041   0.000419   0.001436  -0.002408
     9  H    0.018117  -0.013041   0.540092  -0.008042  -0.000750   0.001436
    10  H    0.005604   0.000419  -0.008042   0.534684  -0.008042   0.000419
    11  H   -0.116994   0.001436  -0.000750  -0.008042   0.540092  -0.013041
    12  H    0.538215  -0.002408   0.001436   0.000419  -0.013041   0.529344
 Mulliken charges:
               1
     1  F   -0.171050
     2  C   -0.568919
     3  C    0.246803
     4  C   -0.219240
     5  C   -0.198462
     6  C   -0.219240
     7  C    0.246803
     8  H    0.194324
     9  H    0.168814
    10  H    0.157029
    11  H    0.168814
    12  H    0.194324
 Sum of Mulliken charges =  -0.00000
 Mulliken charges with hydrogens summed into heavy atoms:
               1
     1  F   -0.171050
     2  C   -0.568919
     3  C    0.441128
     4  C   -0.050427
     5  C   -0.041433
     6  C   -0.050427
     7  C    0.441128
 APT charges:
               1
     1  F   -0.575984
     2  C    0.604783
     3  C   -0.121053
     4  C    0.022565
     5  C   -0.089226
     6  C    0.022565
     7  C   -0.121053
     8  H    0.067007
     9  H    0.041109
    10  H    0.041172
    11  H    0.041109
    12  H    0.067007
 Sum of APT charges =   0.00000
 APT charges with hydrogens summed into heavy atoms:
               1
     1  F   -0.575984
     2  C    0.604783
     3  C   -0.054046
     4  C    0.063674
     5  C   -0.048054
     6  C    0.063674
     7  C   -0.054046
 Electronic spatial extent (au):  <R**2>=            651.4388
 Charge=             -0.0000 electrons
 Dipole moment (field-independent basis, Debye):
    X=             -1.7511    Y=              0.0000    Z=             -0.0000  Tot=              1.7511
 Quadrupole moment (field-independent basis, Debye-Ang):
   XX=            -41.3820   YY=            -34.5810   ZZ=            -43.6675
   XY=              0.0000   XZ=             -0.0000   YZ=             -0.0000
 Traceless Quadrupole moment (field-independent basis, Debye-Ang):
   XX=             -1.5051   YY=              5.2958   ZZ=             -3.7907
   XY=              0.0000   XZ=             -0.0000   YZ=             -0.0000
 Octapole moment (field-independent basis, Debye-Ang**2):
  XXX=             -3.1171  YYY=             -0.0000  ZZZ=              0.0000  XYY=              4.8013
  XXY=              0.0000  XXZ=              0.0000  XZZ=              8.8874  YZZ=             -0.0000
  YYZ=             -0.0000  XYZ=             -0.0000
 Hexadecapole moment (field-independent basis, Debye-Ang**3):
 XXXX=           -485.2747 YYYY=           -268.4979 ZZZZ=            -50.0406 XXXY=             -0.0000
 XXXZ=             -0.0000 YYYX=             -0.0000 YYYZ=             -0.0000 ZZZX=              0.0000
 ZZZY=              0.0000 XXYY=           -118.4041 XXZZ=            -94.5742 YYZZ=            -65.0864
 XXYZ=              0.0000 YYXZ=             -0.0000 ZZXY=             -0.0000
 N-N= 2.691981235312D+02 E-N=-1.314086732394D+03  KE= 3.302649753977D+02
  Exact polarizability:      80.243       0.000      77.744      -0.000      -0.000      40.449
 Approx polarizability:     130.929       0.000     126.476      -0.000       0.000      58.658
 ******************************Gaussian NBO Version 3.1******************************
             N A T U R A L   A T O M I C   O R B I T A L   A N D
          N A T U R A L   B O N D   O R B I T A L   A N A L Y S I S
 ******************************Gaussian NBO Version 3.1******************************
       /RESON  / : Allow strongly delocalized NBO set

 Analyzing the SCF density

 Job title: Fc1ccccc1                                                       

 Storage needed:    108039 in NPA,    143617 in NBO (1258290384 available)
 GSVD:  LWork=        7881 too small for GESVD, short by       46755 words or       46755 for optimal perf.


 NATURAL POPULATIONS:  Natural atomic orbital occupancies 
                                                          
   NAO  Atom  No  lang   Type(AO)    Occupancy      Energy
 ----------------------------------------------------------
     1    F    1  S      Cor( 1S)     1.99993     -24.43066
     2    F    1  S      Val( 2S)     1.83078      -1.27310
     3    F    1  S      Ryd( 3S)     0.00031       0.93332
     4    F    1  S      Ryd( 4S)     0.00008       1.84042
     5    F    1  S      Ryd( 5S)     0.00000      66.52140
     6    F    1  px     Val( 2p)     1.61756      -0.43109
     7    F    1  px     Ryd( 3p)     0.00067       0.49141
     8    F    1  px     Ryd( 4p)     0.00009       1.28607
     9    F    1  px     Ryd( 5p)     0.00005       6.41703
    10    F    1  py     Val( 2p)     1.97232      -0.42034
    11    F    1  py     Ryd( 3p)     0.00250       0.53405
    12    F    1  py     Ryd( 4p)     0.00005       1.36752
    13    F    1  py     Ryd( 5p)     0.00000       6.32875
    14    F    1  pz     Val( 2p)     1.92790      -0.41960
    15    F    1  pz     Ryd( 3p)     0.00130       0.44122
    16    F    1  pz     Ryd( 4p)     0.00006       1.19165
    17    F    1  pz     Ryd( 5p)     0.00000       6.27166
    18    F    1  dxy    Ryd( 3d)     0.00056       3.94383
    19    F    1  dxz    Ryd( 3d)     0.00053       3.86574
    20    F    1  dyz    Ryd( 3d)     0.00000       3.77329
    21    F    1  dx2y2  Ryd( 3d)     0.00098       4.20083
    22    F    1  dz2    Ryd( 3d)     0.00029       3.91577
 
    23    C    2  S      Cor( 1S)     1.99847     -10.14119
    24    C    2  S      Val( 2S)     0.83899      -0.15871
    25    C    2  S      Ryd( 4S)     0.00125       1.01295
    26    C    2  S      Ryd( 3S)     0.00006       0.74471
    27    C    2  S      Ryd( 5S)     0.00002      22.42533
    28    C    2  px     Val( 2p)     0.64291      -0.06165
    29    C    2  px     Ryd( 4p)     0.01045       1.09837
    30    C    2  px     Ryd( 3p)     0.00047       0.49107
    31    C    2  px     Ryd( 5p)     0.00021       2.74879
    32    C    2  py     Val( 2p)     1.08784      -0.07515
    33    C    2  py     Ryd( 4p)     0.00394       1.29750
    34    C    2  py     Ryd( 3p)     0.00057       0.43728
    35    C    2  py     Ryd( 5p)     0.00022       2.64224
    36    C    2  pz     Val( 2p)     0.99479      -0.13641
    37    C    2  pz     Ryd( 4p)     0.00118       0.67398
    38    C    2  pz     Ryd( 3p)     0.00047       0.31944
    39    C    2  pz     Ryd( 5p)     0.00006       2.52513
    40    C    2  dxy    Ryd( 3d)     0.00191       2.60505
    41    C    2  dxz    Ryd( 3d)     0.00222       1.54564
    42    C    2  dyz    Ryd( 3d)     0.00067       1.64218
    43    C    2  dx2y2  Ryd( 3d)     0.00229       2.48348
    44    C    2  dz2    Ryd( 3d)     0.00062       2.02794
 
    45    C    3  S      Cor( 1S)     1.99904     -10.04409
    46    C    3  S      Val( 2S)     0.96251      -0.18059
    47    C    3  S      Ryd( 3S)     0.00157       0.78523
    48    C    3  S      Ryd( 4S)     0.00010       0.79673
    49    C    3  S      Ryd( 5S)     0.00001      23.04994
    50    C    3  px     Val( 2p)     1.10623      -0.06930
    51    C    3  px     Ryd( 4p)     0.00572       0.93220
    52    C    3  px     Ryd( 3p)     0.00025       0.56460
    53    C    3  px     Ryd( 5p)     0.00010       2.94177
    54    C    3  py     Val( 2p)     1.14868      -0.07651
    55    C    3  py     Ryd( 4p)     0.00468       1.05934
    56    C    3  py     Ryd( 3p)     0.00022       0.54841
    57    C    3  py     Ryd( 5p)     0.00010       2.89014
    58    C    3  pz     Val( 2p)     1.03317      -0.12565
    59    C    3  pz     Ryd( 4p)     0.00134       0.52068
    60    C    3  pz     Ryd( 3p)     0.00032       0.33985
    61    C    3  pz     Ryd( 5p)     0.00002       2.62341
    62    C    3  dxy    Ryd( 3d)     0.00085       2.53226
    63    C    3  dxz    Ryd( 3d)     0.00046       1.64331
    64    C    3  dyz    Ryd( 3d)     0.00058       1.62775
    65    C    3  dx2y2  Ryd( 3d)     0.00059       2.58793
    66    C    3  dz2    Ryd( 3d)     0.00042       2.10399
 
    67    C    4  S      Cor( 1S)     1.99917     -10.04759
    68    C    4  S      Val( 2S)     0.95373      -0.17739
    69    C    4  S      Ryd( 3S)     0.00143       0.79607
    70    C    4  S      Ryd( 4S)     0.00007       1.33007
    71    C    4  S      Ryd( 5S)     0.00001      22.45699
    72    C    4  px     Val( 2p)     1.07778      -0.05761
    73    C    4  px     Ryd( 4p)     0.00486       0.86611
    74    C    4  px     Ryd( 3p)     0.00036       0.38858
    75    C    4  px     Ryd( 5p)     0.00013       3.07900
    76    C    4  py     Val( 2p)     1.14893      -0.06130
    77    C    4  py     Ryd( 4p)     0.00620       0.98725
    78    C    4  py     Ryd( 3p)     0.00021       0.44052
    79    C    4  py     Ryd( 5p)     0.00007       3.10521
    80    C    4  pz     Val( 2p)     0.98765      -0.12105
    81    C    4  pz     Ryd( 4p)     0.00089       0.51488
    82    C    4  pz     Ryd( 3p)     0.00032       0.29311
    83    C    4  pz     Ryd( 5p)     0.00001       2.66802
    84    C    4  dxy    Ryd( 3d)     0.00075       2.49963
    85    C    4  dxz    Ryd( 3d)     0.00051       1.64630
    86    C    4  dyz    Ryd( 3d)     0.00041       1.61410
    87    C    4  dx2y2  Ryd( 3d)     0.00069       2.55468
    88    C    4  dz2    Ryd( 3d)     0.00041       2.04467
 
    89    C    5  S      Cor( 1S)     1.99915     -10.04030
    90    C    5  S      Val( 2S)     0.95152      -0.17187
    91    C    5  S      Ryd( 3S)     0.00141       0.77742
    92    C    5  S      Ryd( 4S)     0.00005       1.29634
    93    C    5  S      Ryd( 5S)     0.00000      22.51096
    94    C    5  px     Val( 2p)     1.17428      -0.05960
    95    C    5  px     Ryd( 4p)     0.00659       1.05197
    96    C    5  px     Ryd( 3p)     0.00016       0.51982
    97    C    5  px     Ryd( 5p)     0.00005       3.05709
    98    C    5  py     Val( 2p)     1.06116      -0.05752
    99    C    5  py     Ryd( 4p)     0.00462       0.76498
   100    C    5  py     Ryd( 3p)     0.00049       0.38093
   101    C    5  py     Ryd( 5p)     0.00014       3.06123
   102    C    5  pz     Val( 2p)     1.01625      -0.11864
   103    C    5  pz     Ryd( 4p)     0.00116       0.50462
   104    C    5  pz     Ryd( 3p)     0.00026       0.29758
   105    C    5  pz     Ryd( 5p)     0.00001       2.67810
   106    C    5  dxy    Ryd( 3d)     0.00066       2.58314
   107    C    5  dxz    Ryd( 3d)     0.00039       1.60212
   108    C    5  dyz    Ryd( 3d)     0.00046       1.66470
   109    C    5  dx2y2  Ryd( 3d)     0.00083       2.47865
   110    C    5  dz2    Ryd( 3d)     0.00040       2.06338
 
   111    C    6  S      Cor( 1S)     1.99917     -10.04759
   112    C    6  S      Val( 2S)     0.95373      -0.17739
   113    C    6  S      Ryd( 3S)     0.00143       0.79607
   114    C    6  S      Ryd( 4S)     0.00007       1.33006
   115    C    6  S      Ryd( 5S)     0.00001      22.45699
   116    C    6  px     Val( 2p)     1.07778      -0.05761
   117    C    6  px     Ryd( 4p)     0.00486       0.86611
   118    C    6  px     Ryd( 3p)     0.00036       0.38858
   119    C    6  px     Ryd( 5p)     0.00013       3.07900
   120    C    6  py     Val( 2p)     1.14893      -0.06130
   121    C    6  py     Ryd( 4p)     0.00620       0.98725
   122    C    6  py     Ryd( 3p)     0.00021       0.44052
   123    C    6  py     Ryd( 5p)     0.00007       3.10521
   124    C    6  pz     Val( 2p)     0.98765      -0.12105
   125    C    6  pz     Ryd( 4p)     0.00089       0.51488
   126    C    6  pz     Ryd( 3p)     0.00032       0.29311
   127    C    6  pz     Ryd( 5p)     0.00001       2.66802
   128    C    6  dxy    Ryd( 3d)     0.00075       2.49963
   129    C    6  dxz    Ryd( 3d)     0.00051       1.64630
   130    C    6  dyz    Ryd( 3d)     0.00041       1.61410
   131    C    6  dx2y2  Ryd( 3d)     0.00069       2.55468
   132    C    6  dz2    Ryd( 3d)     0.00041       2.04467
 
   133    C    7  S      Cor( 1S)     1.99904     -10.04409
   134    C    7  S      Val( 2S)     0.96251      -0.18059
   135    C    7  S      Ryd( 3S)     0.00157       0.78523
   136    C    7  S      Ryd( 4S)     0.00010       0.79673
   137    C    7  S      Ryd( 5S)     0.00001      23.04994
   138    C    7  px     Val( 2p)     1.10623      -0.06930
   139    C    7  px     Ryd( 4p)     0.00572       0.93220
   140    C    7  px     Ryd( 3p)     0.00025       0.56460
   141    C    7  px     Ryd( 5p)     0.00010       2.94177
   142    C    7  py     Val( 2p)     1.14868      -0.07651
   143    C    7  py     Ryd( 4p)     0.00468       1.05934
   144    C    7  py     Ryd( 3p)     0.00022       0.54841
   145    C    7  py     Ryd( 5p)     0.00010       2.89014
   146    C    7  pz     Val( 2p)     1.03317      -0.12565
   147    C    7  pz     Ryd( 4p)     0.00134       0.52068
   148    C    7  pz     Ryd( 3p)     0.00032       0.33985
   149    C    7  pz     Ryd( 5p)     0.00002       2.62341
   150    C    7  dxy    Ryd( 3d)     0.00085       2.53226
   151    C    7  dxz    Ryd( 3d)     0.00046       1.64331
   152    C    7  dyz    Ryd( 3d)     0.00058       1.62775
   153    C    7  dx2y2  Ryd( 3d)     0.00059       2.58793
   154    C    7  dz2    Ryd( 3d)     0.00042       2.10399
 
   155    H    8  S      Val( 1S)     0.77565       0.04034
   156    H    8  S      Ryd( 3S)     0.00085       0.69908
   157    H    8  S      Ryd( 4S)     0.00018       2.00822
   158    H    8  S      Ryd( 2S)     0.00008       0.26126
   159    H    8  px     Ryd( 2p)     0.00020       2.17887
   160    H    8  py     Ryd( 2p)     0.00033       2.51705
   161    H    8  pz     Ryd( 2p)     0.00016       1.59176
 
   162    H    9  S      Val( 1S)     0.79054       0.04392
   163    H    9  S      Ryd( 3S)     0.00073       0.60355
   164    H    9  S      Ryd( 4S)     0.00019       2.10011
   165    H    9  S      Ryd( 2S)     0.00002       0.23712
   166    H    9  px     Ryd( 2p)     0.00020       2.13933
   167    H    9  py     Ryd( 2p)     0.00038       2.50918
   168    H    9  pz     Ryd( 2p)     0.00019       1.58371
 
   169    H   10  S      Val( 1S)     0.79012       0.04629
   170    H   10  S      Ryd( 3S)     0.00073       0.67989
   171    H   10  S      Ryd( 4S)     0.00019       2.03000
   172    H   10  S      Ryd( 2S)     0.00002       0.24048
   173    H   10  px     Ryd( 2p)     0.00045       2.69899
   174    H   10  py     Ryd( 2p)     0.00012       1.96438
   175    H   10  pz     Ryd( 2p)     0.00021       1.58760
 
   176    H   11  S      Val( 1S)     0.79054       0.04392
   177    H   11  S      Ryd( 3S)     0.00073       0.60355
   178    H   11  S      Ryd( 4S)     0.00019       2.10011
   179    H   11  S      Ryd( 2S)     0.00002       0.23712
   180    H   11  px     Ryd( 2p)     0.00020       2.13933
   181    H   11  py     Ryd( 2p)     0.00038       2.50918
   182    H   11  pz     Ryd( 2p)     0.00019       1.58371
 
   183    H   12  S      Val( 1S)     0.77565       0.04034
   184    H   12  S      Ryd( 3S)     0.00085       0.69908
   185    H   12  S      Ryd( 4S)     0.00018       2.00822
   186    H   12  S      Ryd( 2S)     0.00008       0.26126
   187    H   12  px     Ryd( 2p)     0.00020       2.17887
   188    H   12  py     Ryd( 2p)     0.00033       2.51705
   189    H   12  pz     Ryd( 2p)     0.00016       1.59176

 WARNING:  1 low occupancy (<1.9990e) core orbital  found on  C    2

 WARNING:  Population inversion found on atom  C    2
           Population inversion found on atom  C    3
           Population inversion found on atom  C    4
           Population inversion found on atom  C    5
           Population inversion found on atom  C    6
           Population inversion found on atom  C    7
           Population inversion found on atom  H    8
           Population inversion found on atom  H    9
           Population inversion found on atom  H   10
           Population inversion found on atom  H   11
           Population inversion found on atom  H   12


 Summary of Natural Population Analysis:                  
                                                          
                                       Natural Population 
                Natural  -----------------------------------------------
    Atom  No    Charge         Core      Valence    Rydberg      Total
 -----------------------------------------------------------------------
      F    1   -0.35597      1.99993     7.34856    0.00749     9.35597
      C    2    0.41037      1.99847     3.56453    0.02664     5.58963
      C    3   -0.26696      1.99904     4.25059    0.01733     6.26696
      C    4   -0.18459      1.99917     4.16809    0.01733     6.18459
      C    5   -0.22007      1.99915     4.20321    0.01771     6.22007
      C    6   -0.18459      1.99917     4.16809    0.01733     6.18459
      C    7   -0.26696      1.99904     4.25059    0.01733     6.26696
      H    8    0.22255      0.00000     0.77565    0.00180     0.77745
      H    9    0.20775      0.00000     0.79054    0.00171     0.79225
      H   10    0.20817      0.00000     0.79012    0.00171     0.79183
      H   11    0.20775      0.00000     0.79054    0.00171     0.79225
      H   12    0.22255      0.00000     0.77565    0.00180     0.77745
 =======================================================================
   * Total *   -0.00000     13.99397    35.87616    0.12987    50.00000

                                 Natural Population      
 --------------------------------------------------------
   Core                      13.99397 ( 99.9569% of  14)
   Valence                   35.87616 ( 99.6560% of  36)
   Natural Minimal Basis     49.87013 ( 99.7403% of  50)
   Natural Rydberg Basis      0.12987 (  0.2597% of  50)
 --------------------------------------------------------

    Atom  No          Natural Electron Configuration
 ----------------------------------------------------------------------------
      F    1      [core]2S( 1.83)2p( 5.52)
      C    2      [core]2S( 0.84)2p( 2.73)3d( 0.01)4p( 0.02)
      C    3      [core]2S( 0.96)2p( 3.29)4p( 0.01)
      C    4      [core]2S( 0.95)2p( 3.21)4p( 0.01)
      C    5      [core]2S( 0.95)2p( 3.25)4p( 0.01)
      C    6      [core]2S( 0.95)2p( 3.21)4p( 0.01)
      C    7      [core]2S( 0.96)2p( 3.29)4p( 0.01)
      H    8            1S( 0.78)
      H    9            1S( 0.79)
      H   10            1S( 0.79)
      H   11            1S( 0.79)
      H   12            1S( 0.78)


 NATURAL BOND ORBITAL ANALYSIS:

                       Occupancies       Lewis Structure    Low   High
           Occ.    -------------------  -----------------   occ   occ
  Cycle   Thresh.   Lewis   Non-Lewis     CR  BD  3C  LP    (L)   (NL)   Dev
 =============================================================================
   1(1)    1.90    46.73230   3.26770      7  12   0   6     3      3    0.44
   2(2)    1.90    46.73230   3.26770      7  12   0   6     3      3    0.44
   3(1)    1.80    46.73230   3.26770      7  12   0   6     3      3    0.44
   4(2)    1.80    46.73230   3.26770      7  12   0   6     3      3    0.44
   5(1)    1.70    46.73230   3.26770      7  12   0   6     3      3    0.44
   6(2)    1.70    46.73230   3.26770      7  12   0   6     3      3    0.44
   7(1)    1.60    48.65267   1.34733      7  15   0   3     0      3    0.44
   8(2)    1.60    48.65267   1.34733      7  15   0   3     0      3    0.44
   9(1)    1.50    48.65267   1.34733      7  15   0   3     0      3    0.44
  10(2)    1.50    48.65267   1.34733      7  15   0   3     0      3    0.44
  11(1)    1.60    48.65267   1.34733      7  15   0   3     0      3    0.44
 -----------------------------------------------------------------------------

 Structure accepted: RESONANCE keyword permits strongly delocalized structure

 WARNING:  1 low occupancy (<1.9990e) core orbital  found on  C    2

 --------------------------------------------------------
   Core                     13.99399 ( 99.957% of  14)
   Valence Lewis            34.65868 ( 96.274% of  36)
  ==================       ============================
   Total Lewis              48.65267 ( 97.305% of  50)
  -----------------------------------------------------
   Valence non-Lewis         1.26424 (  2.528% of  50)
   Rydberg non-Lewis         0.08309 (  0.166% of  50)
  ==================       ============================
   Total non-Lewis           1.34733 (  2.695% of  50)
 --------------------------------------------------------


       (Occupancy)   Bond orbital/ Coefficients/ Hybrids
 ---------------------------------------------------------------------------------
     1. (1.99574) BD ( 1) F   1 - C   2  
                ( 72.73%)   0.8528* F   1 s( 30.04%)p 2.33( 69.88%)d 0.00(  0.08%)
                                           -0.0000 -0.5480 -0.0099 -0.0021  0.0000
                                            0.8359 -0.0127 -0.0032 -0.0026  0.0000
                                           -0.0000  0.0000 -0.0000  0.0000 -0.0000
                                           -0.0000 -0.0000 -0.0000 -0.0000 -0.0000
                                           -0.0246  0.0133
                ( 27.27%)   0.5222* C   2 s( 21.72%)p 3.59( 77.94%)d 0.02(  0.34%)
                                            0.0001 -0.4656  0.0208 -0.0025  0.0028
                                           -0.8814  0.0447  0.0171  0.0153  0.0000
                                           -0.0000  0.0000  0.0000 -0.0000  0.0000
                                            0.0000  0.0000 -0.0000 -0.0000 -0.0000
                                           -0.0524  0.0260
     2. (1.98066) BD ( 1) C   2 - C   3  
                ( 49.98%)   0.7070* C   2 s( 39.02%)p 1.56( 60.95%)d 0.00(  0.04%)
                                            0.0000  0.6246  0.0045 -0.0007  0.0006
                                           -0.3302 -0.0211  0.0111 -0.0033 -0.7068
                                            0.0142  0.0054 -0.0008  0.0000 -0.0000
                                            0.0000 -0.0000  0.0127 -0.0000 -0.0000
                                           -0.0123 -0.0076
                ( 50.02%)   0.7073* C   3 s( 34.02%)p 1.94( 65.92%)d 0.00(  0.06%)
                                            0.0000  0.5832 -0.0056  0.0031  0.0009
                                            0.4190 -0.0405  0.0015  0.0006  0.6942
                                           -0.0003 -0.0102  0.0024 -0.0000  0.0000
                                           -0.0000  0.0000  0.0161 -0.0000 -0.0000
                                           -0.0110 -0.0131
     3. (1.65975) BD ( 2) C   2 - C   3  
                ( 48.51%)   0.6965* C   2 s(  0.00%)p 1.00( 99.95%)d 0.00(  0.05%)
                                           -0.0000 -0.0000 -0.0000  0.0000 -0.0000
                                           -0.0000 -0.0000 -0.0000  0.0000  0.0000
                                            0.0000  0.0000  0.0000  0.9992  0.0256
                                            0.0196  0.0069 -0.0000 -0.0188 -0.0115
                                            0.0000 -0.0000
                ( 51.49%)   0.7176* C   3 s(  0.00%)p 1.00( 99.94%)d 0.00(  0.06%)
                                           -0.0000  0.0000 -0.0000 -0.0000  0.0000
                                           -0.0000 -0.0000  0.0000  0.0000  0.0000
                                           -0.0000 -0.0000  0.0000  0.9993  0.0217
                                            0.0164 -0.0015  0.0000 -0.0014  0.0242
                                           -0.0000 -0.0000
     4. (1.98066) BD ( 1) C   2 - C   7  
                ( 49.98%)   0.7070* C   2 s( 39.02%)p 1.56( 60.95%)d 0.00(  0.04%)
                                            0.0000  0.6246  0.0045 -0.0007  0.0006
                                           -0.3302 -0.0211  0.0111 -0.0033  0.7068
                                           -0.0142 -0.0054  0.0008 -0.0000  0.0000
                                            0.0000 -0.0000 -0.0127 -0.0000 -0.0000
                                           -0.0123 -0.0076
                ( 50.02%)   0.7073* C   7 s( 34.02%)p 1.94( 65.92%)d 0.00(  0.06%)
                                            0.0000  0.5832 -0.0056  0.0031  0.0009
                                            0.4190 -0.0405  0.0015  0.0006 -0.6942
                                            0.0003  0.0102 -0.0024 -0.0000  0.0000
                                           -0.0000  0.0000 -0.0161 -0.0000 -0.0000
                                           -0.0110 -0.0131
     5. (1.97453) BD ( 1) C   3 - C   4  
                ( 50.55%)   0.7110* C   3 s( 36.39%)p 1.75( 63.57%)d 0.00(  0.04%)
                                           -0.0002  0.6028 -0.0215 -0.0016 -0.0004
                                           -0.7959  0.0183  0.0087 -0.0012 -0.0251
                                            0.0344 -0.0054 -0.0009 -0.0000 -0.0000
                                           -0.0000  0.0000 -0.0048  0.0000 -0.0000
                                            0.0159 -0.0118
                ( 49.45%)   0.7032* C   4 s( 35.28%)p 1.83( 64.68%)d 0.00(  0.04%)
                                            0.0001  0.5938 -0.0137 -0.0015 -0.0001
                                            0.8023 -0.0210 -0.0122  0.0011 -0.0286
                                            0.0406 -0.0045  0.0007 -0.0000  0.0000
                                           -0.0000  0.0000  0.0025 -0.0000  0.0000
                                            0.0166 -0.0126
     6. (1.97733) BD ( 1) C   3 - H   8  
                ( 61.13%)   0.7819* C   3 s( 29.61%)p 2.38( 70.36%)d 0.00(  0.04%)
                                            0.0003 -0.5437 -0.0219  0.0016  0.0005
                                           -0.4338 -0.0090  0.0011  0.0013  0.7178
                                            0.0083 -0.0019  0.0009 -0.0000  0.0000
                                           -0.0000  0.0000  0.0159  0.0000 -0.0000
                                            0.0063  0.0093
                ( 38.87%)   0.6234* H   8 s( 99.95%)p 0.00(  0.05%)
                                           -0.9998 -0.0013 -0.0010 -0.0002  0.0118
                                           -0.0183 -0.0000
     7. (1.97996) BD ( 1) C   4 - C   5  
                ( 50.13%)   0.7080* C   4 s( 36.18%)p 1.76( 63.78%)d 0.00(  0.04%)
                                            0.0000  0.6013 -0.0146  0.0002 -0.0001
                                           -0.4201  0.0425  0.0016 -0.0006  0.6778
                                            0.0021 -0.0102  0.0001  0.0000 -0.0000
                                           -0.0000  0.0000 -0.0132 -0.0000  0.0000
                                           -0.0105 -0.0120
                ( 49.87%)   0.7062* C   5 s( 35.59%)p 1.81( 64.36%)d 0.00(  0.05%)
                                            0.0000  0.5964 -0.0140 -0.0004 -0.0000
                                            0.3786  0.0227 -0.0086  0.0002 -0.7059
                                            0.0381  0.0064 -0.0008 -0.0000 -0.0000
                                            0.0000  0.0000 -0.0162 -0.0000  0.0000
                                           -0.0063 -0.0123
     8. (1.66769) BD ( 2) C   4 - C   5  
                ( 48.92%)   0.6994* C   4 s(  0.00%)p 1.00( 99.96%)d 0.00(  0.04%)
                                           -0.0000 -0.0000 -0.0000  0.0000  0.0000
                                            0.0000  0.0000  0.0000 -0.0000 -0.0000
                                           -0.0000 -0.0000 -0.0000  0.9996  0.0154
                                            0.0148 -0.0022  0.0000  0.0008  0.0208
                                           -0.0000  0.0000
                ( 51.08%)   0.7147* C   5 s(  0.00%)p 1.00( 99.96%)d 0.00(  0.04%)
                                            0.0000 -0.0000 -0.0000 -0.0000 -0.0000
                                            0.0000  0.0000  0.0000  0.0000 -0.0000
                                            0.0000 -0.0000 -0.0000  0.9995  0.0187
                                            0.0148 -0.0020 -0.0000  0.0184 -0.0088
                                            0.0000 -0.0000
     9. (1.98025) BD ( 1) C   4 - H   9  
                ( 60.46%)   0.7776* C   4 s( 28.55%)p 2.50( 71.40%)d 0.00(  0.04%)
                                            0.0004 -0.5338 -0.0241 -0.0012 -0.0002
                                            0.4201  0.0080 -0.0002  0.0010  0.7329
                                            0.0166  0.0011  0.0017 -0.0000 -0.0000
                                           -0.0000 -0.0000 -0.0163  0.0000  0.0000
                                            0.0097  0.0086
                ( 39.54%)   0.6288* H   9 s( 99.95%)p 0.00(  0.05%)
                                           -0.9998 -0.0014 -0.0010 -0.0000 -0.0106
                                           -0.0192 -0.0000
    10. (1.97996) BD ( 1) C   5 - C   6  
                ( 49.87%)   0.7062* C   5 s( 35.59%)p 1.81( 64.36%)d 0.00(  0.05%)
                                            0.0000  0.5964 -0.0140 -0.0004 -0.0000
                                            0.3786  0.0227 -0.0086  0.0002  0.7059
                                           -0.0381 -0.0064  0.0008 -0.0000 -0.0000
                                            0.0000  0.0000  0.0162 -0.0000 -0.0000
                                           -0.0063 -0.0123
                ( 50.13%)   0.7080* C   6 s( 36.18%)p 1.76( 63.78%)d 0.00(  0.04%)
                                            0.0000  0.6013 -0.0146  0.0002 -0.0001
                                           -0.4201  0.0425  0.0016 -0.0006 -0.6778
                                           -0.0021  0.0102 -0.0001  0.0000 -0.0000
                                           -0.0000  0.0000  0.0132 -0.0000 -0.0000
                                           -0.0105 -0.0120
    11. (1.97990) BD ( 1) C   5 - H  10  
                ( 60.48%)   0.7777* C   5 s( 28.84%)p 2.47( 71.12%)d 0.00(  0.04%)
                                            0.0004 -0.5365 -0.0240 -0.0009 -0.0002
                                            0.8431  0.0183  0.0005  0.0017 -0.0000
                                            0.0000 -0.0000 -0.0000 -0.0000 -0.0000
                                            0.0000 -0.0000 -0.0000  0.0000  0.0000
                                           -0.0189  0.0084
                ( 39.52%)   0.6287* H  10 s( 99.95%)p 0.00(  0.05%)
                                           -0.9998 -0.0013 -0.0011  0.0001 -0.0218
                                           -0.0000  0.0000
    12. (1.97453) BD ( 1) C   6 - C   7  
                ( 49.45%)   0.7032* C   6 s( 35.28%)p 1.83( 64.68%)d 0.00(  0.04%)
                                            0.0001  0.5938 -0.0137 -0.0015 -0.0001
                                            0.8023 -0.0210 -0.0122  0.0011  0.0286
                                           -0.0406  0.0045 -0.0007 -0.0000  0.0000
                                            0.0000 -0.0000 -0.0025 -0.0000  0.0000
                                            0.0166 -0.0126
                ( 50.55%)   0.7110* C   7 s( 36.39%)p 1.75( 63.57%)d 0.00(  0.04%)
                                           -0.0002  0.6028 -0.0215 -0.0016 -0.0004
                                           -0.7959  0.0183  0.0087 -0.0012  0.0251
                                           -0.0344  0.0054  0.0009  0.0000 -0.0000
                                           -0.0000  0.0000  0.0048 -0.0000  0.0000
                                            0.0159 -0.0118
    13. (1.67921) BD ( 2) C   6 - C   7  
                ( 48.28%)   0.6949* C   6 s(  0.00%)p 1.00( 99.95%)d 0.00(  0.05%)
                                            0.0000  0.0000 -0.0000  0.0000 -0.0000
                                            0.0000  0.0000  0.0000 -0.0000  0.0000
                                           -0.0000  0.0000  0.0000  0.9994  0.0193
                                            0.0174 -0.0015 -0.0000  0.0187 -0.0111
                                            0.0000 -0.0000
                ( 51.72%)   0.7191* C   7 s(  0.00%)p 1.00( 99.95%)d 0.00(  0.05%)
                                           -0.0000  0.0000 -0.0000 -0.0000  0.0000
                                            0.0000  0.0000  0.0000 -0.0000  0.0000
                                           -0.0000  0.0000 -0.0000  0.9995  0.0191
                                            0.0149 -0.0026 -0.0000 -0.0167 -0.0143
                                           -0.0000  0.0000
    14. (1.98025) BD ( 1) C   6 - H  11  
                ( 60.46%)   0.7776* C   6 s( 28.55%)p 2.50( 71.40%)d 0.00(  0.04%)
                                           -0.0004  0.5338  0.0241  0.0012  0.0002
                                           -0.4201 -0.0080  0.0002 -0.0010  0.7329
                                            0.0166  0.0011  0.0017  0.0000  0.0000
                                           -0.0000  0.0000 -0.0163 -0.0000  0.0000
                                           -0.0097 -0.0086
                ( 39.54%)   0.6288* H  11 s( 99.95%)p 0.00(  0.05%)
                                            0.9998  0.0014  0.0010  0.0000  0.0106
                                           -0.0192 -0.0000
    15. (1.97733) BD ( 1) C   7 - H  12  
                ( 61.13%)   0.7819* C   7 s( 29.61%)p 2.38( 70.36%)d 0.00(  0.04%)
                                           -0.0003  0.5437  0.0219 -0.0016 -0.0005
                                            0.4338  0.0090 -0.0011 -0.0013  0.7178
                                            0.0083 -0.0019  0.0009 -0.0000  0.0000
                                            0.0000 -0.0000  0.0159 -0.0000 -0.0000
                                           -0.0063 -0.0093
                ( 38.87%)   0.6234* H  12 s( 99.95%)p 0.00(  0.05%)
                                            0.9998  0.0013  0.0010  0.0002 -0.0118
                                           -0.0183  0.0000
    16. (1.99993) CR ( 1) F   1           s(100.00%)p 0.00(  0.00%)
                                            1.0000  0.0001 -0.0000 -0.0000  0.0000
                                            0.0001 -0.0000 -0.0000  0.0000  0.0000
                                            0.0000  0.0000 -0.0000  0.0000 -0.0000
                                           -0.0000  0.0000 -0.0000 -0.0000 -0.0000
                                           -0.0000  0.0000
    17. (1.99848) CR ( 1) C   2           s(100.00%)p 0.00(  0.00%)
                                            1.0000  0.0000 -0.0000  0.0000 -0.0000
                                            0.0002 -0.0000 -0.0000 -0.0000 -0.0000
                                            0.0000 -0.0000 -0.0000  0.0000  0.0000
                                            0.0000  0.0000  0.0000 -0.0000 -0.0000
                                            0.0000 -0.0000
    18. (1.99904) CR ( 1) C   3           s(100.00%)p 0.00(  0.00%)
                                            1.0000  0.0003  0.0000 -0.0000 -0.0000
                                           -0.0000  0.0000  0.0000 -0.0000 -0.0002
                                            0.0000 -0.0000 -0.0000  0.0000  0.0000
                                            0.0000 -0.0000 -0.0000 -0.0000  0.0000
                                            0.0000 -0.0000
    19. (1.99918) CR ( 1) C   4           s(100.00%)p 0.00(  0.00%)
                                            1.0000  0.0001  0.0000  0.0000  0.0000
                                           -0.0002 -0.0000  0.0000 -0.0000 -0.0003
                                           -0.0000  0.0000 -0.0000  0.0000  0.0000
                                            0.0000 -0.0000  0.0000  0.0000  0.0000
                                           -0.0000 -0.0000
    20. (1.99915) CR ( 1) C   5           s(100.00%)p 0.00(  0.00%)
                                            1.0000  0.0002  0.0000  0.0000  0.0000
                                           -0.0004 -0.0000  0.0000 -0.0000  0.0000
                                           -0.0000  0.0000  0.0000  0.0000  0.0000
                                           -0.0000  0.0000  0.0000 -0.0000 -0.0000
                                            0.0000 -0.0000
    21. (1.99918) CR ( 1) C   6           s(100.00%)p 0.00(  0.00%)
                                            1.0000  0.0001  0.0000  0.0000  0.0000
                                           -0.0002 -0.0000  0.0000 -0.0000  0.0003
                                            0.0000 -0.0000  0.0000 -0.0000 -0.0000
                                           -0.0000  0.0000 -0.0000 -0.0000  0.0000
                                           -0.0000 -0.0000
    22. (1.99904) CR ( 1) C   7           s(100.00%)p 0.00(  0.00%)
                                            1.0000  0.0003  0.0000 -0.0000 -0.0000
                                           -0.0000  0.0000  0.0000 -0.0000  0.0002
                                           -0.0000  0.0000  0.0000  0.0000  0.0000
                                            0.0000 -0.0000  0.0000 -0.0000 -0.0000
                                            0.0000 -0.0000
    23. (1.98962) LP ( 1) F   1           s( 69.96%)p 0.43( 30.03%)d 0.00(  0.01%)
                                           -0.0002  0.8364 -0.0050 -0.0009  0.0000
                                            0.5480 -0.0051 -0.0035  0.0035 -0.0000
                                           -0.0000  0.0000 -0.0000  0.0000 -0.0000
                                           -0.0000  0.0000  0.0000 -0.0000 -0.0000
                                           -0.0063  0.0035
    24. (1.97290) LP ( 2) F   1           s(  0.00%)p 1.00( 99.98%)d 0.00(  0.02%)
                                           -0.0000  0.0000  0.0000 -0.0000  0.0000
                                            0.0000 -0.0000 -0.0000  0.0000  0.9999
                                            0.0061  0.0032 -0.0003 -0.0000 -0.0000
                                           -0.0000  0.0000 -0.0157  0.0000 -0.0000
                                           -0.0000 -0.0000
    25. (1.92842) LP ( 3) F   1           s(  0.00%)p 1.00( 99.98%)d 0.00(  0.02%)
                                           -0.0000  0.0000 -0.0000  0.0000 -0.0000
                                           -0.0000 -0.0000  0.0000  0.0000  0.0000
                                            0.0000  0.0000  0.0000  0.9999  0.0046
                                            0.0007  0.0002 -0.0000 -0.0157  0.0000
                                            0.0000 -0.0000
    26. (0.00251) RY*( 1) F   1           s(  0.00%)p 1.00( 97.74%)d 0.02(  2.26%)
                                            0.0000 -0.0000 -0.0000  0.0000 -0.0000
                                            0.0000  0.0000 -0.0000  0.0000 -0.0033
                                            0.9838 -0.0968 -0.0068  0.0000 -0.0000
                                           -0.0000 -0.0000  0.1504 -0.0000  0.0000
                                            0.0000 -0.0000
    27. (0.00135) RY*( 2) F   1           s(  0.00%)p 1.00( 96.18%)d 0.04(  3.82%)
                                            0.0000  0.0000 -0.0000  0.0000 -0.0000
                                           -0.0000 -0.0000  0.0000  0.0000  0.0000
                                            0.0000  0.0000  0.0000 -0.0015  0.9642
                                            0.1776  0.0241  0.0000  0.1955 -0.0000
                                           -0.0000  0.0000
    28. (0.00048) RY*( 3) F   1           s(  7.61%)p11.94( 90.84%)d 0.20(  1.56%)
                                            0.0000  0.0031  0.2585  0.0957  0.0088
                                           -0.0108 -0.9037  0.2917  0.0810 -0.0000
                                            0.0000 -0.0000  0.0000 -0.0000 -0.0000
                                           -0.0000 -0.0000  0.0000 -0.0000  0.0000
                                           -0.0775  0.0978
    29. (0.00013) RY*( 4) F   1           s( 86.41%)p 0.11(  9.69%)d 0.05(  3.90%)
                                           -0.0000 -0.0032  0.6645 -0.6501 -0.0004
                                            0.0105  0.1240 -0.0499  0.2809 -0.0000
                                            0.0000 -0.0000  0.0000  0.0000  0.0000
                                            0.0000  0.0000  0.0000  0.0000 -0.0000
                                            0.1784  0.0844
    30. (0.00002) RY*( 5) F   1           s( 77.92%)p 0.18( 14.09%)d 0.10(  7.99%)
    31. (0.00001) RY*( 6) F   1           s(  0.44%)p99.99( 97.20%)d 5.35(  2.36%)
    32. (0.00002) RY*( 7) F   1           s(  0.00%)p 1.00( 80.26%)d 0.25( 19.74%)
    33. (0.00001) RY*( 8) F   1           s(  0.00%)p 1.00(100.00%)
    34. (0.00001) RY*( 9) F   1           s(  0.00%)p 1.00(  2.64%)d36.84( 97.36%)
    35. (0.00000) RY*(10) F   1           s( 17.13%)p 4.77( 81.74%)d 0.07(  1.14%)
    36. (0.00000) RY*(11) F   1           s( 99.98%)p 0.00(  0.02%)d 0.00(  0.00%)
    37. (0.00000) RY*(12) F   1           s(  0.00%)p 1.00( 99.96%)d 0.00(  0.04%)
    38. (0.00000) RY*(13) F   1           s(  0.00%)p 1.00( 99.65%)d 0.00(  0.35%)
    39. (0.00000) RY*(14) F   1           s(  0.00%)p 1.00( 23.63%)d 3.23( 76.37%)
    40. (0.00000) RY*(15) F   1           s(  0.00%)p 0.00(  0.00%)d 1.00(100.00%)
    41. (0.00000) RY*(16) F   1           s(  5.96%)p 0.38(  2.24%)d15.42( 91.81%)
    42. (0.00000) RY*(17) F   1           s(  4.56%)p 0.94(  4.27%)d20.00( 91.17%)
    43. (0.00823) RY*( 1) C   2           s(  1.45%)p66.42( 96.59%)d 1.34(  1.96%)
                                            0.0000  0.0449  0.1081 -0.0223 -0.0188
                                            0.0175  0.9798 -0.0685 -0.0284 -0.0000
                                           -0.0000 -0.0000 -0.0000  0.0000  0.0000
                                           -0.0000 -0.0000 -0.0000 -0.0000 -0.0000
                                            0.1341 -0.0395
    44. (0.00414) RY*( 2) C   2           s(  0.00%)p 1.00( 90.51%)d 0.10(  9.49%)
                                            0.0000  0.0000  0.0000 -0.0000 -0.0000
                                           -0.0000  0.0000 -0.0000  0.0000  0.0246
                                            0.9338  0.0025 -0.1802  0.0000 -0.0000
                                            0.0000  0.0000  0.3080 -0.0000  0.0000
                                            0.0000 -0.0000
    45. (0.00240) RY*( 3) C   2           s(  0.00%)p 1.00(  9.97%)d 9.03( 90.03%)
                                           -0.0000  0.0000  0.0000 -0.0000 -0.0000
                                            0.0000  0.0000 -0.0000 -0.0000  0.0000
                                           -0.0000  0.0000 -0.0000  0.0088  0.2826
                                            0.1374 -0.0298  0.0000  0.9468  0.0626
                                           -0.0000  0.0000
    46. (0.00200) RY*( 4) C   2           s(  0.00%)p 1.00( 35.97%)d 1.78( 64.03%)
                                            0.0000  0.0000  0.0000  0.0000 -0.0000
                                            0.0000  0.0000  0.0000 -0.0000  0.0125
                                           -0.2928  0.5040 -0.1410 -0.0000  0.0000
                                           -0.0000  0.0000  0.8002 -0.0000  0.0000
                                           -0.0000  0.0000
    47. (0.00186) RY*( 5) C   2           s( 46.87%)p 0.13(  6.27%)d 1.00( 46.85%)
                                            0.0000  0.0131  0.6792  0.0834 -0.0181
                                            0.0581  0.0345  0.2163 -0.1067  0.0000
                                            0.0000 -0.0000  0.0000 -0.0000  0.0000
                                           -0.0000 -0.0000 -0.0000 -0.0000 -0.0000
                                           -0.6402  0.2422
    48. (0.00080) RY*( 6) C   2           s(  0.00%)p 1.00(  0.02%)d99.99( 99.98%)
                                           -0.0000  0.0000 -0.0000 -0.0000 -0.0000
                                            0.0000  0.0000  0.0000  0.0000 -0.0000
                                           -0.0000 -0.0000 -0.0000  0.0103  0.0034
                                           -0.0095  0.0064 -0.0000 -0.0655  0.9977
                                           -0.0000 -0.0000
    49. (0.00024) RY*( 7) C   2           s( 55.70%)p 0.21( 11.62%)d 0.59( 32.68%)
                                           -0.0000 -0.0125  0.7102 -0.2236  0.0494
                                           -0.0278 -0.1823 -0.2858  0.0211  0.0000
                                           -0.0000 -0.0000  0.0000  0.0000 -0.0000
                                           -0.0000 -0.0000  0.0000  0.0000  0.0000
                                            0.5451 -0.1723
    50. (0.00018) RY*( 8) C   2           s(  0.00%)p 1.00( 92.90%)d 0.08(  7.10%)
                                            0.0000 -0.0000  0.0000 -0.0000 -0.0000
                                           -0.0000 -0.0000  0.0000  0.0000 -0.0000
                                            0.0000 -0.0000  0.0000 -0.0298  0.9406
                                           -0.0485  0.2023 -0.0000 -0.2656 -0.0221
                                            0.0000 -0.0000
    51. (0.00012) RY*( 9) C   2           s( 17.25%)p 0.68( 11.68%)d 4.12( 71.07%)
                                           -0.0000  0.0084 -0.0044  0.3634  0.2008
                                           -0.0120 -0.0192 -0.0222 -0.3403  0.0000
                                            0.0000  0.0000 -0.0000 -0.0000  0.0000
                                           -0.0000  0.0000 -0.0000 -0.0000  0.0000
                                            0.3707  0.7572
    52. (0.00007) RY*(10) C   2           s(  0.00%)p 1.00( 81.61%)d 0.23( 18.39%)
    53. (0.00003) RY*(11) C   2           s(  5.10%)p16.28( 83.11%)d 2.31( 11.78%)
    54. (0.00000) RY*(12) C   2           s(  0.00%)p 1.00( 99.26%)d 0.01(  0.74%)
    55. (0.00001) RY*(13) C   2           s( 78.83%)p 0.00(  0.25%)d 0.27( 20.91%)
    56. (0.00000) RY*(14) C   2           s( 93.86%)p 0.03(  2.58%)d 0.04(  3.56%)
    57. (0.00000) RY*(15) C   2           s(  0.00%)p 1.00( 91.94%)d 0.09(  8.06%)
    58. (0.00001) RY*(16) C   2           s(  1.16%)p75.61( 88.04%)d 9.27( 10.80%)
    59. (0.00000) RY*(17) C   2           s(  0.00%)p 1.00( 97.89%)d 0.02(  2.11%)
    60. (0.00510) RY*( 1) C   3           s(  0.23%)p99.99( 95.63%)d17.86(  4.14%)
                                           -0.0000  0.0151 -0.0248  0.0370 -0.0103
                                           -0.0007  0.7137  0.0242 -0.0317  0.0322
                                           -0.6608  0.0424 -0.0767  0.0000 -0.0000
                                            0.0000 -0.0000 -0.1888 -0.0000  0.0000
                                           -0.0656 -0.0373
    61. (0.00277) RY*( 2) C   3           s(  0.23%)p99.99( 98.44%)d 5.69(  1.32%)
                                           -0.0000 -0.0053  0.0419  0.0227  0.0054
                                            0.0377  0.6781 -0.1255 -0.0889  0.0180
                                            0.6947 -0.1287  0.0060  0.0000  0.0000
                                            0.0000  0.0000  0.1041 -0.0000 -0.0000
                                           -0.0311  0.0380
    62. (0.00084) RY*( 3) C   3           s(  0.00%)p 1.00( 83.86%)d 0.19( 16.14%)
                                            0.0000  0.0000  0.0000  0.0000  0.0000
                                           -0.0000 -0.0000 -0.0000  0.0000 -0.0000
                                           -0.0000 -0.0000 -0.0000 -0.0198  0.8928
                                            0.1621  0.1217  0.0000  0.3970 -0.0614
                                           -0.0000 -0.0000
    63. (0.00057) RY*( 4) C   3           s(  0.00%)p 1.00(  7.69%)d12.01( 92.31%)
                                            0.0000 -0.0000 -0.0000 -0.0000  0.0000
                                            0.0000  0.0000  0.0000 -0.0000 -0.0000
                                            0.0000 -0.0000  0.0000 -0.0083 -0.2767
                                           -0.0068  0.0140 -0.0000  0.7189  0.6375
                                            0.0000 -0.0000
    64. (0.00054) RY*( 5) C   3           s( 94.04%)p 0.03(  2.51%)d 0.04(  3.45%)
                                           -0.0000  0.0058  0.9639  0.1059  0.0068
                                           -0.0297 -0.0216 -0.0593  0.0319  0.0153
                                           -0.0554  0.0647 -0.1081 -0.0000 -0.0000
                                           -0.0000 -0.0000  0.1091  0.0000  0.0000
                                           -0.1498 -0.0119
    65. (0.00025) RY*( 6) C   3           s( 14.82%)p 4.12( 61.00%)d 1.63( 24.18%)
                                            0.0000  0.0015 -0.1903  0.3345  0.0087
                                           -0.0152 -0.1292 -0.6041 -0.3259 -0.0119
                                           -0.0731 -0.0800 -0.3318 -0.0000 -0.0000
                                           -0.0000  0.0000  0.1201 -0.0000  0.0000
                                           -0.4763 -0.0234
    66. (0.00015) RY*( 7) C   3           s( 23.88%)p 1.32( 31.56%)d 1.87( 44.57%)
                                            0.0000 -0.0063 -0.0855  0.4716 -0.0948
                                           -0.0005  0.0596  0.0056  0.4739 -0.0159
                                           -0.1011 -0.2215  0.1669 -0.0000 -0.0000
                                           -0.0000 -0.0000  0.5290 -0.0000  0.0000
                                            0.1056 -0.3932
    67. (0.00008) RY*( 8) C   3           s(  2.74%)p23.17( 63.40%)d12.38( 33.87%)
    68. (0.00008) RY*( 9) C   3           s(  0.00%)p 1.00( 63.45%)d 0.58( 36.55%)
    69. (0.00004) RY*(10) C   3           s(  5.51%)p10.93( 60.26%)d 6.21( 34.23%)
    70. (0.00004) RY*(11) C   3           s(  5.98%)p 8.21( 49.04%)d 7.53( 44.98%)
    71. (0.00000) RY*(12) C   3           s(  0.00%)p 1.00( 99.60%)d 0.00(  0.40%)
    72. (0.00001) RY*(13) C   3           s( 20.21%)p 2.51( 50.70%)d 1.44( 29.09%)
    73. (0.00000) RY*(14) C   3           s( 95.93%)p 0.02(  2.08%)d 0.02(  1.99%)
    74. (0.00000) RY*(15) C   3           s(  0.00%)p 1.00( 45.46%)d 1.20( 54.54%)
    75. (0.00001) RY*(16) C   3           s(  5.45%)p14.77( 80.54%)d 2.57( 14.00%)
    76. (0.00000) RY*(17) C   3           s( 30.96%)p 0.16(  4.99%)d 2.07( 64.05%)
    77. (0.00576) RY*( 1) C   4           s(  0.57%)p99.99( 94.28%)d 9.07(  5.15%)
                                           -0.0000  0.0174 -0.0371  0.0632  0.0036
                                            0.0213 -0.4561  0.0472 -0.0362  0.0299
                                           -0.8520  0.0361 -0.0524 -0.0000  0.0000
                                           -0.0000  0.0000  0.1905  0.0000 -0.0000
                                           -0.1196 -0.0299
    78. (0.00224) RY*( 2) C   4           s(  0.22%)p99.99( 98.95%)d 3.73(  0.82%)
                                            0.0000  0.0005  0.0357  0.0306  0.0006
                                            0.0412  0.8383 -0.1442 -0.1924 -0.0215
                                           -0.4533  0.1164  0.0878 -0.0000 -0.0000
                                            0.0000  0.0000  0.0303 -0.0000  0.0000
                                            0.0856  0.0012
    79. (0.00080) RY*( 3) C   4           s(  0.00%)p 1.00( 46.97%)d 1.13( 53.03%)
                                           -0.0000 -0.0000  0.0000 -0.0000 -0.0000
                                            0.0000  0.0000 -0.0000  0.0000 -0.0000
                                           -0.0000 -0.0000  0.0000 -0.0022  0.6466
                                            0.2046  0.0986 -0.0000  0.5032 -0.5265
                                            0.0000 -0.0000
    80. (0.00048) RY*( 4) C   4           s(  0.00%)p 1.00( 37.69%)d 1.65( 62.31%)
                                            0.0000 -0.0000 -0.0000  0.0000 -0.0000
                                           -0.0000 -0.0000 -0.0000  0.0000 -0.0000
                                            0.0000  0.0000  0.0000  0.0106 -0.6011
                                           -0.0935 -0.0819  0.0000  0.7886 -0.0363
                                            0.0000 -0.0000
    81. (0.00036) RY*( 5) C   4           s( 90.82%)p 0.06(  5.41%)d 0.04(  3.77%)
                                           -0.0000  0.0047  0.9497 -0.0724 -0.0327
                                            0.0099 -0.0654  0.0567 -0.0838  0.0280
                                           -0.0222  0.0681 -0.1831  0.0000 -0.0000
                                           -0.0000 -0.0000 -0.0460  0.0000 -0.0000
                                            0.1758 -0.0685
    82. (0.00025) RY*( 6) C   4           s(  1.28%)p59.49( 76.28%)d17.50( 22.44%)
                                           -0.0000 -0.0025 -0.0283  0.1028  0.0381
                                           -0.0233 -0.1240 -0.7523  0.2583  0.0122
                                            0.0567  0.3204 -0.0900  0.0000  0.0000
                                            0.0000  0.0000  0.2926 -0.0000 -0.0000
                                            0.3700 -0.0439
    83. (0.00011) RY*( 7) C   4           s( 27.60%)p 0.38( 10.45%)d 2.24( 61.95%)
                                            0.0000 -0.0081 -0.1553  0.4908 -0.1044
                                           -0.0067 -0.0396  0.0466 -0.1338 -0.0126
                                           -0.0406  0.0259 -0.2834  0.0000 -0.0000
                                            0.0000 -0.0000 -0.4945 -0.0000 -0.0000
                                            0.2786 -0.5453
    84. (0.00007) RY*( 8) C   4           s(  6.87%)p 7.92( 54.42%)d 5.63( 38.71%)
    85. (0.00005) RY*( 9) C   4           s(  9.02%)p 6.51( 58.71%)d 3.58( 32.27%)
    86. (0.00002) RY*(10) C   4           s(  7.22%)p 2.03( 14.66%)d10.82( 78.12%)
    87. (0.00001) RY*(11) C   4           s(  0.00%)p 1.00( 99.52%)d 0.00(  0.48%)
    88. (0.00000) RY*(12) C   4           s(  0.00%)p 1.00( 99.64%)d 0.00(  0.36%)
    89. (0.00000) RY*(13) C   4           s( 94.83%)p 0.01(  1.37%)d 0.04(  3.80%)
    90. (0.00001) RY*(14) C   4           s( 47.58%)p 0.65( 30.92%)d 0.45( 21.50%)
    91. (0.00001) RY*(15) C   4           s(  0.00%)p 1.00( 16.23%)d 5.16( 83.77%)
    92. (0.00000) RY*(16) C   4           s(  8.72%)p 9.25( 80.66%)d 1.22( 10.61%)
    93. (0.00000) RY*(17) C   4           s(  5.25%)p14.11( 74.04%)d 3.95( 20.72%)
    94. (0.00599) RY*( 1) C   5           s(  1.17%)p80.21( 93.51%)d 4.56(  5.32%)
                                           -0.0000 -0.0156  0.1054 -0.0133  0.0116
                                           -0.0333  0.9641 -0.0339  0.0581 -0.0000
                                           -0.0000 -0.0000 -0.0000 -0.0000 -0.0000
                                            0.0000 -0.0000  0.0000  0.0000  0.0000
                                           -0.2295  0.0237
    95. (0.00217) RY*( 2) C   5           s(  0.00%)p 1.00( 99.33%)d 0.01(  0.67%)
                                            0.0000 -0.0000 -0.0000  0.0000  0.0000
                                           -0.0000  0.0000  0.0000  0.0000  0.0469
                                            0.9431 -0.2512 -0.1964  0.0000  0.0000
                                           -0.0000 -0.0000  0.0818 -0.0000 -0.0000
                                           -0.0000 -0.0000
    96. (0.00081) RY*( 3) C   5           s(  0.00%)p 1.00( 85.20%)d 0.17( 14.80%)
                                            0.0000  0.0000 -0.0000 -0.0000 -0.0000
                                           -0.0000  0.0000  0.0000  0.0000 -0.0000
                                           -0.0000 -0.0000  0.0000 -0.0111  0.9004
                                            0.1613  0.1228  0.0000 -0.3571  0.1433
                                           -0.0000  0.0000
    97. (0.00054) RY*( 4) C   5           s(  0.00%)p 1.00(  1.79%)d54.76( 98.21%)
                                            0.0000 -0.0000  0.0000  0.0000  0.0000
                                            0.0000 -0.0000 -0.0000 -0.0000  0.0000
                                            0.0000  0.0000 -0.0000  0.0105 -0.1303
                                           -0.0232 -0.0178  0.0000  0.0518  0.9896
                                            0.0000 -0.0000
    98. (0.00037) RY*( 5) C   5           s(  0.00%)p 1.00( 84.62%)d 0.18( 15.38%)
                                            0.0000 -0.0000 -0.0000  0.0000  0.0000
                                           -0.0000  0.0000  0.0000  0.0000  0.0276
                                            0.1959  0.8471 -0.2993 -0.0000  0.0000
                                            0.0000  0.0000 -0.3921 -0.0000 -0.0000
                                           -0.0000 -0.0000
    99. (0.00026) RY*( 6) C   5           s( 90.97%)p 0.07(  6.41%)d 0.03(  2.62%)
                                           -0.0000  0.0032  0.9427 -0.1192 -0.0818
                                            0.0300 -0.1196 -0.0654 -0.2113  0.0000
                                            0.0000  0.0000 -0.0000 -0.0000  0.0000
                                            0.0000  0.0000  0.0000 -0.0000 -0.0000
                                           -0.1256 -0.1021
   100. (0.00011) RY*( 7) C   5           s( 38.27%)p 0.29( 11.02%)d 1.33( 50.71%)
                                           -0.0000 -0.0120 -0.1258  0.6014 -0.0709
                                           -0.0111 -0.0325 -0.0922 -0.3170 -0.0000
                                           -0.0000  0.0000 -0.0000 -0.0000  0.0000
                                            0.0000  0.0000  0.0000 -0.0000  0.0000
                                           -0.3603 -0.6142
   101. (0.00007) RY*( 8) C   5           s(  0.00%)p 1.00( 34.10%)d 1.93( 65.90%)
   102. (0.00004) RY*( 9) C   5           s( 11.82%)p 1.57( 18.60%)d 5.89( 69.58%)
   103. (0.00002) RY*(10) C   5           s( 11.96%)p 6.40( 76.55%)d 0.96( 11.49%)
   104. (0.00000) RY*(11) C   5           s(  0.00%)p 1.00( 99.64%)d 0.00(  0.36%)
   105. (0.00000) RY*(12) C   5           s(  0.00%)p 1.00( 99.80%)d 0.00(  0.20%)
   106. (0.00000) RY*(13) C   5           s(  8.82%)p 9.92( 87.47%)d 0.42(  3.71%)
   107. (0.00000) RY*(14) C   5           s(  0.00%)p 1.00( 13.62%)d 6.34( 86.38%)
   108. (0.00000) RY*(15) C   5           s(  0.00%)p 1.00( 82.00%)d 0.22( 18.00%)
   109. (0.00000) RY*(16) C   5           s( 93.59%)p 0.06(  5.49%)d 0.01(  0.92%)
   110. (0.00001) RY*(17) C   5           s( 43.39%)p 0.02(  1.03%)d 1.28( 55.58%)
   111. (0.00576) RY*( 1) C   6           s(  0.57%)p99.99( 94.28%)d 9.07(  5.15%)
                                           -0.0000  0.0174 -0.0371  0.0632  0.0036
                                            0.0213 -0.4561  0.0472 -0.0362 -0.0299
                                            0.8520 -0.0361  0.0524 -0.0000  0.0000
                                           -0.0000  0.0000 -0.1905  0.0000  0.0000
                                           -0.1196 -0.0299
   112. (0.00224) RY*( 2) C   6           s(  0.22%)p99.99( 98.95%)d 3.73(  0.82%)
                                           -0.0000  0.0005  0.0357  0.0306  0.0006
                                            0.0412  0.8383 -0.1442 -0.1924  0.0215
                                            0.4533 -0.1164 -0.0878 -0.0000 -0.0000
                                            0.0000  0.0000 -0.0303 -0.0000 -0.0000
                                            0.0856  0.0012
   113. (0.00072) RY*( 3) C   6           s(  0.00%)p 1.00( 40.36%)d 1.48( 59.64%)
                                            0.0000 -0.0000 -0.0000  0.0000 -0.0000
                                           -0.0000  0.0000 -0.0000  0.0000  0.0000
                                            0.0000  0.0000 -0.0000 -0.0195  0.5970
                                            0.1956  0.0922  0.0000  0.5642  0.5273
                                            0.0000 -0.0000
   114. (0.00053) RY*( 4) C   6           s(  0.00%)p 1.00( 44.37%)d 1.25( 55.63%)
                                            0.0000 -0.0000 -0.0000  0.0000 -0.0000
                                           -0.0000 -0.0000 -0.0000  0.0000 -0.0000
                                           -0.0000 -0.0000  0.0000  0.0003 -0.6509
                                           -0.1091 -0.0897 -0.0000  0.7459 -0.0049
                                            0.0000 -0.0000
   115. (0.00036) RY*( 5) C   6           s( 90.82%)p 0.06(  5.41%)d 0.04(  3.77%)
                                           -0.0000  0.0047  0.9497 -0.0724 -0.0327
                                            0.0099 -0.0654  0.0567 -0.0838 -0.0280
                                            0.0222 -0.0681  0.1831 -0.0000  0.0000
                                            0.0000  0.0000  0.0460  0.0000  0.0000
                                            0.1758 -0.0685
   116. (0.00025) RY*( 6) C   6           s(  1.28%)p59.49( 76.28%)d17.50( 22.44%)
                                            0.0000 -0.0025 -0.0283  0.1028  0.0381
                                           -0.0233 -0.1240 -0.7523  0.2583 -0.0122
                                           -0.0567 -0.3204  0.0900  0.0000  0.0000
                                            0.0000  0.0000 -0.2926 -0.0000  0.0000
                                            0.3700 -0.0439
   117. (0.00011) RY*( 7) C   6           s( 27.60%)p 0.38( 10.45%)d 2.24( 61.95%)
                                            0.0000 -0.0081 -0.1553  0.4908 -0.1044
                                           -0.0067 -0.0396  0.0466 -0.1338  0.0126
                                            0.0406 -0.0259  0.2834  0.0000 -0.0000
                                            0.0000  0.0000  0.4945 -0.0000  0.0000
                                            0.2786 -0.5453
   118. (0.00007) RY*( 8) C   6           s(  6.87%)p 7.92( 54.42%)d 5.63( 38.71%)
   119. (0.00005) RY*( 9) C   6           s(  9.02%)p 6.51( 58.71%)d 3.58( 32.27%)
   120. (0.00001) RY*(10) C   6           s(  3.83%)p 5.70( 21.85%)d19.40( 74.32%)
   121. (0.00001) RY*(11) C   6           s(  0.00%)p 1.00( 99.53%)d 0.00(  0.47%)
   122. (0.00000) RY*(12) C   6           s(  0.00%)p 1.00( 99.67%)d 0.00(  0.33%)
   123. (0.00001) RY*(13) C   6           s( 52.72%)p 0.53( 28.11%)d 0.36( 19.17%)
   124. (0.00000) RY*(14) C   6           s( 95.45%)p 0.02(  1.73%)d 0.03(  2.81%)
   125. (0.00001) RY*(15) C   6           s(  0.00%)p 1.00( 16.13%)d 5.20( 83.87%)
   126. (0.00000) RY*(16) C   6           s(  4.82%)p16.17( 77.98%)d 3.57( 17.20%)
   127. (0.00000) RY*(17) C   6           s(  6.78%)p10.62( 71.97%)d 3.13( 21.25%)
   128. (0.00510) RY*( 1) C   7           s(  0.23%)p99.99( 95.63%)d17.86(  4.14%)
                                           -0.0000  0.0151 -0.0248  0.0370 -0.0103
                                           -0.0007  0.7137  0.0242 -0.0317 -0.0322
                                            0.6608 -0.0424  0.0767  0.0000  0.0000
                                            0.0000 -0.0000  0.1888  0.0000 -0.0000
                                           -0.0656 -0.0373
   129. (0.00277) RY*( 2) C   7           s(  0.23%)p99.99( 98.44%)d 5.69(  1.32%)
                                           -0.0000 -0.0053  0.0419  0.0227  0.0054
                                            0.0377  0.6781 -0.1255 -0.0889 -0.0180
                                           -0.6947  0.1287 -0.0060 -0.0000  0.0000
                                            0.0000  0.0000 -0.1041 -0.0000  0.0000
                                           -0.0311  0.0380
   130. (0.00092) RY*( 3) C   7           s(  0.00%)p 1.00( 74.98%)d 0.33( 25.02%)
                                           -0.0000 -0.0000  0.0000 -0.0000  0.0000
                                           -0.0000 -0.0000 -0.0000  0.0000  0.0000
                                            0.0000  0.0000 -0.0000 -0.0103  0.8428
                                            0.1550  0.1236 -0.0000  0.4987 -0.0388
                                            0.0000 -0.0000
   131. (0.00054) RY*( 4) C   7           s( 94.04%)p 0.03(  2.51%)d 0.04(  3.45%)
                                           -0.0000  0.0058  0.9639  0.1059  0.0068
                                           -0.0297 -0.0216 -0.0593  0.0319 -0.0153
                                            0.0554 -0.0647  0.1081 -0.0000  0.0000
                                            0.0000 -0.0000 -0.1091 -0.0000  0.0000
                                           -0.1498 -0.0119
   132. (0.00052) RY*( 5) C   7           s(  0.00%)p 1.00( 16.33%)d 5.12( 83.67%)
                                            0.0000  0.0000  0.0000  0.0000  0.0000
                                           -0.0000 -0.0000 -0.0000  0.0000 -0.0000
                                            0.0000 -0.0000  0.0000  0.0098 -0.4012
                                           -0.0477  0.0001 -0.0000  0.6423 -0.6512
                                           -0.0000 -0.0000
   133. (0.00025) RY*( 6) C   7           s( 14.82%)p 4.12( 61.00%)d 1.63( 24.18%)
                                            0.0000  0.0015 -0.1903  0.3345  0.0087
                                           -0.0152 -0.1292 -0.6041 -0.3259  0.0119
                                            0.0731  0.0800  0.3318 -0.0000  0.0000
                                           -0.0000  0.0000 -0.1201 -0.0000 -0.0000
                                           -0.4763 -0.0234
   134. (0.00015) RY*( 7) C   7           s( 23.88%)p 1.32( 31.56%)d 1.87( 44.57%)
                                            0.0000 -0.0063 -0.0855  0.4716 -0.0948
                                           -0.0005  0.0596  0.0056  0.4739  0.0159
                                            0.1011  0.2215 -0.1669  0.0000 -0.0000
                                           -0.0000 -0.0000 -0.5290 -0.0000 -0.0000
                                            0.1056 -0.3932
   135. (0.00008) RY*( 8) C   7           s(  2.74%)p23.17( 63.40%)d12.38( 33.87%)
   136. (0.00008) RY*( 9) C   7           s(  0.00%)p 1.00( 63.68%)d 0.57( 36.32%)
   137. (0.00004) RY*(10) C   7           s(  5.51%)p10.93( 60.25%)d 6.21( 34.24%)
   138. (0.00004) RY*(11) C   7           s(  5.98%)p 8.20( 49.05%)d 7.52( 44.97%)
   139. (0.00000) RY*(12) C   7           s(  0.00%)p 1.00( 98.49%)d 0.02(  1.51%)
   140. (0.00001) RY*(13) C   7           s( 20.56%)p 2.44( 50.16%)d 1.42( 29.27%)
   141. (0.00000) RY*(14) C   7           s( 95.93%)p 0.02(  2.08%)d 0.02(  1.98%)
   142. (0.00000) RY*(15) C   7           s(  0.00%)p 1.00( 46.57%)d 1.15( 53.43%)
   143. (0.00001) RY*(16) C   7           s(  5.31%)p15.26( 80.97%)d 2.58( 13.72%)
   144. (0.00000) RY*(17) C   7           s( 30.75%)p 0.17(  5.09%)d 2.09( 64.15%)
   145. (0.00086) RY*( 1) H   8           s( 98.81%)p 0.01(  1.19%)
                                           -0.0036  0.9940 -0.0059 -0.0008 -0.0753
                                            0.0789 -0.0000
   146. (0.00019) RY*( 2) H   8           s( 90.16%)p 0.11(  9.84%)
                                            0.0058  0.0400  0.9485  0.0180  0.1990
                                           -0.2424 -0.0000
   147. (0.00016) RY*( 3) H   8           s(  0.00%)p 1.00(100.00%)
                                           -0.0000  0.0000  0.0000 -0.0000 -0.0000
                                            0.0000  1.0000
   148. (0.00011) RY*( 4) H   8           s( 51.47%)p 0.94( 48.53%)
                                            0.0016  0.0229 -0.0665  0.7140  0.6242
                                            0.3092  0.0000
   149. (0.00006) RY*( 5) H   8           s( 49.30%)p 1.03( 50.70%)
   150. (0.00003) RY*( 6) H   8           s( 10.31%)p 8.70( 89.69%)
   151. (0.00074) RY*( 1) H   9           s( 98.38%)p 0.02(  1.62%)
                                           -0.0042  0.9918 -0.0091  0.0006  0.0560
                                            0.1143 -0.0000
   152. (0.00021) RY*( 2) H   9           s( 90.28%)p 0.11(  9.72%)
                                            0.0052  0.0441  0.9491 -0.0111 -0.2515
                                           -0.1842  0.0000
   153. (0.00019) RY*( 3) H   9           s(  0.00%)p 1.00(100.00%)
                                           -0.0000  0.0000 -0.0000  0.0000  0.0000
                                           -0.0000  1.0000
   154. (0.00012) RY*( 4) H   9           s(  2.76%)p35.19( 97.24%)
                                           -0.0002  0.0070  0.1380  0.0925  0.8647
                                           -0.4739 -0.0000
   155. (0.00004) RY*( 5) H   9           s( 11.53%)p 7.67( 88.47%)
   156. (0.00002) RY*( 6) H   9           s( 97.10%)p 0.03(  2.90%)
   157. (0.00074) RY*( 1) H  10           s( 98.28%)p 0.02(  1.72%)
                                           -0.0042  0.9913 -0.0095 -0.0002  0.1312
                                           -0.0000  0.0000
   158. (0.00020) RY*( 2) H  10           s( 91.81%)p 0.09(  8.19%)
                                            0.0052  0.0470  0.9570 -0.0001 -0.2863
                                           -0.0000 -0.0000
   159. (0.00021) RY*( 3) H  10           s(  0.00%)p 1.00(100.00%)
                                            0.0000 -0.0000  0.0000  0.0000  0.0000
                                           -0.0000  1.0000
   160. (0.00012) RY*( 4) H  10           s(  0.00%)p 1.00(100.00%)
                                           -0.0000  0.0000  0.0000 -0.0000  0.0000
                                            1.0000  0.0000
   161. (0.00002) RY*( 5) H  10           s(100.00%)
   162. (0.00003) RY*( 6) H  10           s(  9.96%)p 9.04( 90.04%)
   163. (0.00074) RY*( 1) H  11           s( 98.38%)p 0.02(  1.62%)
                                           -0.0042  0.9918 -0.0091  0.0006  0.0560
                                           -0.1143  0.0000
   164. (0.00021) RY*( 2) H  11           s( 90.28%)p 0.11(  9.72%)
                                            0.0052  0.0441  0.9491 -0.0111 -0.2515
                                            0.1842  0.0000
   165. (0.00019) RY*( 3) H  11           s(  0.00%)p 1.00(100.00%)
                                            0.0000 -0.0000 -0.0000  0.0000  0.0000
                                            0.0000  1.0000
   166. (0.00012) RY*( 4) H  11           s(  2.76%)p35.19( 97.24%)
                                           -0.0002  0.0070  0.1380  0.0925  0.8647
                                            0.4739 -0.0000
   167. (0.00004) RY*( 5) H  11           s( 11.53%)p 7.67( 88.47%)
   168. (0.00002) RY*( 6) H  11           s( 97.10%)p 0.03(  2.90%)
   169. (0.00086) RY*( 1) H  12           s( 98.81%)p 0.01(  1.19%)
                                           -0.0036  0.9940 -0.0059 -0.0008 -0.0753
                                           -0.0789 -0.0000
   170. (0.00019) RY*( 2) H  12           s( 90.16%)p 0.11(  9.84%)
                                            0.0058  0.0400  0.9485  0.0180  0.1990
                                            0.2424  0.0000
   171. (0.00016) RY*( 3) H  12           s(  0.00%)p 1.00(100.00%)
                                           -0.0000  0.0000 -0.0000 -0.0000 -0.0000
                                           -0.0000  1.0000
   172. (0.00011) RY*( 4) H  12           s( 51.47%)p 0.94( 48.53%)
                                            0.0016  0.0229 -0.0665  0.7140  0.6242
                                           -0.3092  0.0000
   173. (0.00006) RY*( 5) H  12           s( 49.30%)p 1.03( 50.70%)
   174. (0.00003) RY*( 6) H  12           s( 10.31%)p 8.70( 89.69%)
   175. (0.03328) BD*( 1) F   1 - C   2  
                ( 27.27%)   0.5222* F   1 s( 30.04%)p 2.33( 69.88%)d 0.00(  0.08%)
                                            0.0000  0.5480  0.0099  0.0021 -0.0000
                                           -0.8359  0.0127  0.0032  0.0026 -0.0000
                                            0.0000 -0.0000  0.0000 -0.0000  0.0000
                                            0.0000  0.0000  0.0000  0.0000  0.0000
                                            0.0246 -0.0133
                ( 72.73%)  -0.8528* C   2 s( 21.72%)p 3.59( 77.94%)d 0.02(  0.34%)
                                           -0.0001  0.4656 -0.0208  0.0025 -0.0028
                                            0.8814 -0.0447 -0.0171 -0.0153 -0.0000
                                            0.0000 -0.0000 -0.0000  0.0000 -0.0000
                                           -0.0000 -0.0000  0.0000  0.0000  0.0000
                                            0.0524 -0.0260
   176. (0.02675) BD*( 1) C   2 - C   3  
                ( 50.02%)   0.7073* C   2 s( 39.02%)p 1.56( 60.95%)d 0.00(  0.04%)
                                            0.0000  0.6246  0.0045 -0.0007  0.0006
                                           -0.3302 -0.0211  0.0111 -0.0033 -0.7068
                                            0.0142  0.0054 -0.0008  0.0000 -0.0000
                                            0.0000 -0.0000  0.0127 -0.0000 -0.0000
                                           -0.0123 -0.0076
                ( 49.98%)  -0.7070* C   3 s( 34.02%)p 1.94( 65.92%)d 0.00(  0.06%)
                                            0.0000  0.5832 -0.0056  0.0031  0.0009
                                            0.4190 -0.0405  0.0015  0.0006  0.6942
                                           -0.0003 -0.0102  0.0024 -0.0000  0.0000
                                           -0.0000  0.0000  0.0161 -0.0000 -0.0000
                                           -0.0110 -0.0131
   177. (0.37067) BD*( 2) C   2 - C   3  
                ( 51.49%)   0.7176* C   2 s(  0.00%)p 1.00( 99.95%)d 0.00(  0.05%)
                                           -0.0000 -0.0000 -0.0000  0.0000 -0.0000
                                           -0.0000 -0.0000 -0.0000  0.0000  0.0000
                                            0.0000  0.0000  0.0000  0.9992  0.0256
                                            0.0196  0.0069 -0.0000 -0.0188 -0.0115
                                            0.0000 -0.0000
                ( 48.51%)  -0.6965* C   3 s(  0.00%)p 1.00( 99.94%)d 0.00(  0.06%)
                                           -0.0000  0.0000 -0.0000 -0.0000  0.0000
                                           -0.0000 -0.0000  0.0000  0.0000  0.0000
                                           -0.0000 -0.0000  0.0000  0.9993  0.0217
                                            0.0164 -0.0015  0.0000 -0.0014  0.0242
                                           -0.0000 -0.0000
   178. (0.02675) BD*( 1) C   2 - C   7  
                ( 50.02%)   0.7073* C   2 s( 39.02%)p 1.56( 60.95%)d 0.00(  0.04%)
                                            0.0000  0.6246  0.0045 -0.0007  0.0006
                                           -0.3302 -0.0211  0.0111 -0.0033  0.7068
                                           -0.0142 -0.0054  0.0008 -0.0000  0.0000
                                            0.0000 -0.0000 -0.0127 -0.0000 -0.0000
                                           -0.0123 -0.0076
                ( 49.98%)  -0.7070* C   7 s( 34.02%)p 1.94( 65.92%)d 0.00(  0.06%)
                                            0.0000  0.5832 -0.0056  0.0031  0.0009
                                            0.4190 -0.0405  0.0015  0.0006 -0.6942
                                            0.0003  0.0102 -0.0024 -0.0000  0.0000
                                           -0.0000  0.0000 -0.0161 -0.0000 -0.0000
                                           -0.0110 -0.0131
   179. (0.01454) BD*( 1) C   3 - C   4  
                ( 49.45%)   0.7032* C   3 s( 36.39%)p 1.75( 63.57%)d 0.00(  0.04%)
                                            0.0002 -0.6028  0.0215  0.0016  0.0004
                                            0.7959 -0.0183 -0.0087  0.0012  0.0251
                                           -0.0344  0.0054  0.0009  0.0000  0.0000
                                            0.0000 -0.0000  0.0048 -0.0000  0.0000
                                           -0.0159  0.0118
                ( 50.55%)  -0.7110* C   4 s( 35.28%)p 1.83( 64.68%)d 0.00(  0.04%)
                                           -0.0001 -0.5938  0.0137  0.0015  0.0001
                                           -0.8023  0.0210  0.0122 -0.0011  0.0286
                                           -0.0406  0.0045 -0.0007  0.0000 -0.0000
                                            0.0000 -0.0000 -0.0025  0.0000 -0.0000
                                           -0.0166  0.0126
   180. (0.01234) BD*( 1) C   3 - H   8  
                ( 38.87%)   0.6234* C   3 s( 29.61%)p 2.38( 70.36%)d 0.00(  0.04%)
                                           -0.0003  0.5437  0.0219 -0.0016 -0.0005
                                            0.4338  0.0090 -0.0011 -0.0013 -0.7178
                                           -0.0083  0.0019 -0.0009  0.0000 -0.0000
                                            0.0000 -0.0000 -0.0159 -0.0000  0.0000
                                           -0.0063 -0.0093
                ( 61.13%)  -0.7819* H   8 s( 99.95%)p 0.00(  0.05%)
                                            0.9998  0.0013  0.0010  0.0002 -0.0118
                                            0.0183  0.0000
   181. (0.01576) BD*( 1) C   4 - C   5  
                ( 49.87%)   0.7062* C   4 s( 36.18%)p 1.76( 63.78%)d 0.00(  0.04%)
                                           -0.0000 -0.6013  0.0146 -0.0002  0.0001
                                            0.4201 -0.0425 -0.0016  0.0006 -0.6778
                                           -0.0021  0.0102 -0.0001 -0.0000  0.0000
                                            0.0000 -0.0000  0.0132  0.0000 -0.0000
                                            0.0105  0.0120
                ( 50.13%)  -0.7080* C   5 s( 35.59%)p 1.81( 64.36%)d 0.00(  0.05%)
                                           -0.0000 -0.5964  0.0140  0.0004  0.0000
                                           -0.3786 -0.0227  0.0086 -0.0002  0.7059
                                           -0.0381 -0.0064  0.0008  0.0000  0.0000
                                           -0.0000 -0.0000  0.0162  0.0000 -0.0000
                                            0.0063  0.0123
   182. (0.33802) BD*( 2) C   4 - C   5  
                ( 51.08%)   0.7147* C   4 s(  0.00%)p 1.00( 99.96%)d 0.00(  0.04%)
                                           -0.0000 -0.0000 -0.0000  0.0000  0.0000
                                            0.0000  0.0000  0.0000 -0.0000 -0.0000
                                           -0.0000 -0.0000 -0.0000  0.9996  0.0154
                                            0.0148 -0.0022  0.0000  0.0008  0.0208
                                           -0.0000  0.0000
                ( 48.92%)  -0.6994* C   5 s(  0.00%)p 1.00( 99.96%)d 0.00(  0.04%)
                                            0.0000 -0.0000 -0.0000 -0.0000 -0.0000
                                            0.0000  0.0000  0.0000  0.0000 -0.0000
                                            0.0000 -0.0000 -0.0000  0.9995  0.0187
                                            0.0148 -0.0020 -0.0000  0.0184 -0.0088
                                            0.0000 -0.0000
   183. (0.01326) BD*( 1) C   4 - H   9  
                ( 39.54%)   0.6288* C   4 s( 28.55%)p 2.50( 71.40%)d 0.00(  0.04%)
                                           -0.0004  0.5338  0.0241  0.0012  0.0002
                                           -0.4201 -0.0080  0.0002 -0.0010 -0.7329
                                           -0.0166 -0.0011 -0.0017  0.0000  0.0000
                                            0.0000  0.0000  0.0163 -0.0000 -0.0000
                                           -0.0097 -0.0086
                ( 60.46%)  -0.7776* H   9 s( 99.95%)p 0.00(  0.05%)
                                            0.9998  0.0014  0.0010  0.0000  0.0106
                                            0.0192  0.0000
   184. (0.01576) BD*( 1) C   5 - C   6  
                ( 50.13%)   0.7080* C   5 s( 35.59%)p 1.81( 64.36%)d 0.00(  0.05%)
                                            0.0000  0.5964 -0.0140 -0.0004 -0.0000
                                            0.3786  0.0227 -0.0086  0.0002  0.7059
                                           -0.0381 -0.0064  0.0008 -0.0000 -0.0000
                                            0.0000  0.0000  0.0162 -0.0000 -0.0000
                                           -0.0063 -0.0123
                ( 49.87%)  -0.7062* C   6 s( 36.18%)p 1.76( 63.78%)d 0.00(  0.04%)
                                            0.0000  0.6013 -0.0146  0.0002 -0.0001
                                           -0.4201  0.0425  0.0016 -0.0006 -0.6778
                                           -0.0021  0.0102 -0.0001  0.0000 -0.0000
                                           -0.0000  0.0000  0.0132 -0.0000 -0.0000
                                           -0.0105 -0.0120
   185. (0.01330) BD*( 1) C   5 - H  10  
                ( 39.52%)   0.6287* C   5 s( 28.84%)p 2.47( 71.12%)d 0.00(  0.04%)
                                           -0.0004  0.5365  0.0240  0.0009  0.0002
                                           -0.8431 -0.0183 -0.0005 -0.0017  0.0000
                                           -0.0000  0.0000  0.0000  0.0000  0.0000
                                           -0.0000  0.0000  0.0000 -0.0000 -0.0000
                                            0.0189 -0.0084
                ( 60.48%)  -0.7777* H  10 s( 99.95%)p 0.00(  0.05%)
                                            0.9998  0.0013  0.0011 -0.0001  0.0218
                                            0.0000 -0.0000
   186. (0.01454) BD*( 1) C   6 - C   7  
                ( 50.55%)   0.7110* C   6 s( 35.28%)p 1.83( 64.68%)d 0.00(  0.04%)
                                            0.0001  0.5938 -0.0137 -0.0015 -0.0001
                                            0.8023 -0.0210 -0.0122  0.0011  0.0286
                                           -0.0406  0.0045 -0.0007 -0.0000  0.0000
                                            0.0000 -0.0000 -0.0025 -0.0000  0.0000
                                            0.0166 -0.0126
                ( 49.45%)  -0.7032* C   7 s( 36.39%)p 1.75( 63.57%)d 0.00(  0.04%)
                                           -0.0002  0.6028 -0.0215 -0.0016 -0.0004
                                           -0.7959  0.0183  0.0087 -0.0012  0.0251
                                           -0.0344  0.0054  0.0009  0.0000 -0.0000
                                           -0.0000  0.0000  0.0048 -0.0000  0.0000
                                            0.0159 -0.0118
   187. (0.34368) BD*( 2) C   6 - C   7  
                ( 51.72%)   0.7191* C   6 s(  0.00%)p 1.00( 99.95%)d 0.00(  0.05%)
                                            0.0000  0.0000 -0.0000  0.0000 -0.0000
                                            0.0000  0.0000  0.0000 -0.0000  0.0000
                                           -0.0000  0.0000  0.0000  0.9994  0.0193
                                            0.0174 -0.0015 -0.0000  0.0187 -0.0111
                                            0.0000 -0.0000
                ( 48.28%)  -0.6949* C   7 s(  0.00%)p 1.00( 99.95%)d 0.00(  0.05%)
                                           -0.0000  0.0000 -0.0000 -0.0000  0.0000
                                            0.0000  0.0000  0.0000 -0.0000  0.0000
                                           -0.0000  0.0000 -0.0000  0.9995  0.0191
                                            0.0149 -0.0026 -0.0000 -0.0167 -0.0143
                                           -0.0000  0.0000
   188. (0.01326) BD*( 1) C   6 - H  11  
                ( 39.54%)   0.6288* C   6 s( 28.55%)p 2.50( 71.40%)d 0.00(  0.04%)
                                            0.0004 -0.5338 -0.0241 -0.0012 -0.0002
                                            0.4201  0.0080 -0.0002  0.0010 -0.7329
                                           -0.0166 -0.0011 -0.0017 -0.0000 -0.0000
                                            0.0000 -0.0000  0.0163  0.0000 -0.0000
                                            0.0097  0.0086
                ( 60.46%)  -0.7776* H  11 s( 99.95%)p 0.00(  0.05%)
                                           -0.9998 -0.0014 -0.0010 -0.0000 -0.0106
                                            0.0192  0.0000
   189. (0.01234) BD*( 1) C   7 - H  12  
                ( 38.87%)   0.6234* C   7 s( 29.61%)p 2.38( 70.36%)d 0.00(  0.04%)
                                            0.0003 -0.5437 -0.0219  0.0016  0.0005
                                           -0.4338 -0.0090  0.0011  0.0013 -0.7178
                                           -0.0083  0.0019 -0.0009  0.0000 -0.0000
                                           -0.0000  0.0000 -0.0159  0.0000  0.0000
                                            0.0063  0.0093
                ( 61.13%)  -0.7819* H  12 s( 99.95%)p 0.00(  0.05%)
                                           -0.9998 -0.0013 -0.0010 -0.0002  0.0118
                                            0.0183 -0.0000


 NHO Directionality and "Bond Bending" (deviations from line of nuclear centers)

         [Thresholds for printing:  angular deviation  >  1.0 degree]
                                    hybrid p-character > 25.0%
                                    orbital occupancy  >  0.10e

                                Line of Centers        Hybrid 1              Hybrid 2
                                ---------------  -------------------   ------------------
                NBO               Theta   Phi    Theta   Phi    Dev    Theta   Phi    Dev
 ========================================================================================
     2. BD (   1) C   2 - C   3    90.0  241.3    90.0  243.5   2.2      --     --    --
     3. BD (   2) C   2 - C   3    90.0  241.3     0.0    0.0  90.0      0.0    0.0  90.0
     4. BD (   1) C   2 - C   7    90.0  118.7    90.0  116.5   2.2      --     --    --
     8. BD (   2) C   4 - C   5    90.0  120.1     0.0    0.0  90.0      0.0    0.0  90.0
    13. BD (   2) C   6 - C   7    90.0    0.4     0.0    0.0  90.0      0.0    0.0  90.0
    23. LP (   1) F   1             --     --     90.0    0.0   --       --     --    --
    24. LP (   2) F   1             --     --     90.0   90.0   --       --     --    --
    25. LP (   3) F   1             --     --      0.0    0.0   --       --     --    --
   177. BD*(   2) C   2 - C   3    90.0  241.3     0.0    0.0  90.0      0.0    0.0  90.0
   182. BD*(   2) C   4 - C   5    90.0  120.1     0.0    0.0  90.0      0.0    0.0  90.0
   187. BD*(   2) C   6 - C   7    90.0    0.4     0.0    0.0  90.0      0.0    0.0  90.0


 Second Order Perturbation Theory Analysis of Fock Matrix in NBO Basis

     Threshold for printing:   0.50 kcal/mol
                                                                              E(2)  E(j)-E(i) F(i,j)
         Donor NBO (i)                     Acceptor NBO (j)                 kcal/mol   a.u.    a.u. 
 ===================================================================================================

 within unit  1
   1. BD (   1) F   1 - C   2        / 43. RY*(   1) C   2                    0.86    2.15    0.038
   1. BD (   1) F   1 - C   2        /179. BD*(   1) C   3 - C   4            1.18    1.58    0.039
   1. BD (   1) F   1 - C   2        /186. BD*(   1) C   6 - C   7            1.18    1.58    0.039
   2. BD (   1) C   2 - C   3        / 26. RY*(   1) F   1                    0.51    1.24    0.023
   2. BD (   1) C   2 - C   3        / 77. RY*(   1) C   4                    0.95    1.81    0.037
   2. BD (   1) C   2 - C   3        / 78. RY*(   2) C   4                    1.44    2.00    0.048
   2. BD (   1) C   2 - C   3        /128. RY*(   1) C   7                    1.51    1.89    0.048
   2. BD (   1) C   2 - C   3        /129. RY*(   2) C   7                    0.68    1.80    0.031
   2. BD (   1) C   2 - C   3        /178. BD*(   1) C   2 - C   7            4.15    1.28    0.065
   2. BD (   1) C   2 - C   3        /179. BD*(   1) C   3 - C   4            2.54    1.29    0.051
   2. BD (   1) C   2 - C   3        /180. BD*(   1) C   3 - H   8            1.02    1.16    0.031
   2. BD (   1) C   2 - C   3        /183. BD*(   1) C   4 - H   9            2.30    1.16    0.046
   2. BD (   1) C   2 - C   3        /189. BD*(   1) C   7 - H  12            1.93    1.16    0.042
   3. BD (   2) C   2 - C   3        / 27. RY*(   2) F   1                    0.90    0.98    0.029
   3. BD (   2) C   2 - C   3        / 80. RY*(   4) C   4                    1.16    1.43    0.040
   3. BD (   2) C   2 - C   3        /132. RY*(   5) C   7                    0.79    1.73    0.036
   3. BD (   2) C   2 - C   3        /182. BD*(   2) C   4 - C   5           20.97    0.30    0.070
   3. BD (   2) C   2 - C   3        /187. BD*(   2) C   6 - C   7           18.89    0.29    0.066
   4. BD (   1) C   2 - C   7        / 26. RY*(   1) F   1                    0.51    1.24    0.023
   4. BD (   1) C   2 - C   7        / 60. RY*(   1) C   3                    1.51    1.89    0.048
   4. BD (   1) C   2 - C   7        / 61. RY*(   2) C   3                    0.68    1.80    0.031
   4. BD (   1) C   2 - C   7        /111. RY*(   1) C   6                    0.95    1.81    0.037
   4. BD (   1) C   2 - C   7        /112. RY*(   2) C   6                    1.44    2.00    0.048
   4. BD (   1) C   2 - C   7        /176. BD*(   1) C   2 - C   3            4.15    1.28    0.065
   4. BD (   1) C   2 - C   7        /180. BD*(   1) C   3 - H   8            1.93    1.16    0.042
   4. BD (   1) C   2 - C   7        /186. BD*(   1) C   6 - C   7            2.54    1.29    0.051
   4. BD (   1) C   2 - C   7        /188. BD*(   1) C   6 - H  11            2.30    1.16    0.046
   4. BD (   1) C   2 - C   7        /189. BD*(   1) C   7 - H  12            1.02    1.16    0.031
   5. BD (   1) C   3 - C   4        / 44. RY*(   2) C   2                    1.43    2.22    0.051
   5. BD (   1) C   3 - C   4        / 46. RY*(   4) C   2                    0.84    2.56    0.042
   5. BD (   1) C   3 - C   4        / 94. RY*(   1) C   5                    1.01    1.81    0.038
   5. BD (   1) C   3 - C   4        / 95. RY*(   2) C   5                    1.41    1.97    0.047
   5. BD (   1) C   3 - C   4        /175. BD*(   1) F   1 - C   2            4.35    0.97    0.058
   5. BD (   1) C   3 - C   4        /176. BD*(   1) C   2 - C   3            2.43    1.27    0.050
   5. BD (   1) C   3 - C   4        /180. BD*(   1) C   3 - H   8            1.28    1.14    0.034
   5. BD (   1) C   3 - C   4        /181. BD*(   1) C   4 - C   5            2.58    1.28    0.051
   5. BD (   1) C   3 - C   4        /183. BD*(   1) C   4 - H   9            0.77    1.15    0.027
   5. BD (   1) C   3 - C   4        /185. BD*(   1) C   5 - H  10            2.27    1.15    0.046
   6. BD (   1) C   3 - H   8        / 43. RY*(   1) C   2                    1.11    1.67    0.039
   6. BD (   1) C   3 - H   8        / 77. RY*(   1) C   4                    1.33    1.62    0.042
   6. BD (   1) C   3 - H   8        /175. BD*(   1) F   1 - C   2            1.24    0.79    0.028
   6. BD (   1) C   3 - H   8        /176. BD*(   1) C   2 - C   3            0.59    1.09    0.023
   6. BD (   1) C   3 - H   8        /178. BD*(   1) C   2 - C   7            3.94    1.09    0.059
   6. BD (   1) C   3 - H   8        /179. BD*(   1) C   3 - C   4            0.91    1.10    0.028
   6. BD (   1) C   3 - H   8        /181. BD*(   1) C   4 - C   5            3.52    1.10    0.056
   7. BD (   1) C   4 - C   5        / 61. RY*(   2) C   3                    2.06    1.78    0.054
   7. BD (   1) C   4 - C   5        /111. RY*(   1) C   6                    0.95    1.79    0.037
   7. BD (   1) C   4 - C   5        /112. RY*(   2) C   6                    1.48    1.98    0.048
   7. BD (   1) C   4 - C   5        /179. BD*(   1) C   3 - C   4            2.56    1.28    0.051
   7. BD (   1) C   4 - C   5        /180. BD*(   1) C   3 - H   8            2.48    1.14    0.047
   7. BD (   1) C   4 - C   5        /183. BD*(   1) C   4 - H   9            0.96    1.15    0.030
   7. BD (   1) C   4 - C   5        /184. BD*(   1) C   5 - C   6            2.68    1.28    0.052
   7. BD (   1) C   4 - C   5        /185. BD*(   1) C   5 - H  10            0.96    1.15    0.030
   7. BD (   1) C   4 - C   5        /188. BD*(   1) C   6 - H  11            2.40    1.15    0.047
   8. BD (   2) C   4 - C   5        / 62. RY*(   3) C   3                    1.96    0.82    0.039
   8. BD (   2) C   4 - C   5        /113. RY*(   3) C   6                    1.19    1.36    0.039
   8. BD (   2) C   4 - C   5        /177. BD*(   2) C   2 - C   3           19.23    0.27    0.065
   8. BD (   2) C   4 - C   5        /187. BD*(   2) C   6 - C   7           22.09    0.28    0.070
   9. BD (   1) C   4 - H   9        / 60. RY*(   1) C   3                    1.46    1.69    0.045
   9. BD (   1) C   4 - H   9        / 94. RY*(   1) C   5                    1.47    1.62    0.044
   9. BD (   1) C   4 - H   9        /176. BD*(   1) C   2 - C   3            3.17    1.08    0.052
   9. BD (   1) C   4 - H   9        /179. BD*(   1) C   3 - C   4            0.52    1.10    0.021
   9. BD (   1) C   4 - H   9        /181. BD*(   1) C   4 - C   5            0.61    1.10    0.023
   9. BD (   1) C   4 - H   9        /184. BD*(   1) C   5 - C   6            3.71    1.10    0.057
   9. BD (   1) C   4 - H   9        /185. BD*(   1) C   5 - H  10            0.52    0.97    0.020
  10. BD (   1) C   5 - C   6        / 77. RY*(   1) C   4                    0.95    1.79    0.037
  10. BD (   1) C   5 - C   6        / 78. RY*(   2) C   4                    1.48    1.98    0.048
  10. BD (   1) C   5 - C   6        /129. RY*(   2) C   7                    2.06    1.78    0.054
  10. BD (   1) C   5 - C   6        /181. BD*(   1) C   4 - C   5            2.68    1.28    0.052
  10. BD (   1) C   5 - C   6        /183. BD*(   1) C   4 - H   9            2.40    1.15    0.047
  10. BD (   1) C   5 - C   6        /185. BD*(   1) C   5 - H  10            0.96    1.15    0.030
  10. BD (   1) C   5 - C   6        /186. BD*(   1) C   6 - C   7            2.56    1.28    0.051
  10. BD (   1) C   5 - C   6        /188. BD*(   1) C   6 - H  11            0.96    1.15    0.030
  10. BD (   1) C   5 - C   6        /189. BD*(   1) C   7 - H  12            2.48    1.14    0.047
  11. BD (   1) C   5 - H  10        / 77. RY*(   1) C   4                    1.44    1.61    0.043
  11. BD (   1) C   5 - H  10        /111. RY*(   1) C   6                    1.44    1.61    0.043
  11. BD (   1) C   5 - H  10        /179. BD*(   1) C   3 - C   4            3.80    1.09    0.058
  11. BD (   1) C   5 - H  10        /181. BD*(   1) C   4 - C   5            0.62    1.10    0.023
  11. BD (   1) C   5 - H  10        /183. BD*(   1) C   4 - H   9            0.50    0.96    0.020
  11. BD (   1) C   5 - H  10        /184. BD*(   1) C   5 - C   6            0.62    1.10    0.023
  11. BD (   1) C   5 - H  10        /186. BD*(   1) C   6 - C   7            3.80    1.09    0.058
  11. BD (   1) C   5 - H  10        /188. BD*(   1) C   6 - H  11            0.50    0.96    0.020
  12. BD (   1) C   6 - C   7        / 44. RY*(   2) C   2                    1.43    2.22    0.051
  12. BD (   1) C   6 - C   7        / 46. RY*(   4) C   2                    0.84    2.56    0.042
  12. BD (   1) C   6 - C   7        / 94. RY*(   1) C   5                    1.01    1.81    0.038
  12. BD (   1) C   6 - C   7        / 95. RY*(   2) C   5                    1.41    1.97    0.047
  12. BD (   1) C   6 - C   7        /175. BD*(   1) F   1 - C   2            4.35    0.97    0.058
  12. BD (   1) C   6 - C   7        /178. BD*(   1) C   2 - C   7            2.43    1.27    0.050
  12. BD (   1) C   6 - C   7        /184. BD*(   1) C   5 - C   6            2.58    1.28    0.051
  12. BD (   1) C   6 - C   7        /185. BD*(   1) C   5 - H  10            2.27    1.15    0.046
  12. BD (   1) C   6 - C   7        /188. BD*(   1) C   6 - H  11            0.77    1.15    0.027
  12. BD (   1) C   6 - C   7        /189. BD*(   1) C   7 - H  12            1.28    1.14    0.034
  13. BD (   2) C   6 - C   7        / 96. RY*(   3) C   5                    1.04    0.78    0.028
  13. BD (   2) C   6 - C   7        /177. BD*(   2) C   2 - C   3           23.14    0.28    0.072
  13. BD (   2) C   6 - C   7        /182. BD*(   2) C   4 - C   5           18.58    0.28    0.065
  14. BD (   1) C   6 - H  11        / 94. RY*(   1) C   5                    1.47    1.62    0.044
  14. BD (   1) C   6 - H  11        /128. RY*(   1) C   7                    1.46    1.69    0.045
  14. BD (   1) C   6 - H  11        /178. BD*(   1) C   2 - C   7            3.17    1.08    0.052
  14. BD (   1) C   6 - H  11        /181. BD*(   1) C   4 - C   5            3.71    1.10    0.057
  14. BD (   1) C   6 - H  11        /184. BD*(   1) C   5 - C   6            0.61    1.10    0.023
  14. BD (   1) C   6 - H  11        /185. BD*(   1) C   5 - H  10            0.52    0.97    0.020
  14. BD (   1) C   6 - H  11        /186. BD*(   1) C   6 - C   7            0.52    1.10    0.021
  15. BD (   1) C   7 - H  12        / 43. RY*(   1) C   2                    1.11    1.67    0.039
  15. BD (   1) C   7 - H  12        /111. RY*(   1) C   6                    1.33    1.62    0.042
  15. BD (   1) C   7 - H  12        /175. BD*(   1) F   1 - C   2            1.24    0.79    0.028
  15. BD (   1) C   7 - H  12        /176. BD*(   1) C   2 - C   3            3.94    1.09    0.059
  15. BD (   1) C   7 - H  12        /178. BD*(   1) C   2 - C   7            0.59    1.09    0.023
  15. BD (   1) C   7 - H  12        /184. BD*(   1) C   5 - C   6            3.52    1.10    0.056
  15. BD (   1) C   7 - H  12        /186. BD*(   1) C   6 - C   7            0.91    1.10    0.028
  16. CR (   1) F   1                / 43. RY*(   1) C   2                    2.42   25.57    0.222
  17. CR (   1) C   2                / 61. RY*(   2) C   3                    1.67   11.21    0.122
  17. CR (   1) C   2                /129. RY*(   2) C   7                    1.67   11.21    0.122
  17. CR (   1) C   2                /175. BD*(   1) F   1 - C   2            3.20   10.40    0.164
  17. CR (   1) C   2                /176. BD*(   1) C   2 - C   3            1.06   10.70    0.096
  17. CR (   1) C   2                /178. BD*(   1) C   2 - C   7            1.06   10.70    0.096
  17. CR (   1) C   2                /179. BD*(   1) C   3 - C   4            0.58   10.71    0.071
  17. CR (   1) C   2                /186. BD*(   1) C   6 - C   7            0.58   10.71    0.071
  18. CR (   1) C   3                / 44. RY*(   2) C   2                    2.02   11.55    0.137
  18. CR (   1) C   3                / 78. RY*(   2) C   4                    1.62   11.31    0.121
  18. CR (   1) C   3                /175. BD*(   1) F   1 - C   2            0.61   10.30    0.071
  18. CR (   1) C   3                /178. BD*(   1) C   2 - C   7            0.98   10.60    0.091
  18. CR (   1) C   3                /181. BD*(   1) C   4 - C   5            0.72   10.61    0.078
  19. CR (   1) C   4                / 60. RY*(   1) C   3                    0.61   11.21    0.074
  19. CR (   1) C   4                / 61. RY*(   2) C   3                    0.96   11.12    0.092
  19. CR (   1) C   4                / 64. RY*(   5) C   3                    0.51   10.85    0.066
  19. CR (   1) C   4                / 95. RY*(   2) C   5                    1.54   11.31    0.118
  19. CR (   1) C   4                /176. BD*(   1) C   2 - C   3            0.54   10.60    0.068
  19. CR (   1) C   4                /184. BD*(   1) C   5 - C   6            0.69   10.62    0.077
  20. CR (   1) C   5                / 78. RY*(   2) C   4                    1.44   11.31    0.114
  20. CR (   1) C   5                /112. RY*(   2) C   6                    1.44   11.31    0.114
  20. CR (   1) C   5                /179. BD*(   1) C   3 - C   4            0.71   10.61    0.078
  20. CR (   1) C   5                /186. BD*(   1) C   6 - C   7            0.71   10.61    0.078
  21. CR (   1) C   6                / 95. RY*(   2) C   5                    1.54   11.31    0.118
  21. CR (   1) C   6                /128. RY*(   1) C   7                    0.61   11.21    0.074
  21. CR (   1) C   6                /129. RY*(   2) C   7                    0.96   11.12    0.092
  21. CR (   1) C   6                /131. RY*(   4) C   7                    0.51   10.85    0.066
  21. CR (   1) C   6                /178. BD*(   1) C   2 - C   7            0.54   10.60    0.068
  21. CR (   1) C   6                /181. BD*(   1) C   4 - C   5            0.69   10.62    0.077
  22. CR (   1) C   7                / 44. RY*(   2) C   2                    2.02   11.55    0.137
  22. CR (   1) C   7                /112. RY*(   2) C   6                    1.62   11.31    0.121
  22. CR (   1) C   7                /175. BD*(   1) F   1 - C   2            0.61   10.30    0.071
  22. CR (   1) C   7                /176. BD*(   1) C   2 - C   3            0.98   10.60    0.091
  22. CR (   1) C   7                /184. BD*(   1) C   5 - C   6            0.72   10.61    0.078
  23. LP (   1) F   1                / 43. RY*(   1) C   2                    8.01    2.18    0.118
  23. LP (   1) F   1                /176. BD*(   1) C   2 - C   3            1.08    1.60    0.037
  23. LP (   1) F   1                /178. BD*(   1) C   2 - C   7            1.08    1.60    0.037
  24. LP (   2) F   1                / 46. RY*(   4) C   2                    0.97    2.27    0.042
  24. LP (   2) F   1                /176. BD*(   1) C   2 - C   3            5.83    0.98    0.067
  24. LP (   2) F   1                /178. BD*(   1) C   2 - C   7            5.83    0.98    0.067
  25. LP (   3) F   1                / 45. RY*(   3) C   2                    1.75    1.87    0.052
  25. LP (   3) F   1                /177. BD*(   2) C   2 - C   3           17.86    0.43    0.085
 177. BD*(   2) C   2 - C   3        / 45. RY*(   3) C   2                    0.63    1.44    0.062
 177. BD*(   2) C   2 - C   3        / 50. RY*(   8) C   2                    0.59    0.59    0.038
 177. BD*(   2) C   2 - C   3        / 62. RY*(   3) C   3                    1.40    0.55    0.057
 177. BD*(   2) C   2 - C   3        / 63. RY*(   4) C   3                    0.74    1.56    0.071
 182. BD*(   2) C   4 - C   5        / 62. RY*(   3) C   3                    0.68    0.54    0.042
 182. BD*(   2) C   4 - C   5        / 79. RY*(   3) C   4                    1.47    0.99    0.083
 182. BD*(   2) C   4 - C   5        / 87. RY*(  11) C   4                    0.72    0.39    0.036
 182. BD*(   2) C   4 - C   5        / 96. RY*(   3) C   5                    2.91    0.50    0.082
 182. BD*(   2) C   4 - C   5        /104. RY*(  11) C   5                    0.59    0.35    0.031
 187. BD*(   2) C   6 - C   7        /114. RY*(   4) C   6                    1.60    1.04    0.088
 187. BD*(   2) C   6 - C   7        /130. RY*(   3) C   7                    2.58    0.66    0.089


 Natural Bond Orbitals (Summary):

                                                            Principal Delocalizations
           NBO                        Occupancy    Energy   (geminal,vicinal,remote)
 ====================================================================================
 Molecular unit  1  (C6H5F)
     1. BD (   1) F   1 - C   2          1.99574    -1.01556  179(v),186(v),43(g)
     2. BD (   1) C   2 - C   3          1.98066    -0.72778  178(g),179(g),183(v),189(v)
                                                    128(v),78(v),180(g),77(v)
                                                    129(v),26(v)
     3. BD (   2) C   2 - C   3          1.65975    -0.27617  182(v),187(v),80(v),27(v)
                                                    132(v)
     4. BD (   1) C   2 - C   7          1.98066    -0.72778  176(g),186(g),188(v),180(v)
                                                    60(v),112(v),189(g),111(v)
                                                    61(v),26(v)
     5. BD (   1) C   3 - C   4          1.97453    -0.71129  175(v),181(g),176(g),185(v)
                                                    44(v),95(v),180(g),94(v)
                                                    46(v),183(g)
     6. BD (   1) C   3 - H   8          1.97733    -0.53428  178(v),181(v),77(v),175(v)
                                                    43(v),179(g),176(g)
     7. BD (   1) C   4 - C   5          1.97996    -0.70896  184(g),179(g),180(v),188(v)
                                                    61(v),112(v),183(g),185(g)
                                                    111(v)
     8. BD (   2) C   4 - C   5          1.66769    -0.26136  187(v),177(v),62(v),113(v)
     9. BD (   1) C   4 - H   9          1.98025    -0.52859  184(v),176(v),94(v),60(v)
                                                    181(g),179(g),185(v)
    10. BD (   1) C   5 - C   6          1.97996    -0.70896  181(g),186(g),189(v),183(v)
                                                    129(v),78(v),188(g),185(g)
                                                    77(v)
    11. BD (   1) C   5 - H  10          1.97990    -0.52572  179(v),186(v),77(v),111(v)
                                                    181(g),184(g)
    12. BD (   1) C   6 - C   7          1.97453    -0.71129  175(v),184(g),178(g),185(v)
                                                    44(v),95(v),189(g),94(v)
                                                    46(v),188(g)
    13. BD (   2) C   6 - C   7          1.67921    -0.26492  177(v),182(v),96(v)
    14. BD (   1) C   6 - H  11          1.98025    -0.52859  181(v),178(v),94(v),128(v)
                                                    184(g),186(g),185(v)
    15. BD (   1) C   7 - H  12          1.97733    -0.53428  176(v),184(v),111(v),175(v)
                                                    43(v),186(g),178(g)
    16. CR (   1) F   1                  1.99993   -24.43130  43(v)
    17. CR (   1) C   2                  1.99848   -10.14125  175(g),61(v),129(v),176(g)
                                                    178(g),179(v),186(v)
    18. CR (   1) C   3                  1.99904   -10.04455  44(v),78(v),178(v),181(v)
                                                    175(v)
    19. CR (   1) C   4                  1.99918   -10.04780  95(v),61(v),184(v),60(v)
                                                    176(v),64(v)
    20. CR (   1) C   5                  1.99915   -10.04058  78(v),112(v),179(v),186(v)
    21. CR (   1) C   6                  1.99918   -10.04780  95(v),129(v),181(v),128(v)
                                                    178(v),131(v)
    22. CR (   1) C   7                  1.99904   -10.04455  44(v),112(v),176(v),184(v)
                                                    175(v)
    23. LP (   1) F   1                  1.98962    -1.04038  43(v),176(v),178(v)
    24. LP (   2) F   1                  1.97290    -0.42088  176(v),178(v),46(v)
    25. LP (   3) F   1                  1.92842    -0.42007  177(v),45(v)
    26. RY*(   1) F   1                  0.00251     0.51500   
    27. RY*(   2) F   1                  0.00135     0.70399   
    28. RY*(   3) F   1                  0.00048     0.52740   
    29. RY*(   4) F   1                  0.00013     1.79068   
    30. RY*(   5) F   1                  0.00002     2.56222   
    31. RY*(   6) F   1                  0.00001     1.49849   
    32. RY*(   7) F   1                  0.00002     1.47246   
    33. RY*(   8) F   1                  0.00001     1.44318   
    34. RY*(   9) F   1                  0.00001     3.88755   
    35. RY*(  10) F   1                  0.00000     5.08179   
    36. RY*(  11) F   1                  0.00000    66.57517   
    37. RY*(  12) F   1                  0.00000     6.25796   
    38. RY*(  13) F   1                  0.00000     6.32897   
    39. RY*(  14) F   1                  0.00000     3.33631   
    40. RY*(  15) F   1                  0.00000     3.77329   
    41. RY*(  16) F   1                  0.00000     3.85418   
    42. RY*(  17) F   1                  0.00000     3.71586   
    43. RY*(   1) C   2                  0.00823     1.13684   
    44. RY*(   2) C   2                  0.00414     1.50381   
    45. RY*(   3) C   2                  0.00240     1.44719   
    46. RY*(   4) C   2                  0.00200     1.84992   
    47. RY*(   5) C   2                  0.00186     1.56793   
    48. RY*(   6) C   2                  0.00080     1.64145   
    49. RY*(   7) C   2                  0.00024     1.39933   
    50. RY*(   8) C   2                  0.00018     0.59927   
    51. RY*(   9) C   2                  0.00012     3.79548   
    52. RY*(  10) C   2                  0.00007     2.55279   
    53. RY*(  11) C   2                  0.00003     1.85644   
    54. RY*(  12) C   2                  0.00000     2.67731   
    55. RY*(  13) C   2                  0.00001     0.80066   
    56. RY*(  14) C   2                  0.00000    20.19975   
    57. RY*(  15) C   2                  0.00000     1.06794   
    58. RY*(  16) C   2                  0.00001     2.26131   
    59. RY*(  17) C   2                  0.00000     0.34265   
    60. RY*(   1) C   3                  0.00510     1.16613   
    61. RY*(   2) C   3                  0.00277     1.06895   
    62. RY*(   3) C   3                  0.00084     0.56115   
    63. RY*(   4) C   3                  0.00057     1.56935   
    64. RY*(   5) C   3                  0.00054     0.80488   
    65. RY*(   6) C   3                  0.00025     2.06794   
    66. RY*(   7) C   3                  0.00015     2.38388   
    67. RY*(   8) C   3                  0.00008     1.50996   
    68. RY*(   9) C   3                  0.00008     0.91553   
    69. RY*(  10) C   3                  0.00004     3.40753   
    70. RY*(  11) C   3                  0.00004     1.39460   
    71. RY*(  12) C   3                  0.00000     2.73843   
    72. RY*(  13) C   3                  0.00001     2.21244   
    73. RY*(  14) C   3                  0.00000    21.59779   
    74. RY*(  15) C   3                  0.00000     0.97178   
    75. RY*(  16) C   3                  0.00001     1.35900   
    76. RY*(  17) C   3                  0.00000     1.80156   
    77. RY*(   1) C   4                  0.00576     1.08272   
    78. RY*(   2) C   4                  0.00224     1.27001   
    79. RY*(   3) C   4                  0.00080     1.01103   
    80. RY*(   4) C   4                  0.00048     1.15287   
    81. RY*(   5) C   4                  0.00036     1.06759   
    82. RY*(   6) C   4                  0.00025     1.02430   
    83. RY*(   7) C   4                  0.00011     2.94398   
    84. RY*(   8) C   4                  0.00007     1.91041   
    85. RY*(   9) C   4                  0.00005     2.53270   
    86. RY*(  10) C   4                  0.00002     2.52040   
    87. RY*(  11) C   4                  0.00001     0.40872   
    88. RY*(  12) C   4                  0.00000     2.73569   
    89. RY*(  13) C   4                  0.00000    21.00580   
    90. RY*(  14) C   4                  0.00001     1.00562   
    91. RY*(  15) C   4                  0.00001     1.42871   
    92. RY*(  16) C   4                  0.00000     2.62425   
    93. RY*(  17) C   4                  0.00000     1.54449   
    94. RY*(   1) C   5                  0.00599     1.09616   
    95. RY*(   2) C   5                  0.00217     1.25737   
    96. RY*(   3) C   5                  0.00081     0.51644   
    97. RY*(   4) C   5                  0.00054     1.64063   
    98. RY*(   5) C   5                  0.00037     0.86021   
    99. RY*(   6) C   5                  0.00026     1.24428   
   100. RY*(   7) C   5                  0.00011     2.55543   
   101. RY*(   8) C   5                  0.00007     3.00260   
   102. RY*(   9) C   5                  0.00004     2.00163   
   103. RY*(  10) C   5                  0.00002     1.50043   
   104. RY*(  11) C   5                  0.00000     0.37212   
   105. RY*(  12) C   5                  0.00000     2.74002   
   106. RY*(  13) C   5                  0.00000     2.68553   
   107. RY*(  14) C   5                  0.00000     1.47896   
   108. RY*(  15) C   5                  0.00000     1.65422   
   109. RY*(  16) C   5                  0.00000    20.99323   
   110. RY*(  17) C   5                  0.00001     1.67800   
   111. RY*(   1) C   6                  0.00576     1.08272   
   112. RY*(   2) C   6                  0.00224     1.27001   
   113. RY*(   3) C   6                  0.00072     1.10306   
   114. RY*(   4) C   6                  0.00053     1.06058   
   115. RY*(   5) C   6                  0.00036     1.06759   
   116. RY*(   6) C   6                  0.00025     1.02430   
   117. RY*(   7) C   6                  0.00011     2.94398   
   118. RY*(   8) C   6                  0.00007     1.91041   
   119. RY*(   9) C   6                  0.00005     2.53270   
   120. RY*(  10) C   6                  0.00001     2.53898   
   121. RY*(  11) C   6                  0.00001     0.40696   
   122. RY*(  12) C   6                  0.00000     2.73686   
   123. RY*(  13) C   6                  0.00001     1.13095   
   124. RY*(  14) C   6                  0.00000    21.28589   
   125. RY*(  15) C   6                  0.00001     1.42989   
   126. RY*(  16) C   6                  0.00000     2.24659   
   127. RY*(  17) C   6                  0.00000     1.49816   
   128. RY*(   1) C   7                  0.00510     1.16613   
   129. RY*(   2) C   7                  0.00277     1.06895   
   130. RY*(   3) C   7                  0.00092     0.67736   
   131. RY*(   4) C   7                  0.00054     0.80488   
   132. RY*(   5) C   7                  0.00052     1.45482   
   133. RY*(   6) C   7                  0.00025     2.06794   
   134. RY*(   7) C   7                  0.00015     2.38388   
   135. RY*(   8) C   7                  0.00008     1.50996   
   136. RY*(   9) C   7                  0.00008     0.91364   
   137. RY*(  10) C   7                  0.00004     3.40829   
   138. RY*(  11) C   7                  0.00004     1.39384   
   139. RY*(  12) C   7                  0.00000     2.74153   
   140. RY*(  13) C   7                  0.00001     2.22115   
   141. RY*(  14) C   7                  0.00000    21.60981   
   142. RY*(  15) C   7                  0.00000     0.96868   
   143. RY*(  16) C   7                  0.00001     1.33962   
   144. RY*(  17) C   7                  0.00000     1.80021   
   145. RY*(   1) H   8                  0.00086     0.71888   
   146. RY*(   2) H   8                  0.00019     2.24312   
   147. RY*(   3) H   8                  0.00016     1.59176   
   148. RY*(   4) H   8                  0.00011     1.08808   
   149. RY*(   5) H   8                  0.00006     1.13599   
   150. RY*(   6) H   8                  0.00003     2.47582   
   151. RY*(   1) H   9                  0.00074     0.64001   
   152. RY*(   2) H   9                  0.00021     2.27515   
   153. RY*(   3) H   9                  0.00019     1.58371   
   154. RY*(   4) H   9                  0.00012     1.95809   
   155. RY*(   5) H   9                  0.00004     2.44143   
   156. RY*(   6) H   9                  0.00002     0.27202   
   157. RY*(   1) H  10                  0.00074     0.71083   
   158. RY*(   2) H  10                  0.00020     2.23804   
   159. RY*(   3) H  10                  0.00021     1.58760   
   160. RY*(   4) H  10                  0.00012     1.96438   
   161. RY*(   5) H  10                  0.00002     0.24063   
   162. RY*(   6) H  10                  0.00003     2.45731   
   163. RY*(   1) H  11                  0.00074     0.64001   
   164. RY*(   2) H  11                  0.00021     2.27515   
   165. RY*(   3) H  11                  0.00019     1.58371   
   166. RY*(   4) H  11                  0.00012     1.95809   
   167. RY*(   5) H  11                  0.00004     2.44143   
   168. RY*(   6) H  11                  0.00002     0.27202   
   169. RY*(   1) H  12                  0.00086     0.71888   
   170. RY*(   2) H  12                  0.00019     2.24312   
   171. RY*(   3) H  12                  0.00016     1.59176   
   172. RY*(   4) H  12                  0.00011     1.08808   
   173. RY*(   5) H  12                  0.00006     1.13599   
   174. RY*(   6) H  12                  0.00003     2.47582   
   175. BD*(   1) F   1 - C   2          0.03328     0.25497   
   176. BD*(   1) C   2 - C   3          0.02675     0.55585   
   177. BD*(   2) C   2 - C   3          0.37067     0.01135  187(v),182(v),62(g),63(g)
                                                    45(g),50(g)
   178. BD*(   1) C   2 - C   7          0.02675     0.55585   
   179. BD*(   1) C   3 - C   4          0.01454     0.56671   
   180. BD*(   1) C   3 - H   8          0.01234     0.42758   
   181. BD*(   1) C   4 - C   5          0.01576     0.56992   
   182. BD*(   2) C   4 - C   5          0.33802     0.02000  187(v),177(v),96(g),79(g)
                                                    87(g),62(v),104(g)
   183. BD*(   1) C   4 - H   9          0.01326     0.43682   
   184. BD*(   1) C   5 - C   6          0.01576     0.56992   
   185. BD*(   1) C   5 - H  10          0.01330     0.43923   
   186. BD*(   1) C   6 - C   7          0.01454     0.56671   
   187. BD*(   2) C   6 - C   7          0.34368     0.01626  182(v),177(v),130(g),114(g)
   188. BD*(   1) C   6 - H  11          0.01326     0.43682   
   189. BD*(   1) C   7 - H  12          0.01234     0.42758   
       -------------------------------
              Total Lewis   48.65267  ( 97.3053%)
        Valence non-Lewis    1.26424  (  2.5285%)
        Rydberg non-Lewis    0.08309  (  0.1662%)
       -------------------------------
            Total unit  1   50.00000  (100.0000%)
           Charge unit  1    0.00000
 Calling FoFJK, ICntrl=    100127 FMM=F ISym2X=0 I1Cent= 0 IOpClX= 0 NMat=1 NMatS=1 NMatT=0.
 Full mass-weighted force constant matrix:
 Low frequencies ---   -7.6938   -6.4600   -5.9802   -0.0011   -0.0007   -0.0005
 Low frequencies ---  236.4763  404.4438  421.3560
 Diagonal vibrational polarizability:
        5.7609870       0.7188374       6.1303197
 Harmonic frequencies (cm**-1), IR intensities (KM/Mole), Raman scattering
 activities (A**4/AMU), depolarization ratios for plane and unpolarized
 incident light, reduced masses (AMU), force constants (mDyne/A),
 and normal coordinates:
                      1                      2                      3
                      A                      A                      A
 Frequencies --    236.4763               404.4438               421.3560
 Red. masses --      5.3235                 6.1785                 3.0277
 Frc consts  --      0.1754                 0.5955                 0.3167
 IR Inten    --      0.0979                 2.2526                 0.0000
  Atom  AN      X      Y      Z        X      Y      Z        X      Y      Z
     1   9    -0.00   0.00   0.28     0.00   0.38  -0.00    -0.00  -0.00  -0.00
     2   6     0.00  -0.00  -0.17    -0.00  -0.25  -0.00    -0.00   0.00   0.00
     3   6     0.00  -0.00  -0.28    -0.07  -0.24   0.00     0.00   0.00   0.22
     4   6     0.00   0.00  -0.00    -0.12   0.03  -0.00     0.00  -0.00  -0.21
     5   6     0.00  -0.00   0.28     0.00   0.10  -0.00     0.00  -0.00   0.00
     6   6     0.00  -0.00  -0.00     0.12   0.03   0.00    -0.00  -0.00   0.21
     7   6     0.00  -0.00  -0.28     0.07  -0.24  -0.00    -0.00   0.00  -0.22
     8   1    -0.00  -0.00  -0.35    -0.27  -0.37   0.00     0.00   0.00   0.44
     9   1     0.00   0.00   0.07    -0.27   0.11  -0.00     0.00  -0.00  -0.46
    10   1     0.00   0.00   0.63     0.00   0.20  -0.00     0.00  -0.00   0.00
    11   1     0.00  -0.00   0.07     0.27   0.11   0.00    -0.00  -0.00   0.46
    12   1    -0.00  -0.00  -0.35     0.27  -0.37  -0.00    -0.00   0.00  -0.44
                      4                      5                      6
                      A                      A                      A
 Frequencies --    505.4166               524.1644               627.5034
 Red. masses --      2.9358                 8.6419                 6.5328
 Frc consts  --      0.4418                 1.3989                 1.5156
 IR Inten    --     10.7491                 6.3285                 0.1976
  Atom  AN      X      Y      Z        X      Y      Z        X      Y      Z
     1   9     0.00   0.00  -0.07     0.43   0.00   0.00    -0.00  -0.08   0.00
     2   6     0.00  -0.00   0.30     0.28  -0.00  -0.00    -0.00  -0.13  -0.00
     3   6    -0.00   0.00   0.01    -0.08   0.16  -0.00     0.25  -0.18   0.00
     4   6    -0.00   0.00  -0.14    -0.16   0.15   0.00     0.27   0.25  -0.00
     5   6    -0.00  -0.00   0.20    -0.39   0.00  -0.00    -0.00   0.13  -0.00
     6   6    -0.00  -0.00  -0.14    -0.16  -0.15   0.00    -0.27   0.25   0.00
     7   6    -0.00  -0.00   0.01    -0.08  -0.16  -0.00    -0.25  -0.18  -0.00
     8   1    -0.00  -0.00  -0.38    -0.36  -0.01   0.00     0.12  -0.26   0.00
     9   1    -0.00   0.00  -0.49     0.04   0.04   0.00     0.15   0.32  -0.00
    10   1    -0.00   0.00   0.23    -0.39  -0.00  -0.00    -0.00  -0.31  -0.00
    11   1    -0.00  -0.00  -0.49     0.04  -0.04   0.00    -0.15   0.32   0.00
    12   1    -0.00  -0.00  -0.38    -0.36   0.01   0.00    -0.12  -0.26  -0.00
                      7                      8                      9
                      A                      A                      A
 Frequencies --    677.3791               764.1721               818.7489
 Red. masses --      2.8794                 1.4599                 6.3026
 Frc consts  --      0.7784                 0.5023                 2.4893
 IR Inten    --     17.0951                79.8374                31.4926
  Atom  AN      X      Y      Z        X      Y      Z        X      Y      Z
     1   9     0.00  -0.00  -0.01     0.00  -0.00  -0.02     0.28  -0.00   0.00
     2   6    -0.00   0.00   0.19    -0.00   0.00   0.15    -0.06   0.00  -0.00
     3   6     0.00  -0.00  -0.13    -0.00  -0.00  -0.06    -0.10  -0.21  -0.00
     4   6     0.00  -0.00   0.19    -0.00  -0.00  -0.04    -0.16  -0.27  -0.00
     5   6    -0.00   0.00  -0.16    -0.00   0.00  -0.09     0.20   0.00  -0.00
     6   6     0.00   0.00   0.19    -0.00   0.00  -0.04    -0.16   0.27   0.00
     7   6    -0.00   0.00  -0.13    -0.00  -0.00  -0.06    -0.10   0.21   0.00
     8   1     0.00   0.00  -0.55     0.00   0.00   0.19     0.00  -0.16   0.00
     9   1    -0.00  -0.00  -0.01     0.00  -0.00   0.48    -0.48  -0.10   0.00
    10   1    -0.00   0.00  -0.48     0.00  -0.00   0.65     0.19  -0.00  -0.00
    11   1    -0.00   0.00  -0.01     0.00   0.00   0.48    -0.48   0.10  -0.00
    12   1    -0.00  -0.00  -0.55     0.00  -0.00   0.19     0.00   0.16  -0.00
                     10                     11                     12
                      A                      A                      A
 Frequencies --    829.6061               905.4781               965.5317
 Red. masses --      1.2447                 1.4084                 1.3425
 Frc consts  --      0.5047                 0.6804                 0.7374
 IR Inten    --      0.0000                 8.1782                 0.0000
  Atom  AN      X      Y      Z        X      Y      Z        X      Y      Z
     1   9    -0.00   0.00  -0.00     0.00  -0.00  -0.02     0.00  -0.00  -0.00
     2   6     0.00  -0.00   0.00    -0.00   0.00   0.08    -0.00   0.00   0.00
     3   6     0.00   0.00  -0.08    -0.00   0.00  -0.10    -0.00   0.00   0.08
     4   6     0.00   0.00  -0.06    -0.00  -0.00   0.01    -0.00   0.00  -0.10
     5   6    -0.00  -0.00  -0.00     0.00  -0.00   0.09     0.00  -0.00  -0.00
     6   6     0.00  -0.00   0.06    -0.00   0.00   0.01     0.00   0.00   0.10
     7   6     0.00  -0.00   0.08    -0.00  -0.00  -0.10    -0.00  -0.00  -0.08
     8   1     0.00   0.00   0.56     0.00   0.00   0.60    -0.00   0.00  -0.42
     9   1     0.00   0.00   0.42    -0.00   0.00  -0.12     0.00  -0.00   0.56
    10   1    -0.00  -0.00   0.00    -0.00   0.00  -0.48     0.00  -0.00   0.00
    11   1     0.00  -0.00  -0.42    -0.00  -0.00  -0.12    -0.00  -0.00  -0.56
    12   1    -0.00  -0.00  -0.56     0.00   0.00   0.60     0.00   0.00   0.42
                     13                     14                     15
                      A                      A                      A
 Frequencies --    971.2825              1017.9326              1038.2290
 Red. masses --      1.2149                 6.2602                 1.9965
 Frc consts  --      0.6753                 3.8219                 1.2680
 IR Inten    --      0.0167                 0.0293                 5.5455
  Atom  AN      X      Y      Z        X      Y      Z        X      Y      Z
     1   9     0.00  -0.00  -0.00     0.01  -0.00   0.00     0.01  -0.00   0.00
     2   6    -0.00  -0.00  -0.02     0.04  -0.00  -0.00    -0.01   0.00   0.00
     3   6     0.00  -0.00  -0.01    -0.20   0.34   0.00    -0.04  -0.09  -0.00
     4   6     0.00  -0.00   0.07    -0.02  -0.02   0.00     0.03   0.17   0.00
     5   6    -0.00   0.00  -0.09     0.41   0.00  -0.00     0.12   0.00  -0.00
     6   6     0.00   0.00   0.07    -0.02   0.02   0.00     0.03  -0.17   0.00
     7   6     0.00   0.00  -0.01    -0.20  -0.34   0.00    -0.04   0.09  -0.00
     8   1     0.00  -0.00   0.19    -0.22   0.35   0.00    -0.41  -0.31   0.00
     9   1    -0.00  -0.00  -0.51    -0.06   0.02  -0.00    -0.26   0.34   0.00
    10   1     0.00  -0.00   0.62     0.42   0.00   0.00     0.13   0.00   0.00
    11   1    -0.00   0.00  -0.51    -0.06  -0.02  -0.00    -0.26  -0.34   0.00
    12   1     0.00   0.00   0.19    -0.22  -0.35   0.00    -0.41   0.31   0.00
                     16                     17                     18
                      A                      A                      A
 Frequencies --   1089.5501              1174.6710              1179.3802
 Red. masses --      1.4592                 1.2028                 1.1232
 Frc consts  --      1.0206                 0.9778                 0.9204
 IR Inten    --      7.7742                18.7034                 0.1255
  Atom  AN      X      Y      Z        X      Y      Z        X      Y      Z
     1   9    -0.00  -0.01   0.00     0.03  -0.00   0.00    -0.00  -0.00   0.00
     2   6     0.00   0.03   0.00    -0.07   0.00  -0.00     0.00   0.01  -0.00
     3   6     0.10  -0.04  -0.00     0.03   0.01  -0.00     0.00  -0.01  -0.00
     4   6    -0.06  -0.05  -0.00    -0.03   0.06   0.00     0.04  -0.03  -0.00
     5   6    -0.00   0.08  -0.00     0.00   0.00  -0.00    -0.00   0.07   0.00
     6   6     0.06  -0.05   0.00    -0.03  -0.06   0.00    -0.04  -0.03   0.00
     7   6    -0.10  -0.04   0.00     0.03  -0.01  -0.00    -0.00  -0.01   0.00
     8   1     0.50   0.20  -0.00     0.46   0.28  -0.00    -0.14  -0.10   0.00
     9   1    -0.27   0.06   0.00    -0.36   0.26   0.00     0.39  -0.23  -0.00
    10   1    -0.00   0.47   0.00     0.00   0.00   0.00    -0.00   0.72   0.00
    11   1     0.27   0.06  -0.00    -0.36  -0.26   0.00    -0.39  -0.23   0.00
    12   1    -0.50   0.20   0.00     0.46  -0.28  -0.00     0.14  -0.10  -0.00
                     19                     20                     21
                      A                      A                      A
 Frequencies --   1234.9305              1324.7171              1344.4734
 Red. masses --      3.6339                 1.9408                 2.7468
 Frc consts  --      3.2652                 2.0067                 2.9254
 IR Inten    --    106.8572                 0.7474                 0.3580
  Atom  AN      X      Y      Z        X      Y      Z        X      Y      Z
     1   9    -0.16   0.00  -0.00    -0.00  -0.01   0.00    -0.00   0.01   0.00
     2   6     0.38   0.00   0.00     0.00   0.22  -0.00     0.00   0.05  -0.00
     3   6     0.10   0.02  -0.00    -0.01  -0.04  -0.00    -0.19  -0.09  -0.00
     4   6    -0.10  -0.07   0.00     0.09  -0.08  -0.00     0.11  -0.04  -0.00
     5   6     0.00   0.00   0.00     0.00   0.05   0.00     0.00   0.19   0.00
     6   6    -0.10   0.07   0.00    -0.09  -0.08   0.00    -0.11  -0.04   0.00
     7   6     0.10  -0.02  -0.00     0.01  -0.04   0.00     0.19  -0.09  -0.00
     8   1    -0.08  -0.11  -0.00    -0.35  -0.26   0.00     0.45   0.30   0.00
     9   1    -0.58   0.19   0.00    -0.46   0.22   0.00     0.19  -0.09   0.00
    10   1    -0.01  -0.00  -0.00     0.00   0.10  -0.00     0.00  -0.43  -0.00
    11   1    -0.58  -0.19   0.00     0.46   0.22  -0.00    -0.19  -0.09  -0.00
    12   1    -0.08   0.11   0.00     0.35  -0.26  -0.00    -0.45   0.30  -0.00
                     22                     23                     24
                      A                      A                      A
 Frequencies --   1485.3749              1521.8991              1634.0639
 Red. masses --      2.2193                 2.3427                 5.7867
 Frc consts  --      2.8850                 3.1970                 9.1037
 IR Inten    --      1.0287                80.9731                50.0946
  Atom  AN      X      Y      Z        X      Y      Z        X      Y      Z
     1   9     0.00   0.01  -0.00    -0.03   0.00  -0.00     0.02   0.00   0.00
     2   6    -0.00  -0.14   0.00     0.16  -0.00   0.00    -0.21  -0.00  -0.00
     3   6    -0.10   0.05   0.00    -0.07  -0.11   0.00     0.30   0.09  -0.00
     4   6     0.14   0.03  -0.00    -0.11   0.11   0.00    -0.29   0.08   0.00
     5   6    -0.00  -0.16  -0.00     0.11  -0.00  -0.00     0.15   0.00  -0.00
     6   6    -0.14   0.03   0.00    -0.11  -0.11   0.00    -0.29  -0.08   0.00
     7   6     0.10   0.05  -0.00    -0.07   0.11  -0.00     0.30  -0.09  -0.00
     8   1     0.11   0.20  -0.00     0.39   0.15   0.00    -0.28  -0.26  -0.00
     9   1    -0.27   0.28   0.00     0.46  -0.21  -0.00     0.25  -0.24  -0.00
    10   1    -0.00   0.69   0.00     0.13   0.00  -0.00     0.16  -0.00  -0.00
    11   1     0.27   0.28  -0.00     0.46   0.21  -0.00     0.25   0.24  -0.00
    12   1    -0.11   0.20   0.00     0.39  -0.15  -0.00    -0.28   0.26  -0.00
                     25                     26                     27
                      A                      A                      A
 Frequencies --   1642.6084              3169.2002              3178.1013
 Red. masses --      6.5395                 1.0857                 1.0896
 Frc consts  --     10.3959                 6.4248                 6.4843
 IR Inten    --      9.2336                 0.1120                 8.9017
  Atom  AN      X      Y      Z        X      Y      Z        X      Y      Z
     1   9     0.00  -0.02   0.00    -0.00   0.00   0.00    -0.00  -0.00  -0.00
     2   6    -0.00   0.38  -0.00     0.00   0.00  -0.00     0.00  -0.00   0.00
     3   6    -0.09  -0.23   0.00     0.01  -0.01  -0.00    -0.01   0.02   0.00
     4   6    -0.09   0.21   0.00     0.02   0.04  -0.00    -0.03  -0.05   0.00
     5   6     0.00  -0.36  -0.00    -0.05   0.00   0.00     0.00   0.00   0.00
     6   6     0.09   0.21  -0.00     0.02  -0.04  -0.00     0.03  -0.05  -0.00
     7   6     0.09  -0.23   0.00     0.01   0.01  -0.00     0.01   0.02  -0.00
     8   1     0.28  -0.03   0.00    -0.08   0.13   0.00     0.11  -0.19  -0.00
     9   1     0.29   0.01  -0.00    -0.27  -0.48   0.00     0.33   0.58  -0.00
    10   1     0.00   0.41   0.00     0.59  -0.00  -0.00    -0.00  -0.00  -0.00
    11   1    -0.29   0.01   0.00    -0.27   0.48   0.00    -0.33   0.58   0.00
    12   1    -0.28  -0.03  -0.00    -0.08  -0.13   0.00    -0.11  -0.19   0.00
                     28                     29                     30
                      A                      A                      A
 Frequencies --   3190.8891              3200.4063              3202.3007
 Red. masses --      1.0933                 1.0943                 1.0966
 Frc consts  --      6.5588                 6.6036                 6.6255
 IR Inten    --     15.5236                 4.1562                 0.0913
  Atom  AN      X      Y      Z        X      Y      Z        X      Y      Z
     1   9     0.00   0.00   0.00    -0.00  -0.00   0.00    -0.00   0.00  -0.00
     2   6    -0.00  -0.00  -0.00     0.00   0.00  -0.00     0.00  -0.00  -0.00
     3   6    -0.01   0.03   0.00     0.03  -0.05  -0.00     0.03  -0.04  -0.00
     4   6    -0.01  -0.03  -0.00    -0.01  -0.02   0.00    -0.02  -0.03   0.00
     5   6    -0.07   0.00   0.00    -0.00   0.00   0.00    -0.03  -0.00   0.00
     6   6    -0.01   0.03   0.00     0.01  -0.02  -0.00    -0.02   0.03   0.00
     7   6    -0.01  -0.03   0.00    -0.03  -0.05   0.00     0.03   0.04  -0.00
     8   1     0.18  -0.31  -0.00    -0.35   0.57   0.00    -0.30   0.50   0.00
     9   1     0.15   0.26  -0.00     0.11   0.19  -0.00     0.16   0.28  -0.00
    10   1     0.75  -0.00  -0.00     0.00  -0.00   0.00     0.30   0.00  -0.00
    11   1     0.15  -0.26  -0.00    -0.11   0.19   0.00     0.16  -0.28  -0.00
    12   1     0.18   0.31  -0.00     0.35   0.57  -0.00    -0.30  -0.50   0.00

 -------------------
 - Thermochemistry -
 -------------------
 Temperature   298.150 Kelvin.  Pressure   1.00000 Atm.
 Atom     1 has atomic number  9 and mass  18.99840
 Atom     2 has atomic number  6 and mass  12.00000
 Atom     3 has atomic number  6 and mass  12.00000
 Atom     4 has atomic number  6 and mass  12.00000
 Atom     5 has atomic number  6 and mass  12.00000
 Atom     6 has atomic number  6 and mass  12.00000
 Atom     7 has atomic number  6 and mass  12.00000
 Atom     8 has atomic number  1 and mass   1.00783
 Atom     9 has atomic number  1 and mass   1.00783
 Atom    10 has atomic number  1 and mass   1.00783
 Atom    11 has atomic number  1 and mass   1.00783
 Atom    12 has atomic number  1 and mass   1.00783
 Molecular mass:    96.03753 amu.
 Principal axes and moments of inertia in atomic units:
                           1         2         3
     Eigenvalues --   317.63834 704.284801021.92314
           X            1.00000  -0.00000  -0.00000
           Y            0.00000   1.00000  -0.00000
           Z            0.00000   0.00000   1.00000
 This molecule is an asymmetric top.
 Rotational symmetry number  1.
 Rotational temperatures (Kelvin)      0.27268     0.12298     0.08476
 Rotational constants (GHZ):           5.68175     2.56252     1.76602
 Zero-point vibrational energy     240929.6 (Joules/Mol)
                                   57.58356 (Kcal/Mol)
 Warning -- explicit consideration of   5 degrees of freedom as
           vibrations may cause significant error
 Vibrational temperatures:    340.24   581.90   606.24   727.18   754.16
          (Kelvin)            902.84   974.60  1099.47  1178.00  1193.62
                             1302.78  1389.18  1397.46  1464.58  1493.78
                             1567.62  1690.09  1696.87  1776.79  1905.97
                             1934.40  2137.12  2189.67  2351.05  2363.35
                             4559.77  4572.58  4590.98  4604.67  4607.40
 
 Zero-point correction=                           0.091765 (Hartree/Particle)
 Thermal correction to Energy=                    0.096939
 Thermal correction to Enthalpy=                  0.097883
 Thermal correction to Gibbs Free Energy=         0.062924
 Sum of electronic and zero-point Energies=           -331.488429
 Sum of electronic and thermal Energies=              -331.483255
 Sum of electronic and thermal Enthalpies=            -331.482310
 Sum of electronic and thermal Free Energies=         -331.517270
 
                     E (Thermal)             CV                S
                      KCal/Mol        Cal/Mol-Kelvin    Cal/Mol-Kelvin
 Total                   60.830             20.279             73.579
 Electronic               0.000              0.000              0.000
 Translational            0.889              2.981             39.597
 Rotational               0.889              2.981             26.927
 Vibrational             59.053             14.317              7.054
 Vibration     1          0.655              1.785              1.829
 Vibration     2          0.770              1.461              0.946
 Vibration     3          0.784              1.424              0.887
 Vibration     4          0.861              1.238              0.645
 Vibration     5          0.879              1.196              0.600
                       Q            Log10(Q)             Ln(Q)
 Total Bot       0.114053D-28        -28.942893        -66.643475
 Total V=0       0.184566D+14         13.266152         30.546444
 Vib (Bot)       0.180134D-41        -41.744404        -96.120043
 Vib (Bot)    1  0.830499D+00         -0.080661         -0.185728
 Vib (Bot)    2  0.439256D+00         -0.357282         -0.822672
 Vib (Bot)    3  0.416292D+00         -0.380602         -0.876369
 Vib (Bot)    4  0.323616D+00         -0.489970         -1.128197
 Vib (Bot)    5  0.306767D+00         -0.513191         -1.181667
 Vib (V=0)       0.291502D+01          0.464641          1.069876
 Vib (V=0)    1  0.146940D+01          0.167139          0.384852
 Vib (V=0)    2  0.116554D+01          0.066528          0.153186
 Vib (V=0)    3  0.115061D+01          0.060930          0.140296
 Vib (V=0)    4  0.109559D+01          0.039648          0.091293
 Vib (V=0)    5  0.108661D+01          0.036072          0.083059
 Electronic      0.100000D+01          0.000000          0.000000
 Translational   0.369926D+08          7.568115         17.426230
 Rotational      0.171157D+06          5.233395         12.050338
 ***** Axes restored to original set *****
 -------------------------------------------------------------------
 Center     Atomic                   Forces (Hartrees/Bohr)
 Number     Number              X              Y              Z
 -------------------------------------------------------------------
      1        9           0.000068354   -0.000084838   -0.000000968
      2        6          -0.000069660    0.000086448    0.000000995
      3        6           0.000107216    0.000043047    0.000001443
      4        6          -0.000110054   -0.000061677   -0.000001776
      5        6           0.000063024   -0.000078208   -0.000000876
      6        6           0.000083691    0.000094385    0.000002153
      7        6          -0.000064890   -0.000095572   -0.000002048
      8        1          -0.000021464   -0.000011627   -0.000000340
      9        1          -0.000010128    0.000034880    0.000000516
     10        1          -0.000030092    0.000037349    0.000000407
     11        1          -0.000031930    0.000017319    0.000000071
     12        1           0.000015931    0.000018495    0.000000423
 -------------------------------------------------------------------
 Cartesian Forces:  Max     0.000110054 RMS     0.000052428
 FormGI is forming the generalized inverse of G from B-inverse, IUseBI=4.

 GradGradGradGradGradGradGradGradGradGradGradGradGradGradGradGradGradGrad
 Berny optimization.
 Internal  Forces:  Max     0.000108953 RMS     0.000027042
 Search for a local minimum.
 Step number   1 out of a maximum of    2
 All quantities printed in internal units (Hartrees-Bohrs-Radians)
 Second derivative matrix not updated -- analytic derivatives used.
 ITU=  0
     Eigenvalues ---    0.01661   0.01693   0.01745   0.02192   0.02342
     Eigenvalues ---    0.02493   0.02712   0.02902   0.03394   0.10356
     Eigenvalues ---    0.10762   0.11132   0.12210   0.12310   0.17913
     Eigenvalues ---    0.18564   0.19521   0.21656   0.29338   0.35169
     Eigenvalues ---    0.35524   0.35849   0.35995   0.36073   0.36849
     Eigenvalues ---    0.41066   0.43586   0.46829   0.46950   0.51475
 Angle between quadratic step and forces=  24.23 degrees.
 Linear search not attempted -- first point.
 Iteration  1 RMS(Cart)=  0.00014129 RMS(Int)=  0.00000002
 Iteration  2 RMS(Cart)=  0.00000003 RMS(Int)=  0.00000001
 Variable       Old X    -DE/DX   Delta X   Delta X   Delta X     New X
                                 (Linear)    (Quad)   (Total)
    R1        2.56411   0.00011   0.00000   0.00030   0.00030   2.56441
    R2        2.61978  -0.00002   0.00000  -0.00009  -0.00009   2.61969
    R3        2.61978  -0.00002   0.00000  -0.00009  -0.00009   2.61969
    R4        2.63490   0.00003   0.00000   0.00007   0.00007   2.63497
    R5        2.04624   0.00002   0.00000   0.00006   0.00006   2.04629
    R6        2.63529   0.00003   0.00000   0.00007   0.00007   2.63536
    R7        2.04831   0.00000   0.00000  -0.00001  -0.00001   2.04830
    R8        2.63529   0.00003   0.00000   0.00007   0.00007   2.63536
    R9        2.04734   0.00005   0.00000   0.00016   0.00016   2.04750
   R10        2.63490   0.00003   0.00000   0.00007   0.00007   2.63497
   R11        2.04831   0.00000   0.00000  -0.00001  -0.00001   2.04830
   R12        2.04624   0.00002   0.00000   0.00006   0.00006   2.04629
    A1        2.07180  -0.00000   0.00000  -0.00002  -0.00002   2.07178
    A2        2.07180  -0.00000   0.00000  -0.00002  -0.00002   2.07178
    A3        2.13958   0.00000   0.00000   0.00005   0.00005   2.13963
    A4        2.06515   0.00003   0.00000   0.00010   0.00010   2.06525
    A5        2.09033   0.00000   0.00000   0.00008   0.00008   2.09041
    A6        2.12770  -0.00003   0.00000  -0.00017  -0.00017   2.12753
    A7        2.10251  -0.00005   0.00000  -0.00028  -0.00028   2.10223
    A8        2.08383   0.00006   0.00000   0.00045   0.00045   2.08428
    A9        2.09685  -0.00001   0.00000  -0.00018  -0.00018   2.09667
   A10        2.09146   0.00005   0.00000   0.00031   0.00031   2.09178
   A11        2.09586  -0.00003   0.00000  -0.00016  -0.00016   2.09570
   A12        2.09586  -0.00003   0.00000  -0.00016  -0.00016   2.09570
   A13        2.10251  -0.00005   0.00000  -0.00028  -0.00028   2.10223
   A14        2.09685  -0.00001   0.00000  -0.00018  -0.00018   2.09667
   A15        2.08383   0.00006   0.00000   0.00045   0.00045   2.08428
   A16        2.06515   0.00003   0.00000   0.00010   0.00010   2.06525
   A17        2.09033   0.00000   0.00000   0.00008   0.00008   2.09041
   A18        2.12770  -0.00003   0.00000  -0.00017  -0.00017   2.12753
    D1        3.14159   0.00000   0.00000   0.00000   0.00000   3.14159
    D2       -0.00000   0.00000   0.00000   0.00000   0.00000   0.00000
    D3       -0.00000  -0.00000   0.00000   0.00000   0.00000  -0.00000
    D4        3.14159  -0.00000   0.00000   0.00000   0.00000   3.14159
    D5       -3.14159  -0.00000   0.00000  -0.00000  -0.00000   3.14159
    D6        0.00000  -0.00000   0.00000  -0.00000  -0.00000   0.00000
    D7        0.00000  -0.00000   0.00000  -0.00000  -0.00000   0.00000
    D8       -3.14159   0.00000   0.00000  -0.00000  -0.00000   3.14159
    D9       -0.00000   0.00000   0.00000   0.00000   0.00000   0.00000
   D10        3.14159  -0.00000   0.00000   0.00000   0.00000   3.14159
   D11        3.14159   0.00000   0.00000   0.00000   0.00000   3.14159
   D12       -0.00000   0.00000   0.00000  -0.00000   0.00000   0.00000
   D13        0.00000  -0.00000   0.00000  -0.00000  -0.00000   0.00000
   D14       -3.14159  -0.00000   0.00000  -0.00000  -0.00000   3.14159
   D15       -3.14159  -0.00000   0.00000  -0.00000  -0.00000  -3.14159
   D16        0.00000  -0.00000   0.00000  -0.00000  -0.00000  -0.00000
   D17       -0.00000   0.00000   0.00000   0.00000   0.00000  -0.00000
   D18        3.14159   0.00000   0.00000   0.00000   0.00000   3.14159
   D19        3.14159   0.00000   0.00000   0.00000   0.00000   3.14159
   D20       -0.00000   0.00000   0.00000   0.00000   0.00000   0.00000
   D21       -0.00000   0.00000   0.00000   0.00000   0.00000   0.00000
   D22        3.14159  -0.00000   0.00000  -0.00000   0.00000   3.14159
   D23        3.14159   0.00000   0.00000   0.00000   0.00000   3.14159
   D24       -0.00000   0.00000   0.00000   0.00000   0.00000   0.00000
         Item               Value     Threshold  Converged?
 Maximum Force            0.000109     0.000450     YES
 RMS     Force            0.000027     0.000300     YES
 Maximum Displacement     0.000493     0.001800     YES
 RMS     Displacement     0.000141     0.001200     YES
 Predicted change in Energy=-9.195639D-08
 Optimization completed.
    -- Stationary point found.
                           ----------------------------
                           !   Optimized Parameters   !
                           ! (Angstroms and Degrees)  !
 --------------------------                            --------------------------
 ! Name  Definition              Value          Derivative Info.                !
 --------------------------------------------------------------------------------
 ! R1    R(1,2)                  1.3569         -DE/DX =    0.0001              !
 ! R2    R(2,3)                  1.3863         -DE/DX =    0.0                 !
 ! R3    R(2,7)                  1.3863         -DE/DX =    0.0                 !
 ! R4    R(3,4)                  1.3943         -DE/DX =    0.0                 !
 ! R5    R(3,8)                  1.0828         -DE/DX =    0.0                 !
 ! R6    R(4,5)                  1.3945         -DE/DX =    0.0                 !
 ! R7    R(4,9)                  1.0839         -DE/DX =    0.0                 !
 ! R8    R(5,6)                  1.3945         -DE/DX =    0.0                 !
 ! R9    R(5,10)                 1.0834         -DE/DX =    0.0                 !
 ! R10   R(6,7)                  1.3943         -DE/DX =    0.0                 !
 ! R11   R(6,11)                 1.0839         -DE/DX =    0.0                 !
 ! R12   R(7,12)                 1.0828         -DE/DX =    0.0                 !
 ! A1    A(1,2,3)              118.7055         -DE/DX =    0.0                 !
 ! A2    A(1,2,7)              118.7055         -DE/DX =    0.0                 !
 ! A3    A(3,2,7)              122.5891         -DE/DX =    0.0                 !
 ! A4    A(2,3,4)              118.3245         -DE/DX =    0.0                 !
 ! A5    A(2,3,8)              119.7672         -DE/DX =    0.0                 !
 ! A6    A(4,3,8)              121.9083         -DE/DX =    0.0                 !
 ! A7    A(3,4,5)              120.465          -DE/DX =   -0.0001              !
 ! A8    A(3,4,9)              119.3946         -DE/DX =    0.0001              !
 ! A9    A(5,4,9)              120.1404         -DE/DX =    0.0                 !
 ! A10   A(4,5,6)              119.832          -DE/DX =    0.0001              !
 ! A11   A(4,5,10)             120.084          -DE/DX =    0.0                 !
 ! A12   A(6,5,10)             120.084          -DE/DX =    0.0                 !
 ! A13   A(5,6,7)              120.465          -DE/DX =   -0.0001              !
 ! A14   A(5,6,11)             120.1404         -DE/DX =    0.0                 !
 ! A15   A(7,6,11)             119.3946         -DE/DX =    0.0001              !
 ! A16   A(2,7,6)              118.3245         -DE/DX =    0.0                 !
 ! A17   A(2,7,12)             119.7672         -DE/DX =    0.0                 !
 ! A18   A(6,7,12)             121.9083         -DE/DX =    0.0                 !
 ! D1    D(1,2,3,4)            180.0            -DE/DX =    0.0                 !
 ! D2    D(1,2,3,8)              0.0            -DE/DX =    0.0                 !
 ! D3    D(7,2,3,4)              0.0            -DE/DX =    0.0                 !
 ! D4    D(7,2,3,8)            180.0            -DE/DX =    0.0                 !
 ! D5    D(1,2,7,6)            180.0            -DE/DX =    0.0                 !
 ! D6    D(1,2,7,12)             0.0            -DE/DX =    0.0                 !
 ! D7    D(3,2,7,6)              0.0            -DE/DX =    0.0                 !
 ! D8    D(3,2,7,12)           180.0            -DE/DX =    0.0                 !
 ! D9    D(2,3,4,5)              0.0            -DE/DX =    0.0                 !
 ! D10   D(2,3,4,9)            180.0            -DE/DX =    0.0                 !
 ! D11   D(8,3,4,5)            180.0            -DE/DX =    0.0                 !
 ! D12   D(8,3,4,9)              0.0            -DE/DX =    0.0                 !
 ! D13   D(3,4,5,6)              0.0            -DE/DX =    0.0                 !
 ! D14   D(3,4,5,10)           180.0            -DE/DX =    0.0                 !
 ! D15   D(9,4,5,6)           -180.0            -DE/DX =    0.0                 !
 ! D16   D(9,4,5,10)             0.0            -DE/DX =    0.0                 !
 ! D17   D(4,5,6,7)              0.0            -DE/DX =    0.0                 !
 ! D18   D(4,5,6,11)           180.0            -DE/DX =    0.0                 !
 ! D19   D(10,5,6,7)           180.0            -DE/DX =    0.0                 !
 ! D20   D(10,5,6,11)            0.0            -DE/DX =    0.0                 !
 ! D21   D(5,6,7,2)              0.0            -DE/DX =    0.0                 !
 ! D22   D(5,6,7,12)           180.0            -DE/DX =    0.0                 !
 ! D23   D(11,6,7,2)           180.0            -DE/DX =    0.0                 !
 ! D24   D(11,6,7,12)            0.0            -DE/DX =    0.0                 !
 --------------------------------------------------------------------------------
 GradGradGradGradGradGradGradGradGradGradGradGradGradGradGradGradGradGrad


 ----------------------------------------------------------------------

 Electric dipole moment (input orientation):
 (Debye = 10**-18 statcoulomb cm , SI units = C m)
                  (au)            (Debye)         (10**-30 SI)
   Tot        0.688921D+00      0.175106D+01      0.584091D+01
   x         -0.432214D+00     -0.109858D+01     -0.366446D+01
   y          0.536439D+00      0.136349D+01      0.454812D+01
   z          0.600599D-02      0.152657D-01      0.509209D-01

 Dipole polarizability, Alpha (input orientation).
 (esu units = cm**3 , SI units = C**2 m**2 J**-1)
 Alpha(0;0):
               (au)            (10**-24 esu)      (10**-40 SI)
   iso        0.661453D+02      0.980172D+01      0.109059D+02
   aniso      0.386056D+02      0.572076D+01      0.636521D+01
   xx         0.787259D+02      0.116660D+02      0.129801D+02
   yx        -0.122547D+01     -0.181596D+00     -0.202053D+00
   yy         0.792489D+02      0.117435D+02      0.130664D+02
   zx         0.242083D+00      0.358730D-01      0.399141D-01
   zy         0.640458D+00      0.949061D-01      0.105597D+00
   zz         0.404611D+02      0.599571D+01      0.667113D+01

 ----------------------------------------------------------------------

 Dipole orientation:
     9          0.00000023         -0.00000026         -5.09841467
     6         -0.00000018          0.00000025         -2.53430706
     6         -1.81189335         -1.41314261         -1.27600790
     6         -1.79807861         -1.40236829          1.35883426
     6          0.00000018         -0.00000026          2.67982291
     6          1.79807855          1.40236836          1.35883426
     6          1.81189300          1.41314306         -1.27600790
     1         -3.18724312         -2.48581370         -2.34599428
     1         -3.19999956         -2.49576307          2.37603493
     1          0.00000064         -0.00000086          4.72716485
     1          3.19999962          2.49576298          2.37603494
     1          3.18724259          2.48581438         -2.34599430

 Electric dipole moment (dipole orientation):
 (Debye = 10**-18 statcoulomb cm , SI units = C m)
                  (au)            (Debye)         (10**-30 SI)
   Tot        0.688921D+00      0.175106D+01      0.584091D+01
   x          0.000000D+00      0.000000D+00      0.000000D+00
   y          0.000000D+00      0.000000D+00      0.000000D+00
   z          0.688921D+00      0.175106D+01      0.584091D+01

 Dipole polarizability, Alpha (dipole orientation).
 (esu units = cm**3 , SI units = C**2 m**2 J**-1)
 Alpha(0;0):
               (au)            (10**-24 esu)      (10**-40 SI)
   iso        0.661453D+02      0.980172D+01      0.109059D+02
   aniso      0.386056D+02      0.572076D+01      0.636521D+01
   xx         0.636380D+02      0.943018D+01      0.104925D+02
   yx         0.180859D+02      0.268006D+01      0.298197D+01
   yy         0.545544D+02      0.808413D+01      0.899481D+01
   zx         0.000000D+00      0.000000D+00      0.000000D+00
   zy         0.000000D+00      0.000000D+00      0.000000D+00
   zz         0.802435D+02      0.118909D+02      0.132304D+02

 ----------------------------------------------------------------------
 Unable to Open any file for archive entry.
 1\1\GINC-CCC115\Freq\RB3LYP\6-311++G(d,p)\C6H5F1\ROOT\12-Jun-2024\0\\#
 N Geom=AllCheck Guess=TCheck SCRF=Check GenChk RB3LYP/6-311++G(d,p) Fr
 eq\\Fc1ccccc1\\0,1\F,1.6926442193,-2.1008133403,-0.0235206018\C,0.8413
 753065,-1.0442669745,-0.0116918164\C,-0.5232130755,-1.2884442026,-0.02
 51361762\C,-1.3907463257,-0.1969366405,-0.012833887\C,-0.8896857268,1.
 1042271076,0.0123631356\C,0.4884960821,1.3167581261,0.0253714044\C,1.3
 704675811,0.236880302,0.0133625214\H,-0.8866997545,-2.3082468551,-0.04
 46840203\H,-2.4610523694,-0.3678934986,-0.0230350385\H,-1.5693914276,1
 .947838994,0.0218086481\H,0.8833926284,2.3259946785,0.0449580696\H,2.4
 444128531,0.3749023144,0.0230377627\\Version=ES64L-G16RevC.02\State=1-
 A\HF=-331.5801939\RMSD=2.823e-09\RMSF=5.243e-05\ZeroPoint=0.0917652\Th
 ermal=0.0969393\ETot=-331.4832545\HTot=-331.4823104\GTot=-331.5172701\
 Dipole=-0.4322139,0.5364392,0.006006\DipoleDeriv=-0.6680173,0.5680754,
 0.0059084,0.5680754,-0.915358,-0.0089947,0.0059083,-0.0089945,-0.14457
 7,0.7340674,-0.592474,-0.0054768,-0.592474,0.992003,0.0110511,-0.00547
 67,0.0110509,0.088278,-0.1891728,0.1920981,0.002822,-0.0061775,-0.0417
 687,0.001471,-0.0004937,0.0028312,-0.1322188,0.1096189,-0.0220459,0.00
 1339,0.0398166,0.0973172,0.0042305,0.0023735,0.0038061,-0.1392408,-0.0
 838752,-0.0999703,-0.0012631,-0.0999702,-0.0403389,0.001039,-0.001263,
 0.001039,-0.1434639,0.1016351,0.0415558,0.0023479,-0.0203068,0.1052987
 ,0.0039515,0.0013133,0.0043759,-0.1392386,-0.0097486,-0.0452616,0.0000
 835,0.153014,-0.2211422,-0.0004366,0.0033993,-0.0017968,-0.1322695,0.0
 722157,-0.037085,-0.0012217,-0.0285619,-0.031033,-0.003389,-0.0010792,
 -0.0034475,0.1598392,-0.0817788,-0.024223,-0.0019126,-0.0258947,0.0671
 664,-0.0013618,-0.0019405,-0.0013503,0.1379388,0.0051448,0.0780291,0.0
 003303,0.0780291,-0.0288094,-0.0024085,0.0003303,-0.0024085,0.1471799,
 0.0499727,-0.0545942,-0.0015167,-0.0529225,-0.0645479,-0.0037499,-0.00
 14887,-0.0037614,0.1379016,-0.0400618,-0.0041044,-0.0014404,-0.0126274
 ,0.0812128,-0.0014026,-0.0015829,-0.0013441,0.159871\Polar=78.725868,-
 1.2254689,79.2489439,0.2420831,0.6404581,40.4610793\Quadrupole=1.94680
 45,0.8696651,-2.8164696,2.4693325,0.0739823,0.0786149\PG=C01 [X(C6H5F1
 )]\NImag=0\\0.18903271,-0.15106459,0.25479879,-0.00138617,0.00284270,0
 .02288012,-0.15811854,0.10378673,0.00092976,0.67734666,0.10378673,-0.2
 0330124,-0.00200806,0.03480913,0.66203189,0.00092977,-0.00200807,-0.04
 067474,0.00421954,0.00884989,0.14728476,-0.03750124,0.00996650,-0.0001
 3857,-0.31488647,-0.01691146,-0.00200971,0.67475287,0.05103707,-0.0019
 5585,0.00020045,-0.09455020,-0.13551766,-0.00185883,0.02432658,0.74506
 678,0.00054825,-0.00008129,0.00699636,-0.00330807,-0.00132624,-0.06319
 431,0.00421140,0.01061757,0.12035047,-0.00422061,-0.00067234,-0.000089
 31,-0.04232352,0.01698686,0.00000379,-0.20765632,0.13219093,0.00115294
 ,0.73323138,-0.00973899,-0.00094452,-0.00020234,0.07493230,0.05345424,
 0.00143246,0.06856965,-0.25487506,-0.00289776,0.01218060,0.65622288,-0
 .00024093,-0.00014014,0.00715550,0.00097282,0.00103496,-0.00144133,0.0
 0008900,-0.00246134,-0.05350939,0.00436357,0.00893677,0.12700802,0.001
 54461,0.00420945,0.00008781,-0.04681907,-0.03838779,-0.00094945,0.0594
 7637,-0.00248409,0.00034950,-0.15373966,-0.03632679,-0.00128481,0.6863
 1965,0.00420945,-0.00029000,0.00004065,-0.03838779,-0.03008232,-0.0007
 3303,0.04244364,-0.05298895,-0.00063633,-0.09881767,-0.30327617,-0.004
 82979,-0.04341774,0.70507551,0.00008781,0.00004065,-0.00099280,-0.0009
 4945,-0.00073303,-0.00201476,0.00110083,-0.00094453,0.00246378,-0.0023
 2986,-0.00440112,-0.05509538,0.00314930,0.00946363,0.12155441,-0.00326
 091,-0.00994804,-0.00023784,0.06825002,0.05084599,0.00132855,-0.059706
 33,0.02089171,-0.00006301,-0.01132270,-0.08341251,-0.00148628,-0.32467
 980,0.00090924,-0.00183470,0.66492274,-0.00088139,-0.00190395,-0.00015
 762,-0.00709945,-0.05708806,-0.00097889,0.02030640,-0.00820856,-0.0000
 0484,-0.03592995,0.01467752,-0.00003436,-0.06158164,-0.13238430,-0.001
 71647,0.02706031,0.72451219,-0.00008622,-0.00021981,0.00715523,0.00035
 952,-0.00058139,-0.00147256,-0.00007280,-0.00000082,0.00040972,-0.0006
 9222,-0.00036009,0.00198325,-0.00287975,-0.00128778,-0.05504710,0.0041
 4376,0.01018085,0.12702733,0.00912097,0.04088132,0.00069825,-0.1668510
 5,-0.12679688,-0.00283182,-0.00752701,-0.03132433,-0.00061750,-0.00197
 441,0.00831592,0.00012271,-0.03959543,0.01909680,0.00003079,-0.2110277
 6,0.13292533,0.00114211,0.75217002,-0.00018925,-0.04856489,-0.00093041
 ,-0.04915813,-0.28351128,-0.00402235,-0.07749609,0.01618128,-0.0003634
 5,0.00773061,-0.06592417,-0.00105629,0.06402453,0.04605487,0.00116805,
 0.06930405,-0.25150456,-0.00283640,0.00746275,0.66767151,0.00001142,-0
 .00064866,0.00698319,-0.00153345,-0.00455495,-0.06323613,-0.00138964,-
 0.00004672,0.00611554,0.00011292,-0.00105228,0.00039341,0.00078212,0.0
 0085985,0.00249177,0.00007815,-0.00239995,-0.05350844,0.00446039,0.009
 20759,0.12032860,0.00292655,0.00074232,0.00006143,-0.00491566,-0.03111
 191,-0.00058612,-0.09222060,-0.09101468,-0.00192779,0.01183161,0.01943
 307,0.00039407,-0.00208394,0.00341504,-0.00000810,-0.00104120,0.000916
 23,0.00001667,-0.00587495,0.00008030,-0.00007476,0.09041428,-0.0003911
 3,0.00149371,0.00009284,0.00144695,-0.00372690,-0.00013067,-0.09284010
 ,-0.30611425,-0.00520296,-0.01031844,-0.01631169,-0.00037300,0.0039503
 7,-0.00128666,-0.00011853,0.00052960,0.00043874,0.00003166,-0.00061445
 ,0.00149652,-0.00006647,0.09859500,0.32402652,0.00004247,0.00010062,-0
 .00421664,-0.00004162,-0.00035402,0.00467427,-0.00195833,-0.00519044,-
 0.03317503,-0.00010346,-0.00016891,0.00175651,0.00000086,-0.00012220,0
 .00741966,0.00001020,0.00003432,-0.00123685,-0.00008638,-0.00006170,0.
 00521731,0.00210689,0.00569977,0.02374970,-0.00140025,0.00026913,-0.00
 000524,0.00088896,0.00297053,0.00000155,-0.01517123,-0.00508872,-0.000
 20608,-0.32935342,-0.04319328,-0.00273880,-0.00686124,0.00104901,-0.00
 004646,0.00120980,-0.00244627,-0.00008241,0.00064406,0.00028961,0.0000
 1893,0.00086533,0.00014512,0.00003596,0.34895384,0.00197769,-0.0003766
 4,0.00000694,0.00207005,-0.00300963,-0.00016831,0.02572191,0.00729914,
 0.00025729,-0.04338708,-0.06578831,-0.00080577,-0.02983609,0.00071081,
 -0.00023408,-0.00165115,-0.00527358,-0.00022093,0.00046501,-0.00105411
 ,0.00000913,-0.00059218,0.00094300,0.00007897,0.04621435,0.06565487,0.
 00002333,-0.00000478,0.00001955,-0.00001350,-0.00016213,0.00790115,0.0
 0030917,0.00004593,0.00246803,-0.00274204,-0.00080444,-0.03543548,-0.0
 0056296,-0.00002221,0.00246490,-0.00006912,-0.00022639,0.00725576,0.00
 002186,0.00000793,-0.00140905,0.00002363,0.00008403,-0.00402076,0.0029
 9421,0.00099462,0.02517387,0.00019922,0.00027589,0.00001359,-0.0008300
 3,-0.00138868,-0.00002615,0.00020968,-0.00264522,-0.00009268,0.0106902
 7,-0.01079973,-0.00011529,-0.16814747,0.13615494,0.00135058,-0.0144487
 9,0.02588127,0.00032569,-0.00491773,-0.00215043,-0.00011958,0.00038437
 ,-0.00054392,-0.00000849,0.00074476,0.00051709,0.00003960,0.17580397,0
 .00027589,0.00007865,0.00002176,-0.00138868,-0.00022491,-0.00000654,-0
 .00326733,-0.00386965,-0.00020874,0.02040521,-0.01772960,-0.00017606,0
 .13615494,-0.22742678,-0.00231585,-0.00532367,0.00740236,0.00006774,-0
 .00152831,0.00125631,-0.00011109,0.00099310,-0.00082758,-0.00001198,-0
 .00029902,0.00095413,0.00007691,-0.14617334,0.23944338,0.00001359,0.00
 002176,-0.00110863,-0.00002615,-0.00000654,-0.00040394,-0.00010309,-0.
 00020447,0.00726811,0.00040656,-0.00039012,0.00116448,0.00135058,-0.00
 231586,-0.03312803,-0.00019616,0.00028180,0.00117158,-0.00010918,-0.00
 011536,0.00726956,0.00001721,-0.00002252,0.00029587,0.00002595,0.00008
 251,-0.00376602,-0.00140780,0.00258898,0.02470693,0.00004425,0.0016630
 4,0.00002798,-0.00178738,0.00265304,-0.00002211,-0.00082009,0.00078395
 ,0.00001715,-0.00583552,-0.00011647,-0.00009178,-0.00562103,-0.0301062
 5,-0.00055897,-0.09574977,-0.09427314,-0.00199052,0.01057434,0.0201137
 3,0.00039200,0.00007290,-0.00006221,0.00000419,-0.00044661,-0.00146939
 ,-0.00002789,0.00099128,0.00046339,0.00004039,0.09772983,-0.00004552,-
 0.00182073,-0.00003109,0.00355352,-0.00033405,-0.00011339,0.00060855,0
 .00040963,0.00003459,-0.00091158,0.00176975,-0.00009807,0.00077885,-0.
 00052904,-0.00004480,-0.09407933,-0.29932596,-0.00505902,-0.01069690,-
 0.01843916,-0.00042297,-0.00004615,-0.00005755,0.00001025,0.00010368,-
 0.00014898,-0.00000240,-0.00035272,0.00070767,0.00007242,0.10093866,0.
 31680791,-0.00000059,-0.00001937,0.00001914,-0.00000706,-0.00011957,0.
 00790190,0.00001422,0.00003580,-0.00140864,-0.00010508,-0.00009261,0.0
 0725775,-0.00004248,-0.00025666,0.00246455,-0.00198728,-0.00506035,-0.
 03550148,-0.00012326,-0.00021161,0.00246076,0.00000446,0.00001014,-0.0
 0068902,-0.00000159,-0.00001319,0.00003704,0.00002675,0.00007802,-0.00
 376609,0.00218600,0.00557012,0.02524484,0.00163323,-0.00010941,0.00003
 831,-0.00995391,0.00254443,-0.00005784,0.00105038,-0.00212300,-0.00006
 410,0.00067289,0.00015621,0.00001572,0.00020701,0.00345133,0.00000823,
 -0.01314530,-0.00487770,-0.00018382,-0.33474104,-0.04001169,-0.0027385
 0,-0.00035871,0.00010322,-0.00000228,-0.00007401,-0.00003021,0.0000037
 2,-0.00067953,-0.00031217,-0.00001191,0.00084782,0.00014894,0.00003590
 ,0.35454117,0.00102404,0.00278667,0.00012417,-0.03001442,0.00130993,-0
 .00026226,-0.00142825,-0.00542685,-0.00018783,0.00054285,-0.00127487,0
 .00000310,0.00291600,-0.00357696,-0.00016393,0.02487381,0.00865816,0.0
 0028599,-0.03818627,-0.06366232,-0.00077347,-0.00141013,-0.00007386,-0
 .00001468,-0.00001415,0.00008932,0.00001292,0.00122485,0.00023602,0.00
 000740,-0.00058836,0.00096051,0.00007929,0.04106004,0.05997425,0.00005
 727,0.00011640,-0.00421627,-0.00060233,-0.00003892,0.00467570,-0.00005
 248,-0.00019259,0.00521535,0.00002218,0.00000045,-0.00123733,-0.000000
 73,-0.00016026,0.00741902,0.00031372,0.00008190,0.00176357,-0.00270797
 ,-0.00078599,-0.03310651,-0.00002759,-0.00000429,0.00022496,0.00000398
 ,0.00001281,-0.00068898,0.00001379,-0.00000315,0.00029617,0.00002357,0
 .00008435,-0.00402075,0.00295658,0.00088929,0.02367509\\-0.00006835,0.
 00008484,0.00000097,0.00006966,-0.00008645,-0.00000100,-0.00010722,-0.
 00004305,-0.00000144,0.00011005,0.00006168,0.00000178,-0.00006302,0.00
 007821,0.00000088,-0.00008369,-0.00009438,-0.00000215,0.00006489,0.000
 09557,0.00000205,0.00002146,0.00001163,0.00000034,0.00001013,-0.000034
 88,-0.00000052,0.00003009,-0.00003735,-0.00000041,0.00003193,-0.000017
 32,-0.00000007,-0.00001593,-0.00001849,-0.00000042\\\@
 The archive entry for this job was punched.


 THE BEST WAY TO CONVINCE A FOOL THAT HE IS WRONG 
 IS TO LET HIM HAVE HIS OWN WAY.

                                         JOSH BILLINGS
 Job cpu time:       0 days  0 hours  7 minutes  2.7 seconds.
 Elapsed time:       0 days  0 hours  1 minutes  1.0 seconds.
 File lengths (MBytes):  RWF=     46 Int=      0 D2E=      0 Chk=      4 Scr=      1
 Normal termination of Gaussian 16 at Wed Jun 12 21:59:49 2024.
